LAMMPS (22 Aug 2018)
OMP_NUM_THREADS environment is not set. Defaulting to 1 thread. (src/comm.cpp:87)
  using 1 OpenMP thread(s) per MPI task
Reading data file ...
  orthogonal box = (-0 -0 -0) to (100 100 100)
  1 by 1 by 1 MPI processor grid
  reading atoms ...
  561 atoms
WARNING: The pair_style meam command is unsupported. Please use pair_style meam/c instead (src/MEAM/pair_meam.cpp:51)
Reading potential file library.meam with DATE: 2012-06-29
Neighbor list info ...
  update every 1 steps, delay 10 steps, check yes
  max neighbors/atom: 2000, page size: 100000
  master list distance cutoff = 6
  ghost atom cutoff = 6
  binsize = 3, bins = 34 34 34
  2 neighbor lists, perpetual/occasional/extra = 2 0 0
  (1) pair meam, perpetual
      attributes: full, newton on
      pair build: full/bin/atomonly
      stencil: full/bin/3d
      bin: standard
  (2) pair meam, perpetual, half/full from (1)
      attributes: half, newton on
      pair build: halffull/newton
      stencil: none
      bin: none
Setting up Verlet run ...
  Unit style    : metal
  Current step  : 0
  Time step     : 0.0001
Per MPI rank memory allocation (min/avg/max) = 9.723 | 9.723 | 9.723 Mbytes
Step Temp PotEng KinEng TotEng 
       0          600    -1726.413    43.431409   -1682.9816 
     200    566.56563   -1723.9502    41.011239   -1682.9389 
     400    399.74869   -1710.9549    28.936082   -1682.0188 
     600    659.53494   -1725.7243    47.740886   -1677.9834 
     800    1001.4498   -1746.0537    72.490623   -1673.5631 
    1000    1020.2545   -1756.5744    73.851814   -1682.7226 
    1200    828.34423    -1765.083    59.960261   -1705.1228 
    1400    649.07797   -1776.4301    46.983951   -1729.4461 
    1600    496.79283   -1785.5077    35.960687    -1749.547 
    1800    376.70128   -1790.4509    27.267779   -1763.1832 
    2000    304.33698   -1792.9392     22.02964   -1770.9096 
    2200    274.60989   -1794.1483    19.877824   -1774.2705 
    2400    260.64021   -1792.8961    18.866619   -1774.0295 
    2600    286.18652    -1790.943    20.715806   -1770.2272 
    2800    358.83334   -1787.9437    25.974396   -1761.9693 
    3000    512.18763   -1783.9413     37.07505   -1746.8663 
    3200    712.36747   -1775.0855    51.565205   -1723.5203 
    3400    860.72545   -1759.0797    62.304198   -1696.7755 
    3600    952.15992   -1743.5676    68.922744   -1674.6448 
    3800    987.24278   -1735.7021    71.462241   -1664.2398 
    4000    937.27441   -1735.7222    67.845246    -1667.877 
    4200    812.34628   -1741.1758    58.802239   -1682.3735 
    4400     629.6405   -1745.4937    45.576956   -1699.9167 
    4600    540.07231   -1754.0638    39.093502   -1714.9703 
    4800    476.27003   -1761.5333     34.47513   -1727.0581 
    5000    440.49224   -1767.6684    31.885331    -1735.783 
    5200    425.15572    -1772.172    30.775186   -1741.3968 
    5400    422.22545    -1774.626    30.563077   -1744.0629 
    5600    442.98325   -1775.9082    32.065644   -1743.8425 
    5800    498.44499   -1776.8849     36.08028   -1740.8046 
    6000    545.98329   -1774.8604    39.521372    -1735.339 
    6200    614.14315   -1772.6381     44.45517   -1728.1829 
    6400    706.92591   -1771.5013    51.171314     -1720.33 
    6600    724.62055   -1767.0149    52.452152   -1714.5628 
    6800    692.31747   -1762.2545    50.113872   -1712.1406 
    7000    669.29571   -1760.7879    48.447426   -1712.3405 
    7200    624.74667   -1759.4008    45.222713   -1714.1781 
    7400    587.56016   -1759.0145    42.530943   -1716.4836 
    7600    599.07889   -1761.9486    43.364733   -1718.5839 
    7800    587.10035   -1763.1163    42.497659   -1720.6187 
    8000    569.18205   -1763.5326     41.20063    -1722.332 
    8200    574.46255   -1764.9864    41.582863   -1723.4035 
    8400    587.42573   -1766.4715    42.521212   -1723.9503 
    8600    634.96799   -1770.3148     45.96259   -1724.3522 
    8800    633.48421    -1771.295    45.855186   -1725.4399 
    9000    632.11371   -1773.1311    45.755981   -1727.3751 
    9200    609.35158   -1774.1077    44.108329   -1729.9994 
    9400    570.41878   -1773.9456    41.290152   -1732.6554 
    9600      564.849   -1775.5187    40.886979   -1734.6317 
    9800    544.48605   -1775.2011    39.412994   -1735.7881 
   10000    524.92073   -1773.7432    37.996744   -1735.7465 
   10200    536.31665   -1773.0227    38.821646    -1734.201 
   10400    570.25959   -1772.5504    41.278629   -1731.2718 
   10600     590.3404   -1770.2719    42.732192   -1727.5397 
   10800    601.48281   -1767.0347    43.538743   -1723.4959 
   11000    662.73392   -1767.2575    47.972446   -1719.2851 
   11200     702.0876   -1767.1231    50.821089    -1716.302 
   11400    705.67088    -1767.057    51.080468   -1715.9766 
   11600    648.15481   -1765.1819    46.917127   -1718.2648 
   11800    607.24767   -1765.5679    43.956036   -1721.6118 
   12000    571.83196   -1766.3145    41.392446    -1724.922 
   12200    574.07673   -1769.1661    41.554935   -1727.6112 
   12400    571.60224   -1771.0624    41.375818   -1729.6866 
   12600    594.46063   -1774.2908    43.030437   -1731.2603 
   12800    586.74178   -1775.1518    42.471703   -1732.6801 
   13000    548.43612   -1773.3816    39.698922   -1733.6827 
   13200    554.23106   -1773.7702    40.118393   -1733.6518 
   13400    568.00793   -1773.7516    41.115641    -1732.636 
   13600     584.2081   -1773.1972    42.288301   -1730.9089 
   13800    590.59173   -1771.4854    42.750385    -1728.735 
   14000    617.21034    -1771.039    44.677191   -1726.3618 
   14200    606.59374   -1768.1583    43.908701   -1724.2496 
   14400    600.55223    -1765.794    43.471383   -1722.3226 
   14600    631.31029   -1766.1835    45.697825   -1720.4857 
   14800    655.84054   -1766.7842    47.473464   -1719.3107 
   15000    661.35131   -1767.3519    47.872365   -1719.4796 
   15200     638.6263   -1767.3355      46.2274   -1721.1081 
   15400    645.42208   -1770.4579    46.719317   -1723.7385 
   15600     605.3109   -1771.1071    43.815842   -1727.2912 
   15800    553.89764   -1770.7747    40.094258   -1730.6804 
   16000    544.34487   -1772.3328    39.402774     -1732.93 
   16200    548.64144   -1773.7278    39.713785    -1734.014 
   16400      545.694   -1773.5082    39.500432   -1734.0078 
   16600    563.41227   -1773.6748    40.782981   -1732.8918 
   16800    607.88539   -1774.9679    44.002198   -1730.9657 
   17000    597.59944   -1772.2881    43.257642   -1729.0304 
   17200    587.93315   -1769.6607    42.557942   -1727.1028 
   17400    608.97172   -1768.9973    44.080833   -1724.9165 
   17600    648.94586   -1769.8624    46.974388    -1722.888 
   17800    651.88904   -1769.0491    47.187432   -1721.8617 
   18000    655.04103   -1769.5681    47.415591   -1722.1525 
   18200    614.92033   -1768.1793    44.511427   -1723.6678 
   18400    577.73285   -1767.2754    41.819586   -1725.4558 
   18600    596.96679   -1770.0767    43.211848   -1726.8648 
   18800    588.74901   -1770.7829    42.616998   -1728.1659 
   19000    588.31528   -1771.8449    42.585602   -1729.2593 
   19200    571.36241   -1771.3786    41.358457   -1730.0202 
   19400    602.14675   -1773.8686    43.586803   -1730.2818 
   19600    586.10327   -1772.9119    42.425484   -1730.4864 
   19800    569.71345    -1771.613    41.239096   -1730.3739 
   20000    577.84277   -1771.4407    41.827543   -1729.6131 
   20200    596.51933   -1771.5311    43.179458   -1728.3516 
   20400    608.30948   -1770.9809    44.032896    -1726.948 
   20600    611.21569   -1769.9439    44.243264   -1725.7007 
   20800    627.62864   -1770.1528    45.431327   -1724.7215 
   21000    626.08347   -1769.6788    45.319479   -1724.3593 
   21200     613.1711   -1768.9629    44.384808   -1724.5781 
   21400    607.35683   -1769.0791    43.963938   -1725.1152 
   21600    606.47281   -1769.7314    43.899947   -1725.8315 
   21800    610.63756   -1770.9207    44.201416   -1726.7193 
   22000    602.64418   -1771.4306    43.622809   -1727.8078 
   22200     595.6586   -1772.0844    43.117154   -1728.9672 
   22400    587.48746    -1772.545     42.52568   -1730.0193 
   22600    578.29757   -1772.6372    41.860464   -1730.7767 
   22800      574.292   -1772.6422    41.570518   -1731.0717 
   23000    583.88544   -1773.1029    42.264946    -1730.838 
   23200    611.25249   -1774.5212    44.245928   -1730.2752 
   23400    597.15337   -1773.1071    43.225354   -1729.8818 
   23600    588.70092    -1772.034    42.613517   -1729.4205 
   23800    607.62057   -1772.6806    43.983029   -1728.6976 
   24000    596.16131   -1771.2334    43.153542   -1728.0799 
   24200    625.18027   -1772.7688    45.254099   -1727.5147 
   24400    617.01864   -1772.1128    44.663314   -1727.4495 
   24600    582.88565   -1769.8711    42.192575   -1727.6786 
   24800    591.42412    -1770.429    42.810638   -1727.6183 
   25000    608.74891   -1771.4467    44.064704    -1727.382 
   25200    606.80567   -1771.1919    43.924042   -1727.2679 
   25400     620.0766   -1772.2462    44.884667   -1727.3615 
   25600    575.78188   -1769.4258    41.678364   -1727.7475 
   25800    569.13852    -1768.912     41.19748   -1727.7145 
   26000    606.46098   -1771.0128    43.899091   -1727.1137 
   26200    595.39289   -1769.5981     43.09792   -1726.5002 
   26400    596.22894   -1768.9819    43.158438   -1725.8234 
   26600    609.97694    -1769.223    44.153597   -1725.0694 
   26800    625.89126   -1769.8706    45.305565   -1724.5651 
   27000    631.84088   -1770.3868    45.736232   -1724.6506 
   27200    600.41769   -1768.9137    43.461643    -1725.452 
   27400    593.71059   -1769.3216    42.976146   -1726.3455 
   27600    569.80525   -1768.2729    41.245741   -1727.0272 
   27800     592.4182   -1770.0075    42.882595    -1727.125 
   28000    621.75282   -1772.0367    45.006002   -1727.0307 
   28200    610.21103   -1771.5473    44.170541   -1727.3768 
   28400    591.20952   -1770.7142    42.795104   -1727.9191 
   28600    593.88923   -1771.3487    42.989076   -1728.3596 
   28800    589.32526   -1771.2745    42.658711   -1728.6158 
   29000    620.28472   -1773.6311    44.899732   -1728.7314 
   29200    595.88352   -1772.3061    43.133435   -1729.1727 
   29400    579.45633   -1771.4407    41.944341   -1729.4964 
   29600    608.45078   -1773.4849    44.043124   -1729.4417 
   29800    631.19465   -1775.2539    45.689455   -1729.5644 
   30000     575.5134   -1771.8891    41.658929   -1730.2302 
   30200    586.53687   -1772.9999    42.456871    -1730.543 
   30400    590.73869   -1773.2127    42.761023   -1730.4517 
   30600    594.94046   -1773.2284     43.06517   -1730.1632 
   30800    612.12896   -1774.1168    44.309372   -1729.8074 
   31000    591.01221   -1772.3688    42.780821    -1729.588 
   31200    588.08403   -1771.7985    42.568863   -1729.2296 
   31400    595.69494    -1771.744    43.119784   -1728.6242 
   31600     613.9163   -1772.4291     44.43875   -1727.9903 
   31800    592.87298   -1770.4882    42.915514   -1727.5727 
   32000    596.33964   -1770.2175    43.166451    -1727.051 
   32200    617.55211   -1771.1699     44.70193    -1726.468 
   32400    604.18919   -1769.9308    43.734646   -1726.1962 
   32600    613.68276   -1770.5206    44.421845   -1726.0988 
   32800    612.51563   -1770.6462    44.337361   -1726.3088 
   33000    611.86757   -1771.0855    44.290451    -1726.795 
   33200    606.12921   -1771.4228    43.875076   -1727.5477 
   33400    584.92842   -1770.7608    42.340442   -1728.4204 
   33600    599.13384   -1772.4131    43.368711   -1729.0444 
   33800    598.44847   -1772.9057      43.3191   -1729.5866 
   34000    607.94559   -1774.1565    44.006556   -1730.1499 
   34200    603.65132   -1774.5763    43.695712   -1730.8806 
   34400    606.22724   -1775.6048    43.882172   -1731.7227 
   34600    565.81427    -1773.511    40.956851   -1732.5542 
   34800    562.85552   -1773.4455     40.74268   -1732.7028 
   35000    571.84346   -1773.4472    41.393279    -1732.054 
   35200    568.16429   -1771.8916    41.126959   -1730.7646 
   35400    591.11123   -1771.5936    42.787989   -1728.8056 
   35600    629.35742   -1772.1036    45.556466   -1726.5471 
   35800    627.75479   -1770.2401    45.440458   -1724.7996 
   36000    616.00355   -1768.2531    44.589837   -1723.6633 
   36200    659.83267   -1770.7481    47.762438   -1722.9857 
   36400    647.75365   -1770.5687    46.888089   -1723.6806 
   36600    614.09489   -1769.9023    44.451677   -1725.4506 
   36800    594.84599   -1770.5966    43.058332   -1727.5383 
   37000    580.41726   -1771.4906    42.013899   -1729.4767 
   37200    547.84643    -1770.462    39.656237   -1730.8058 
   37400    570.78407   -1772.4112    41.316594   -1731.0946 
   37600    597.74761   -1773.9823    43.268368   -1730.7139 
   37800     587.2361   -1772.6571    42.507485   -1730.1497 
   38000     597.6408    -1772.591    43.260636   -1729.3303 
   38200    618.18195    -1773.241    44.747522   -1728.4935 
   38400    597.84722   -1771.2472    43.275578   -1727.9717 
   38600    592.85884   -1770.3218    42.914491   -1727.4073 
   38800    611.16462   -1770.9833    44.239567   -1726.7437 
   39000    612.20837   -1770.6217     44.31512   -1726.3066 
   39200    580.79196   -1768.1553    42.041022   -1726.1143 
   39400    619.11564   -1770.4741    44.815108    -1725.659 
   39600    642.35562   -1772.0253    46.497349   -1725.5279 
   39800    638.95669   -1772.6358    46.251315   -1726.3845 
   40000    604.80379   -1771.8461    43.779135    -1728.067 
   40200    579.42465   -1771.7253    41.942048   -1729.7833 
   40400     578.7478   -1772.9529    41.893054   -1731.0599 
   40600     582.9362   -1774.0833    42.196234    -1731.887 
   40800    570.34216   -1773.5552    41.284606   -1732.2706 
   41000    572.82293   -1773.5088    41.464178   -1732.0446 
   41200     592.3154   -1774.1362    42.875154   -1731.2611 
   41400    600.73819   -1773.7383    43.484843   -1730.2534 
   41600    611.10209   -1773.5165    44.235041   -1729.2814 
   41800    592.35463   -1771.3495    42.877994   -1728.4715 
   42000    587.46705   -1770.0657    42.524203   -1727.5415 
   42200    617.90459   -1771.0913    44.727445   -1726.3639 
   42400    621.88429   -1770.5246    45.015518   -1725.5091 
   42600    617.08755   -1769.8698    44.668303   -1725.2015 
   42800    637.06801   -1771.4931    46.114602   -1725.3785 
   43000    618.71695   -1771.1219    44.786248   -1726.3357 
   43200    588.10358   -1770.2069    42.570278   -1727.6366 
   43400    600.42223   -1772.2776    43.461972   -1728.8156 
   43600    587.05831     -1772.38    42.494616   -1729.8854 
   43800    588.20871   -1773.3016    42.577888   -1730.7237 
   44000    581.44427   -1773.3696    42.088239   -1731.2813 
   44200    579.12612   -1773.3695    41.920438   -1731.4491 
   44400      576.009   -1772.8382    41.694804   -1731.1434 
   44600    578.17741   -1772.1139    41.851766   -1730.2621 
   44800    600.09739   -1772.3667    43.438458   -1728.9283 
   45000    610.94978   -1771.7539    44.224016   -1727.5299 
   45200     619.8424   -1771.2245    44.867714   -1726.3568 
   45400    632.63371   -1771.4823    45.793622   -1725.6887 
   45600    604.28938   -1769.4706    43.741898   -1725.7287 
   45800    595.94918   -1769.0969    43.138187   -1725.9587 
   46000    622.20169   -1771.1647    45.038493   -1726.1262 
   46200    616.37793    -1771.306    44.616937   -1726.6891 
   46400    601.71786   -1771.1612    43.555757   -1727.6055 
   46600    571.59567   -1769.8579    41.375342   -1728.4826 
   46800     577.1172   -1770.5934    41.775021   -1728.8184 
   47000    607.29457   -1772.6691    43.959431   -1728.7096 
   47200    575.14809   -1770.2365    41.632487    -1728.604 
   47400    585.00022   -1770.3995    42.345639   -1728.0538 
   47600    640.83647   -1773.6483    46.387384    -1727.261 
   47800    589.92899   -1769.8475    42.702412   -1727.1451 
   48000    615.58177   -1771.5809    44.559306   -1727.0216 
   48200    599.16533   -1770.4815     43.37099   -1727.1105 
   48400    568.59149   -1768.3017    41.157883   -1727.1438 
   48600    607.38352   -1770.5965     43.96587   -1726.6306 
   48800    623.44688   -1771.3187    45.128627     -1726.19 
   49000    577.30765   -1767.9289    41.788808   -1726.1401 
   49200    628.64405    -1771.373    45.504828   -1725.8681 
   49400    638.31555   -1772.3699    46.204906    -1726.165 
   49600    596.46852   -1770.4588     43.17578    -1727.283 
   49800    576.31874   -1770.0682    41.717225    -1728.351 
   50000    580.40682   -1770.9186    42.013143   -1728.9054 
   50200    607.33464   -1773.0084    43.962332   -1729.0461 
   50400    596.67766   -1772.4553    43.190919   -1729.2644 
   50600    576.50166    -1771.108    41.730466   -1729.3775 
   50800    571.08407   -1770.2857     41.33831   -1728.9474 
   51000     597.9196   -1771.2269    43.280818   -1727.9461 
   51200    607.99241   -1770.8392    44.009945   -1726.8292 
   51400    608.95978   -1769.8951    44.079968   -1725.8151 
   51600    631.84707   -1770.7477    45.736681   -1725.0111 
   51800    645.89312   -1771.7501    46.753413   -1724.9967 
   52000    614.88847   -1770.5006     44.50912   -1725.9915 
   52200    576.38656   -1768.9597    41.722134   -1727.2376 
   52400     575.1983   -1769.6354    41.636121   -1727.9993 
   52600    600.99641   -1771.8026    43.503534   -1728.2991 
   52800    580.05618    -1770.525    41.987762   -1728.5372 
   53000    591.98496   -1771.3097    42.851235   -1728.4585 
   53200       604.97   -1771.9833    43.791165   -1728.1922 
   53400    618.70072   -1772.8433    44.785073   -1728.0582 
   53600    606.32054   -1772.1999    43.888925   -1728.3109 
   53800    586.34281   -1771.0686    42.442824   -1728.6258 
   54000    617.26416   -1773.4704    44.681086   -1728.7893 
   54200    595.49219   -1772.3825    43.105108   -1729.2774 
   54400    561.38431   -1770.2382    40.636186    -1729.602 
   54600    585.54938   -1771.5936    42.385391   -1729.2082 
   54800     568.8763   -1769.5513    41.178499   -1728.3728 
   55000    584.02436   -1769.2307    42.275001   -1726.9556 
   55200    637.25363   -1771.2956    46.128038   -1725.1676 
   55400    639.00069   -1770.3779      46.2545   -1724.1234 
   55600    625.16762   -1769.2605    45.253184   -1724.0074 
   55800    645.17985   -1771.2866    46.701783   -1724.5848 
   56000    636.44808   -1772.2106    46.069728   -1726.1409 
   56200    592.24631   -1771.2782    42.870152    -1728.408 
   56400    581.13849   -1772.5722    42.066105   -1730.5061 
   56600    578.42001   -1774.0749    41.869326   -1732.2056 
   56800    552.06034   -1773.2929    39.961264   -1733.3317 
   57000    530.23345   -1771.8008     38.38131   -1733.4195 
   57200    558.71037   -1772.6122     40.44263   -1732.1695 
   57400    586.36081   -1772.3681    42.444127    -1729.924 
   57600    611.99698   -1771.5798    44.299818   -1727.2799 
   57800     631.7894    -1770.537    45.732506   -1724.8045 
   58000    624.41821   -1768.1716    45.198938   -1722.9726 
   58200    639.29499   -1768.1293    46.275804   -1721.8535 
   58400    644.02418   -1768.2954    46.618129   -1721.6773 
   58600    630.36812   -1768.1018    45.629626   -1722.4722 
   58800    634.45864   -1770.0014    45.925721   -1724.0757 
   59000    597.66449   -1769.6172    43.262351   -1726.3548 
   59200    586.32807    -1770.982    42.441756   -1728.5402 
   59400    588.93215   -1773.0412    42.630255   -1730.4109 
   59600    565.53857    -1772.881    40.936894   -1731.9441 
   59800    547.73701   -1772.3291    39.648316   -1732.6807 
   60000    558.28292   -1772.7565    40.411689   -1732.3448 
   60200    584.27908   -1773.4259    42.293439   -1731.1325 
   60400    584.49484   -1771.7663    42.309057   -1729.4573 
   60600    608.83868   -1771.4709    44.071203   -1727.3997 
   60800    652.10491   -1772.6626    47.203058   -1725.4595 
   61000    626.49721   -1769.9454    45.349427    -1724.596 
   61200    633.00923   -1770.3641    45.820804   -1724.5433 
   61400    617.27303   -1769.9237    44.681728    -1725.242 
   61600    605.58112   -1770.1633    43.835402   -1726.3279 
   61800    603.92692   -1771.2302    43.715661   -1727.5146 
   62000    596.06386   -1771.9173    43.146488   -1728.7708 
   62200    556.02735   -1770.0117    40.248419   -1729.7633 
   62400    568.53208   -1771.0395    41.153582   -1729.8859 
   62600    592.61998   -1772.2404    42.897201   -1729.3432 
   62800    594.12787   -1771.5781    43.006351   -1728.5718 
   63000    588.80162   -1770.2503    42.620806   -1727.6295 
   63200    599.77624    -1769.867    43.415212   -1726.4518 
   63400     629.8428   -1770.8969      45.5916   -1725.3053 
   63600    626.88198   -1770.1303    45.377279    -1724.753 
   63800    655.45193   -1772.4475    47.445334   -1725.0022 
   64000    617.82041    -1771.111    44.721351   -1726.3897 
   64200    580.70568   -1770.1518    42.034776    -1728.117 
   64400    584.22856   -1771.7591    42.289782   -1729.4694 
   64600     579.8578   -1772.4629    41.973402   -1730.4895 
   64800    579.77322   -1773.0369    41.967279   -1731.0696 
   65000    578.26548   -1773.0491    41.858141   -1731.1909 
   65200    591.41651   -1773.6745    42.810087   -1730.8644 
   65400     590.6058   -1773.0331    42.751403   -1730.2817 
   65600    584.64103   -1771.8014    42.319639   -1729.4817 
   65800    608.69789   -1772.4264    44.061011   -1728.3654 
   66000     604.6222   -1771.1083     43.76599   -1727.3423 
   66200    618.25792   -1771.2201     44.75302   -1726.4671 
   66400     613.4241   -1770.3461    44.403121    -1725.943 
   66600    614.29094   -1770.2529    44.465868    -1725.787 
   66800    603.28268   -1769.5742    43.669028   -1725.9052 
   67000    626.39244    -1771.554    45.341844   -1726.2122 
   67200    599.70519    -1770.395    43.410069   -1726.9849 
   67400     579.6862   -1769.6844    41.960981   -1727.7234 
   67600    583.84753   -1770.2774    42.262201   -1728.0152 
   67800    612.16503   -1772.3781    44.311983   -1728.0661 
   68000    588.23451   -1770.8636    42.579756   -1728.2839 
   68200    600.37048   -1771.7572    43.458226    -1728.299 
   68400     569.8528   -1769.4533    41.249183   -1728.2042 
   68600    572.87409   -1769.0615    41.467882   -1727.5937 
   68800    611.62893   -1770.6826    44.273177   -1726.4094 
   69000    624.18515   -1770.5458    45.182067   -1725.3637 
   69200    633.61988   -1770.7563    45.865006   -1724.8913 
   69400    636.50966   -1771.3108    46.074185   -1725.2366 
   69600    599.27267   -1769.7662    43.378761   -1726.3874 
   69800    589.31191   -1770.1616    42.657744   -1727.5038 
   70000    590.30471   -1771.1236    42.729609    -1728.394 
   70200    567.58421   -1770.0391    41.084969   -1728.9541 
   70400    556.45451   -1769.0468    40.279339   -1728.7675 
   70600    590.92348    -1770.493    42.774399   -1727.7186 
   70800    618.20193   -1771.1059    44.748967   -1726.3569 
   71000    600.84151   -1768.7809    43.492322   -1725.2886 
   71200    602.53582   -1767.9233    43.614966   -1724.3083 
   71400    657.53939   -1771.0587    47.596437   -1723.4623 
   71600    633.86743   -1769.7098    45.882926   -1723.8269 
   71800    607.54259   -1769.0124    43.977384    -1725.035 
   72000    602.16666   -1770.0631    43.588244   -1726.4748 
   72200    586.60913    -1770.354    42.462102   -1727.8919 
   72400    589.31141   -1771.7351    42.657708   -1729.0774 
   72600    586.78294   -1772.5042    42.474683   -1730.0295 
   72800    571.84308   -1772.0239    41.393251   -1730.6307 
   73000    557.84112   -1771.0149    40.379709   -1730.6352 
   73200    570.21513   -1771.0872     41.27541   -1729.8118 
   73400    595.93182   -1771.4622    43.136931   -1728.3253 
   73600    607.36611   -1770.6585     43.96461   -1726.6939 
   73800    601.45992   -1768.7395    43.537086   -1725.2024 
   74000    619.09466   -1768.5644    44.813588   -1723.7508 
   74200    648.77299    -1769.693    46.961875   -1722.7312 
   74400    632.42596   -1768.5783    45.778584   -1722.7998 
   74600    639.96334   -1770.0426    46.324182   -1723.7184 
   74800    621.30624    -1770.477    44.973676   -1725.5033 
   75000    586.49177   -1770.0995    42.453607   -1727.6459 
   75200    582.32121   -1771.5652    42.151718   -1729.4134 
   75400    580.09082    -1772.741     41.99027   -1730.7507 
   75600    593.75159   -1774.6943    42.979113   -1731.7151 
   75800    566.23625   -1773.4009    40.987397   -1732.4135 
   76000    569.04423   -1773.6367    41.190655    -1732.446 
   76200     578.8218   -1773.6867     41.89841   -1731.7883 
   76400    598.92682   -1773.9953    43.353726   -1730.6415 
   76600    612.48598   -1773.7239    44.335215   -1729.3887 
   76800    610.28696   -1772.5338    44.176038   -1728.3578 
   77000    600.13197   -1770.9811    43.440962   -1727.5402 
   77200    587.32769    -1769.239    42.514115   -1726.7248 
   77400    611.84538   -1769.9823    44.288845   -1725.6935 
   77600    623.11288   -1770.0069     45.10445   -1724.9024 
   77800    614.95348   -1769.0987    44.513826   -1724.5849 
   78000     626.8292   -1770.0463    45.373459   -1724.6728 
   78200    619.09031   -1770.1856    44.813274   -1725.3723 
   78400    613.86477   -1770.9121    44.435019   -1726.4771 
   78600    606.79441   -1771.8198    43.923227   -1727.8965 
   78800    593.71063   -1772.4635    42.976149   -1729.4873 
   79000    586.21625   -1773.3865    42.433663   -1730.9529 
   79200    572.88856   -1773.5299    41.468929   -1732.0609 
   79400    549.46776    -1772.257    39.773598   -1732.4834 
   79600    568.29095   -1773.0544    41.136127   -1731.9182 
   79800    592.95623   -1773.5604    42.921541   -1730.6389 
   80000    602.03867   -1772.7072    43.578979   -1729.1282 
   80200    610.00343   -1771.8196    44.155514   -1727.6641 
   80400    612.94498   -1770.7995     44.36844   -1726.4311 
   80600    596.38831   -1768.6231    43.169974   -1725.4532 
   80800    621.35959   -1769.4296    44.977537   -1724.4521 
   81000    619.82186    -1768.722    44.866228   -1723.8558 
   81200    623.98296   -1768.9326    45.167432   -1723.7652 
   81400    631.28049   -1769.9609    45.695669   -1724.2652 
   81600    628.29129   -1771.0257    45.479293   -1725.5464 
   81800    600.54848   -1770.8588     43.47111   -1727.3877 
   82000    588.55203   -1771.8417    42.602739    -1729.239 
   82200    565.22523   -1771.6351    40.914214   -1730.7209 
   82400    567.66478   -1772.5876    41.090802   -1731.4968 
   82600    552.20828   -1771.4831    39.971973   -1731.5111 
   82800    571.78676   -1771.9834    41.389174   -1730.5942 
   83000    566.70187   -1769.9875    41.021101   -1728.9664 
   83200     601.0477    -1770.151    43.507247   -1726.6438 
   83400    643.09756   -1770.7834    46.551055   -1724.2323 
   83600    620.04863   -1767.5404    44.882643   -1722.6577 
   83800    654.46909   -1769.1531    47.374191   -1721.7789 
   84000     653.1064   -1769.3629    47.275552   -1722.0874 
   84200    607.48308   -1767.4826    43.973077   -1723.5095 
   84400    608.63802   -1769.2907    44.056678    -1725.234 
   84600    586.01411   -1769.4839    42.419031   -1727.0649 
   84800     574.6181   -1770.0993    41.594123   -1728.5051 
   85000    595.72075    -1772.633    43.121652   -1729.5113 
   85200    564.74152   -1771.1601      40.8792   -1730.2809 
   85400     573.9611   -1771.8848    41.546565   -1730.3382 
   85600    598.20281   -1773.1244    43.301318   -1729.8231 
   85800    586.64583   -1771.6536    42.464758   -1729.1888 
   86000    600.83739   -1771.8212    43.492024   -1728.3292 
   86200    619.46511    -1772.273    44.840404   -1727.4326 
   86400    622.08173   -1771.9904     45.02981   -1726.9606 
   86600    612.51544   -1771.3287    44.337347   -1726.9914 
   86800    570.45614   -1768.4681    41.292856   -1727.1752 
   87000    591.73087   -1769.6951    42.832842   -1726.8622 
   87200     615.7564   -1770.9397    44.571947   -1726.3678 
   87400    580.92149   -1768.1059    42.050398   -1726.0555 
   87600    591.26179   -1768.2201    42.798887   -1725.4212 
   87800    640.35693   -1771.0004    46.352672   -1724.6477 
   88000    643.81253   -1771.3277    46.602809   -1724.7249 
   88200    596.95875   -1768.9038    43.211265   -1725.6925 
   88400    590.46796   -1769.3802    42.741425   -1726.6388 
   88600    579.30582   -1769.2621    41.933447   -1727.3286 
   88800     572.0173   -1768.9725    41.405862   -1727.5666 
   89000    594.26183   -1770.2501    43.016047    -1727.234 
   89200    613.54916   -1771.1299    44.412174   -1726.7177 
   89400    593.79171   -1769.4114    42.982017   -1726.4294 
   89600    602.19003   -1769.6713    43.589935   -1726.0814 
   89800    624.15928   -1771.0149    45.180194   -1725.8347 
   90000    605.48041   -1769.9224    43.828112   -1726.0943 
   90200    587.94986   -1769.0398    42.559151   -1726.4806 
   90400    596.10952   -1769.7471    43.149794   -1726.5973 
   90600    604.03543   -1770.3033    43.723516   -1726.5798 
   90800    628.06547   -1772.2173    45.462947   -1726.7544 
   91000    586.77903   -1769.8874    42.474399    -1727.413 
   91200    596.16867   -1771.0431    43.154075    -1727.889 
   91400     584.5747    -1770.527    42.314838   -1728.2121 
   91600    582.41551   -1770.4177    42.158544   -1728.2591 
   91800     607.1074   -1771.8871    43.945882   -1727.9413 
   92000    611.43854   -1771.9654    44.259395   -1727.7061 
   92200    579.45183   -1769.6436    41.944016   -1727.6996 
   92400    605.00211   -1771.1869     43.79349   -1727.3934 
   92600    617.93124   -1771.7887    44.729374   -1727.0593 
   92800    623.52748   -1772.2809    45.134461   -1727.1464 
   93000    597.02129   -1770.9287    43.215793   -1727.7129 
   93200    587.21915   -1770.7545    42.506258   -1728.2482 
   93400     583.4123   -1770.7589    42.230697   -1728.5282 
   93600    576.54314   -1770.1595    41.733468   -1728.4261 
   93800    597.70873   -1771.1311    43.265553   -1727.8656 
   94000    602.05369    -1770.774    43.580067   -1727.1939 
   94200    594.39613   -1769.5714    43.025769   -1726.5456 
   94400    608.84638   -1769.8819     44.07176   -1725.8101 
   94600    608.01139   -1769.2776    44.011319   -1725.2663 
   94800    605.72007   -1768.7567     43.84546   -1724.9113 
   95000    629.71638   -1770.2636    45.582449   -1724.6811 
   95200     621.4656   -1770.0672    44.985211    -1725.082 
   95400    598.81949   -1769.3145    43.345957   -1725.9686 
   95600    585.76265   -1769.2463    42.400829   -1726.8455 
   95800    598.86029   -1770.8298     43.34891   -1727.4809 
   96000    590.79952   -1770.7826    42.765426   -1728.0171 
   96200    583.66307   -1770.5441    42.248849   -1728.2952 
   96400    595.84514   -1771.3621    43.130656   -1728.2314 
   96600    623.77556   -1773.2871    45.152419   -1728.1346 
   96800    608.04389   -1772.4985    44.013671   -1728.4848 
   97000     606.6603   -1772.9895    43.913519    -1729.076 
   97200    586.58129   -1772.1939    42.460087   -1729.7338 
   97400    558.22651   -1770.4378    40.407606   -1730.0301 
   97600    592.59731   -1772.4348     42.89556   -1729.5392 
   97800    599.27433   -1772.1418    43.378881   -1728.7629 
   98000    592.66454   -1770.8736    42.900426   -1727.9732 
   98200    596.91575   -1770.2299    43.208153   -1727.0217 
   98400    612.51159   -1770.3301    44.337069    -1725.993 
   98600    629.29781   -1770.7903     45.55215   -1725.2381 
   98800    616.83366   -1769.7664    44.649925   -1725.1165 
   99000    594.74697   -1768.4019    43.051165   -1725.3507 
   99200    617.35437   -1770.2621    44.687617   -1725.5745 
   99400    586.18222   -1768.4618    42.431199   -1726.0306 
   99600    601.93457   -1769.8737    43.571444   -1726.3023 
   99800     587.3462     -1768.99    42.515455   -1726.4745 
  100000    587.90147   -1768.9934    42.555649   -1726.4378 
Loop time of 620.98 on 1 procs for 100000 steps with 561 atoms

Performance: 1.391 ns/day, 17.249 hours/ns, 161.036 timesteps/s
99.5% CPU use with 1 MPI tasks x 1 OpenMP threads

MPI task timing breakdown:
Section |  min time  |  avg time  |  max time  |%varavg| %total
---------------------------------------------------------------
Pair    | 617.13     | 617.13     | 617.13     |   0.0 | 99.38
Neigh   | 0.080174   | 0.080174   | 0.080174   |   0.0 |  0.01
Comm    | 0.057286   | 0.057286   | 0.057286   |   0.0 |  0.01
Output  | 0.74629    | 0.74629    | 0.74629    |   0.0 |  0.12
Modify  | 2.4158     | 2.4158     | 2.4158     |   0.0 |  0.39
Other   |            | 0.5464     |            |       |  0.09

Nlocal:    561 ave 561 max 561 min
Histogram: 1 0 0 0 0 0 0 0 0 0
Nghost:    0 ave 0 max 0 min
Histogram: 1 0 0 0 0 0 0 0 0 0
Neighs:    15047 ave 15047 max 15047 min
Histogram: 1 0 0 0 0 0 0 0 0 0
FullNghs:  30094 ave 30094 max 30094 min
Histogram: 1 0 0 0 0 0 0 0 0 0

Total # of neighbors = 30094
Ave neighs/atom = 53.6435
Neighbor list builds = 54
Dangerous builds = 0
All done!
Total wall time: 0:10:21
