LAMMPS (22 Aug 2018)
OMP_NUM_THREADS environment is not set. Defaulting to 1 thread. (src/comm.cpp:87)
  using 1 OpenMP thread(s) per MPI task
Reading data file ...
  orthogonal box = (-0 -0 -0) to (100 100 100)
  1 by 1 by 1 MPI processor grid
  reading atoms ...
  561 atoms
WARNING: The pair_style meam command is unsupported. Please use pair_style meam/c instead (src/MEAM/pair_meam.cpp:51)
Reading potential file library.meam with DATE: 2012-06-29
Neighbor list info ...
  update every 1 steps, delay 10 steps, check yes
  max neighbors/atom: 2000, page size: 100000
  master list distance cutoff = 6
  ghost atom cutoff = 6
  binsize = 3, bins = 34 34 34
  2 neighbor lists, perpetual/occasional/extra = 2 0 0
  (1) pair meam, perpetual
      attributes: full, newton on
      pair build: full/bin/atomonly
      stencil: full/bin/3d
      bin: standard
  (2) pair meam, perpetual, half/full from (1)
      attributes: half, newton on
      pair build: halffull/newton
      stencil: none
      bin: none
Setting up Verlet run ...
  Unit style    : metal
  Current step  : 0
  Time step     : 0.001
Per MPI rank memory allocation (min/avg/max) = 9.723 | 9.723 | 9.723 Mbytes
Step Temp PotEng KinEng TotEng 
       0          300   -1836.4239    21.715704   -1814.7082 
     200    135.74373   -1870.0728    9.8259022   -1860.2469 
     400    224.75497   -1881.1611    16.269042   -1864.8921 
     600    493.83418   -1870.7484    35.746523   -1835.0019 
     800     281.2873   -1870.9159    20.361173   -1850.5547 
    1000    256.52239   -1875.0724    18.568548   -1856.5038 
    1200    313.45274   -1869.8154     22.68949   -1847.1259 
    1400    325.64038   -1874.4235    23.571701   -1850.8518 
    1600    267.13144   -1876.7666    19.336491   -1857.4302 
    1800    325.33481   -1873.3673    23.549582   -1849.8177 
    2000    326.63609   -1873.6913    23.643776   -1850.0475 
    2200    253.54872   -1878.6735    18.353297   -1860.3202 
    2400    328.22132   -1876.6158    23.758524   -1852.8572 
    2600    346.83691   -1886.3938    25.106026   -1861.2878 
    2800    241.91849   -1900.8983    17.511435   -1883.3869 
    3000    303.90818   -1902.7252      21.9986   -1880.7266 
    3200    304.94512   -1903.2176     22.07366   -1881.1439 
    3400    284.45861     -1906.31     20.59073   -1885.7192 
    3600     306.8539   -1901.3185    22.211829   -1879.1067 
    3800    302.77005   -1901.0426    21.916216   -1879.1263 
    4000    288.85002   -1903.4862    20.908605   -1882.5776 
    4200    309.17376   -1905.2669    22.379754   -1882.8872 
    4400    292.21476   -1903.6755    21.152164   -1882.5233 
    4600    292.42908   -1900.5295    21.167678   -1879.3618 
    4800    306.85035   -1902.8213    22.211572   -1880.6097 
    5000    289.74515   -1905.3285      20.9734   -1884.3551 
    5200    313.33778   -1904.2788    22.681169   -1881.5976 
    5400    318.58967   -1902.7924     23.06133   -1879.7311 
    5600    299.27856   -1903.9529    21.663483   -1882.2894 
    5800    310.64469   -1904.1229    22.486228   -1881.6366 
    6000    304.66735   -1903.9755    22.053554    -1881.922 
    6200    294.61217   -1903.7351    21.325703   -1882.4094 
    6400    317.36348   -1903.6392    22.972572   -1880.6666 
    6600     302.6166   -1902.7602    21.905109   -1880.8551 
    6800     300.0538   -1903.9852    21.719599   -1882.2656 
    7000      293.027   -1904.2841    21.210959   -1883.0731 
    7200    302.55755    -1902.932    21.900834   -1881.0312 
    7400    320.14393   -1903.0329    23.173836    -1879.859 
    7600    300.23493   -1904.1296     21.73271   -1882.3969 
    7800    290.45688   -1903.1751    21.024919   -1882.1502 
    8000    315.48971   -1903.7494    22.836938   -1880.9125 
    8200    281.28189   -1903.0125    20.360781   -1882.6517 
    8400    308.67522   -1903.5247    22.343666   -1881.1811 
    8600    305.06726   -1903.2636    22.082502   -1881.1811 
    8800    302.07888   -1904.9665    21.866185   -1883.1003 
    9000    305.74331   -1903.8792    22.131437   -1881.7477 
    9200    303.23461   -1902.0787    21.949844   -1880.1288 
    9400    310.28745     -1903.66    22.460368   -1881.1997 
    9600     294.3406   -1904.1172    21.306045   -1882.8111 
    9800    303.64351   -1903.4099    21.979442   -1881.4305 
   10000    298.79744   -1902.0628    21.628656   -1880.4342 
   10200    303.25389   -1903.4677    21.951239   -1881.5164 
   10400    296.56146   -1904.2189    21.466804   -1882.7521 
   10600    305.69197    -1903.752    22.127721   -1881.6243 
   10800    308.05506   -1903.3014    22.298775   -1881.0026 
   11000    306.28227   -1903.3373    22.170451   -1881.1668 
   11200    292.83793   -1903.0554    21.197273   -1881.8581 
   11400    301.60363   -1903.4419    21.831784   -1881.6101 
   11600    308.18335   -1903.6792    22.308062   -1881.3712 
   11800    310.86367   -1903.6486    22.502078   -1881.1465 
   12000    306.29843   -1903.9655    22.171621   -1881.7938 
   12200    321.89722   -1903.7579     23.30075   -1880.4572 
   12400    295.79431   -1902.9752    21.411273   -1881.5639 
   12600    288.54837   -1903.1369     20.88677   -1882.2502 
   12800    305.59415   -1902.3476    22.120641   -1880.2269 
   13000    303.42042   -1903.5798    21.963294   -1881.6165 
   13200    289.43981   -1903.4494    20.951298   -1882.4981 
   13400    313.55706   -1902.1766    22.697042   -1879.4795 
   13600    303.03658   -1903.7783    21.935509   -1881.8427 
   13800    308.17087   -1904.0346    22.307158   -1881.7275 
   14000    301.68242   -1902.8376    21.837487   -1881.0001 
   14200    293.90905   -1903.1001    21.274806   -1881.8253 
   14400    311.21341   -1903.6728    22.527395   -1881.1454 
   14600    292.87783   -1902.9494    21.200161   -1881.7493 
   14800    311.90656   -1903.7049    22.577569   -1881.1274 
   15000    309.56946   -1902.8511    22.408396   -1880.4427 
   15200    309.12138   -1903.3847    22.375962   -1881.0087 
   15400    303.88401   -1903.8453    21.996851   -1881.8485 
   15600    310.33004   -1904.2246    22.463452   -1881.7612 
   15800    310.16355   -1903.0905      22.4514   -1880.6391 
   16000    305.06964   -1903.2849    22.082674   -1881.2022 
   16200    301.16986   -1903.9234    21.800385    -1882.123 
   16400    317.54249   -1903.8184     22.98553   -1880.8329 
   16600     300.2544    -1902.837    21.734119   -1881.1028 
   16800    310.57316   -1903.8631     22.48105    -1881.382 
   17000     316.4752   -1903.5709    22.908273   -1880.6626 
   17200    317.09828   -1904.4356    22.953375   -1881.4822 
   17400    308.14591   -1904.0597    22.305352   -1881.7543 
   17600    311.80055   -1902.6865    22.569895   -1880.1166 
   17800    318.29643   -1903.7925    23.040104   -1880.7524 
   18000    295.24399   -1903.8805    21.371438   -1882.5091 
   18200    314.28362   -1903.5561    22.749634   -1880.8064 
   18400    317.99621   -1903.4454    23.018372    -1880.427 
   18600    304.90937   -1903.5704    22.071072   -1881.4993 
   18800    318.73983   -1904.2212      23.0722    -1881.149 
   19000    313.48361   -1904.4451    22.691725   -1881.7534 
   19200    290.55048   -1902.7012    21.031694   -1881.6695 
   19400    315.86221   -1901.9325    22.863901   -1879.0686 
   19600    297.06027   -1903.9428     21.50291   -1882.4399 
   19800    313.12117   -1904.3977    22.665489   -1881.7322 
   20000    312.44163   -1902.0222      22.6163   -1879.4059 
   20200    312.45716   -1904.7648    22.617424   -1882.1474 
   20400    303.11731   -1903.1048    21.941353   -1881.1635 
   20600    322.25607   -1903.7618    23.326726   -1880.4351 
   20800    300.71016   -1903.5469     21.76711   -1881.7798 
   21000     333.3607   -1902.2884    24.130541   -1878.1579 
   21200     298.8694   -1903.7158    21.633865    -1882.082 
   21400    278.93159   -1904.3678    20.190653   -1884.1772 
   21600     331.0887   -1901.1008    23.966081   -1877.1347 
   21800    286.35701   -1901.6913    20.728147   -1880.9631 
   22000    309.39385    -1903.893    22.395685   -1881.4973 
   22200     322.3069   -1903.9006    23.330404   -1880.5702 
   22400    289.37893   -1903.8256    20.946891   -1882.8787 
   22600    325.74298   -1902.8289    23.579127   -1879.2498 
   22800    319.73197   -1903.3181    23.144016   -1880.1741 
   23000     297.1883   -1904.0105    21.512177   -1882.4984 
   23200    314.73488   -1902.9037    22.782299   -1880.1214 
   23400     300.0576   -1902.5212    21.719873   -1880.8014 
   23600    307.34555   -1903.3254    22.247417    -1881.078 
   23800    307.07626   -1902.9491    22.227924   -1880.7211 
   24000    297.65199   -1903.2659    21.545742   -1881.7202 
   24200    313.82037   -1902.6698    22.716102   -1879.9537 
   24400     298.8759   -1902.8413    21.634336   -1881.2069 
   24600    299.97226   -1902.6224    21.713697   -1880.9087 
   24800    325.62334   -1903.9576    23.570467   -1880.3871 
   25000     301.2244   -1903.9145    21.804333   -1882.1102 
   25200    293.52811   -1902.1932    21.247232    -1880.946 
   25400     300.3829   -1901.3814    21.743421    -1879.638 
   25600    324.15443   -1903.7098    23.464139   -1880.2457 
   25800     296.6928   -1903.8522     21.47631   -1882.3758 
   26000    319.92749   -1903.1184    23.158169   -1879.9602 
   26200    311.74476   -1901.3932    22.565857   -1878.8273 
   26400    305.43662   -1904.1281    22.109238   -1882.0188 
   26600    314.90047   -1904.0902    22.794285   -1881.2959 
   26800    315.41414   -1901.9504    22.831467   -1879.1189 
   27000    296.52227   -1902.2847    21.463967   -1880.8207 
   27200    302.93902   -1902.7831    21.928447   -1880.8547 
   27400    302.24916   -1902.3711    21.878512   -1880.4926 
   27600    318.07532   -1902.6423    23.024099   -1879.6182 
   27800    322.90142   -1903.6853     23.37344   -1880.3119 
   28000    302.15759   -1903.5456    21.871883   -1881.6737 
   28200    304.71328   -1902.5306    22.056879   -1880.4737 
   28400    312.63387   -1902.6532    22.630216    -1880.023 
   28600    298.40078   -1902.6681    21.599944   -1881.0681 
   28800    316.47909    -1903.181    22.908554   -1880.2724 
   29000    311.02881   -1903.0375    22.514032   -1880.5235 
   29200    312.45066   -1903.4288    22.616954   -1880.8119 
   29400    307.62498   -1902.3698    22.267644   -1880.1022 
   29600     314.7098   -1903.2279    22.780483   -1880.4474 
   29800    316.81729   -1903.9109    22.933035   -1880.9779 
   30000    308.34156   -1903.1499    22.319514   -1880.8304 
   30200    305.11498   -1901.8727    22.085956   -1879.7867 
   30400    312.69304   -1903.1246    22.634499   -1880.4901 
   30600    310.49928    -1903.307    22.475702   -1880.8313 
   30800    317.98655   -1902.9205    23.017673   -1879.9028 
   31000    324.64252    -1903.526     23.49947   -1880.0266 
   31200    313.12664   -1904.5667    22.665885   -1881.9008 
   31400    310.03345    -1901.776    22.441983   -1879.3341 
   31600    323.61533   -1902.2409    23.425116   -1878.8158 
   31800    289.18095    -1903.921     20.93256   -1882.9884 
   32000    319.17244    -1903.245    23.103514   -1880.1415 
   32200    308.48623   -1901.3405    22.329986   -1879.0105 
   32400    296.63269   -1903.0418    21.471959   -1881.5698 
   32600    318.48882   -1903.5607     23.05403   -1880.5066 
   32800    307.82855   -1902.5976    22.282379   -1880.3152 
   33000    303.04115    -1903.087     21.93584   -1881.1512 
   33200    329.90828   -1902.8337    23.880636   -1878.9531 
   33400    308.21728   -1903.4733    22.310518   -1881.1628 
   33600    303.26836   -1903.0008    21.952287   -1881.0485 
   33800    317.67215   -1901.1997    22.994915   -1878.2048 
   34000    293.92862   -1901.3494    21.276224   -1880.0732 
   34200    301.09696    -1903.299    21.795109   -1881.5039 
   34400    328.38696   -1902.9295    23.770514   -1879.1589 
   34600    311.23882    -1902.516    22.529234   -1879.9868 
   34800    301.62937    -1901.231    21.833647   -1879.3974 
   35000    303.88352   -1901.4606    21.996815   -1879.4638 
   35200    301.61475   -1902.5333    21.832589   -1880.7007 
   35400    305.80847   -1902.3498    22.136155   -1880.2137 
   35600    305.35627   -1902.2223    22.103422   -1880.1188 
   35800    309.68877   -1902.7814    22.417033   -1880.3643 
   36000    310.96736   -1903.0707    22.509584   -1880.5611 
   36200     333.1986   -1903.1636    24.118808   -1879.0448 
   36400    313.26312   -1903.1527    22.675765   -1880.4769 
   36600    292.20491   -1901.7551    21.151452   -1880.6036 
   36800    333.01563   -1902.0462    24.105563   -1877.9406 
   37000    299.56719   -1903.5709    21.684375   -1881.8866 
   37200    297.72223   -1902.9372    21.550826   -1881.3864 
   37400    340.32239   -1901.4836    24.634468   -1876.8491 
   37600    299.92091   -1902.9382    21.709979   -1881.2283 
   37800    294.18307   -1903.8315    21.294642   -1882.5368 
   38000    330.08717   -1901.9252    23.893584   -1878.0316 
   38200    305.37581   -1901.2627    22.104836   -1879.1579 
   38400    305.91901   -1904.4424    22.144156   -1882.2982 
   38600    318.43954   -1903.0936    23.050463   -1880.0431 
   38800    323.57222   -1900.9988    23.421995   -1877.5768 
   39000    307.65898   -1903.4734    22.270105   -1881.2033 
   39200    318.10377   -1903.3517    23.026158   -1880.3256 
   39400    323.39465   -1902.2572    23.409142   -1878.8481 
   39600    305.21416   -1902.4175    22.093135   -1880.3244 
   39800    318.64942   -1901.4067    23.065655   -1878.3411 
   40000    300.62726    -1903.277    21.761109   -1881.5159 
   40200    300.09561   -1902.7517    21.722625   -1881.0291 
   40400    330.08337   -1900.2776     23.89331   -1876.3843 
   40600    320.56056   -1903.4169    23.203994   -1880.2129 
   40800    287.51297   -1902.6244    20.811822   -1881.8126 
   41000    320.89967   -1901.9044    23.228541   -1878.6759 
   41200    306.20878   -1901.6689    22.165131   -1879.5038 
   41400    305.35841     -1901.72    22.103577   -1879.6164 
   41600    316.01583   -1902.3124    22.875021   -1879.4374 
   41800    305.27578   -1902.9753    22.097595   -1880.8778 
   42000    299.86021   -1900.8856    21.705586     -1879.18 
   42200    312.27424   -1901.6595    22.604184   -1879.0553 
   42400    326.10214   -1904.4244    23.605126   -1880.8193 
   42600    319.67058   -1903.3001    23.139572   -1880.1605 
   42800    303.94774   -1900.1681    22.001464   -1878.1667 
   43000    316.23637   -1902.0879    22.890985   -1879.1969 
   43200    308.59679   -1904.2543    22.337989   -1881.9163 
   43400    322.70059     -1902.72    23.358902   -1879.3611 
   43600    322.04815   -1901.7058    23.311675   -1878.3941 
   43800    305.84919   -1903.2254    22.139102   -1881.0863 
   44000    324.13852   -1902.9894    23.462987   -1879.5264 
   44200    318.24372   -1901.7848    23.036288   -1878.7485 
   44400    297.08679   -1902.0983     21.50483   -1880.5934 
   44600    313.69018   -1902.6465    22.706678   -1879.9398 
   44800    318.83716   -1903.1446    23.079245   -1880.0653 
   45000    325.42167   -1902.2392    23.555869   -1878.6833 
   45200    331.63724   -1903.3098    24.005788    -1879.304 
   45400    303.78784   -1903.8496     21.98989   -1881.8597 
   45600    317.78913   -1901.7985    23.003382   -1878.7951 
   45800    326.39184   -1901.8768    23.626095   -1878.2507 
   46000    297.03921   -1902.5203    21.501385   -1881.0189 
   46200    305.71087   -1901.8741    22.129089    -1879.745 
   46400     316.5409   -1901.7496    22.913028   -1878.8366 
   46600    313.67131   -1901.8247    22.705311   -1879.1194 
   46800    314.12821   -1902.5033    22.738385   -1879.7649 
   47000    306.27523    -1903.353    22.169941   -1881.1831 
   47200    321.95641    -1900.703    23.305034    -1877.398 
   47400    315.30566   -1901.9284    22.823615   -1879.1048 
   47600    289.06993   -1902.6285    20.924524    -1881.704 
   47800    344.95854   -1901.9313    24.970059   -1876.9612 
   48000    322.83119   -1902.0602    23.368356   -1878.6918 
   48200    301.78993   -1903.3785     21.84527   -1881.5332 
   48400    320.53887   -1901.5651    23.202424   -1878.3627 
   48600     315.7452   -1901.5464    22.855431    -1878.691 
   48800     320.0666   -1902.5929    23.168239   -1879.4246 
   49000    317.55485   -1903.0394    22.986424    -1880.053 
   49200    307.08238    -1901.913    22.228367   -1879.6847 
   49400     309.4898   -1900.2277     22.40263   -1877.8251 
   49600    318.04426    -1903.109     23.02185   -1880.0871 
   49800    308.46471   -1903.2235    22.328428   -1880.8951 
   50000     336.4304   -1902.2126    24.352744   -1877.8599 
   50200    315.38326   -1902.2858    22.829232   -1879.4566 
   50400    299.10079   -1902.0539    21.650614   -1880.4033 
   50600    312.00573   -1901.2117    22.584747    -1878.627 
   50800    313.68943   -1902.4204    22.706623   -1879.7138 
   51000    318.07175   -1902.2605     23.02384   -1879.2367 
   51200    316.42575   -1902.5008    22.904693   -1879.5961 
   51400    329.76941   -1902.8495    23.870583   -1878.9789 
   51600    309.11951    -1902.053    22.375826   -1879.6771 
   51800    323.16127   -1902.0166    23.392248   -1878.6244 
   52000    323.91203   -1902.0645    23.446593   -1878.6179 
   52200    297.77139   -1902.4723    21.554385   -1880.9179 
   52400     322.7009   -1902.3919    23.358924   -1879.0329 
   52600    314.30224   -1901.0058    22.750981   -1878.2548 
   52800    301.12564   -1901.7218    21.797184   -1879.9246 
   53000    306.79324   -1901.2848    22.207438   -1879.0774 
   53200    309.44675   -1902.0544    22.399513   -1879.6549 
   53400    310.22177    -1901.626    22.455614   -1879.1704 
   53600    320.69521   -1901.4831    23.213741   -1878.2693 
   53800    321.09406   -1903.6737    23.242612   -1880.4311 
   54000    321.45777   -1902.1175     23.26894   -1878.8486 
   54200    339.09039   -1901.5039    24.545289   -1876.9586 
   54400    309.74493    -1903.629    22.421098   -1881.2079 
   54600    315.10398   -1902.3399    22.809016   -1879.5309 
   54800    325.54213   -1900.0602    23.564589   -1876.4956 
   55000    310.39251   -1902.5661    22.467973   -1880.0981 
   55200    303.65837   -1903.3555    21.980518    -1881.375 
   55400    331.67496   -1901.6922    24.008518   -1877.6837 
   55600     320.9296    -1901.799    23.230708   -1878.5683 
   55800    319.63526   -1903.5873    23.137016   -1880.4503 
   56000    314.25674   -1901.9411    22.747688   -1879.1934 
   56200    340.50822   -1903.2193    24.647919   -1878.5714 
   56400    298.21303    -1901.823    21.586353   -1880.2367 
   56600    309.97327   -1901.4702    22.437627   -1879.0326 
   56800    316.01962   -1900.6347    22.875295   -1877.7594 
   57000    318.32347   -1903.0976    23.042061   -1880.0555 
   57200    321.23941   -1903.5457    23.253133   -1880.2926 
   57400    315.72811   -1900.7158    22.854194   -1877.8616 
   57600    327.52812   -1901.1696    23.708346   -1877.4613 
   57800    312.27549   -1902.7683    22.604274   -1880.1641 
   58000    316.62413   -1903.2574    22.919053   -1880.3384 
   58200    343.29461   -1901.8814    24.849615   -1877.0317 
   58400    317.09957   -1901.3327    22.953468   -1878.3793 
   58600    321.39236   -1903.8578    23.264205   -1880.5936 
   58800    323.36033   -1902.0494    23.406658   -1878.6427 
   59000    326.35249   -1901.1927    23.623247   -1877.5694 
   59200    322.87187   -1903.0762      23.3713   -1879.7049 
   59400    325.03437   -1903.2767    23.527834   -1879.7488 
   59600    328.19836   -1901.5521    23.756862   -1877.7952 
   59800     323.7895   -1902.0634    23.437724   -1878.6257 
   60000    313.03081   -1903.1531    22.658948   -1880.4942 
   60200    332.65407   -1902.1616    24.079392   -1878.0822 
   60400    327.94448   -1900.8917    23.738484   -1877.1532 
   60600    321.33753   -1902.1216    23.260236   -1878.8614 
   60800    326.25392   -1904.0998    23.616112   -1880.4837 
   61000    318.29082   -1901.0286    23.039698   -1877.9889 
   61200    337.49171   -1901.6412    24.429567   -1877.2116 
   61400    297.10728   -1903.1746    21.506313   -1881.6683 
   61600    329.80753   -1902.3063    23.873343    -1878.433 
   61800    326.81354   -1901.6642    23.656621   -1878.0076 
   62000     308.4471   -1903.2716    22.327154   -1880.9445 
   62200    339.18402   -1903.2763    24.552067   -1878.7242 
   62400    316.38359   -1901.8143    22.901641   -1878.9126 
   62600    324.94198    -1902.287    23.521147   -1878.7659 
   62800    313.30793    -1901.857    22.679008    -1879.178 
   63000    305.70727   -1902.7767    22.128829   -1880.6479 
   63200    322.97937   -1900.3212    23.379082   -1876.9421 
   63400    332.63117   -1902.9502    24.077734   -1878.8724 
   63600    292.22317   -1902.6956    21.152773   -1881.5428 
   63800    334.93608   -1901.6767    24.244576   -1877.4321 
   64000    309.63625   -1900.0689    22.413231   -1877.6557 
   64200     320.7421   -1902.7331    23.217135   -1879.5159 
   64400    326.66096   -1902.4954    23.645576   -1878.8498 
   64600    315.89315    -1902.898    22.866141   -1880.0318 
   64800    339.38233   -1902.7884    24.566421    -1878.222 
   65000    332.21917   -1903.4153    24.047911   -1879.3674 
   65200    305.83597    -1901.873    22.138145   -1879.7349 
   65400    313.02761   -1900.5851    22.658717   -1877.9264 
   65600    330.22678   -1902.7548    23.903691   -1878.8511 
   65800    313.80875   -1900.6961     22.71526   -1877.9808 
   66000     315.4427   -1901.6231    22.833535   -1878.7895 
   66200    310.24791   -1902.2152    22.457507   -1879.7577 
   66400    324.67335   -1900.6027    23.501701    -1877.101 
   66600    337.26446   -1903.1887    24.413118   -1878.7756 
   66800     322.0871   -1903.1009    23.314494   -1879.7864 
   67000    315.21945    -1900.297    22.817374   -1877.4796 
   67200    334.43884   -1902.0226    24.208583    -1877.814 
   67400    313.84403   -1902.0871    22.717814   -1879.3693 
   67600     316.5025    -1901.627    22.910249   -1878.7168 
   67800    330.77776   -1902.3763    23.943574   -1878.4328 
   68000    309.68218    -1900.749    22.416555   -1878.3324 
   68200    344.28219   -1901.9957    24.921101   -1877.0746 
   68400    303.85781   -1901.8112    21.994955   -1879.8163 
   68600    325.00748   -1902.2354    23.525888   -1878.7096 
   68800    339.39975   -1901.6132    24.567682   -1877.0456 
   69000     302.4759   -1901.4517    21.894924   -1879.5568 
   69200    331.49969   -1902.9195    23.995831   -1878.9237 
   69400    325.01317   -1901.5466      23.5263   -1878.0203 
   69600    328.97892     -1901.68    23.813363   -1877.8666 
   69800    302.24901   -1901.9254      21.8785   -1880.0469 
   70000    332.33948   -1903.6743     24.05662   -1879.6177 
   70200    324.38956   -1900.8133    23.481159   -1877.3321 
   70400    332.91847   -1901.0298     24.09853   -1876.9312 
   70600    309.78573   -1902.7619    22.424051   -1880.3378 
   70800    323.00031   -1901.9894    23.380597   -1878.6088 
   71000      330.773   -1900.3968    23.943229   -1876.4536 
   71200    319.37785   -1902.4374    23.118383    -1879.319 
   71400    318.91314    -1901.865    23.084745   -1878.7802 
   71600    322.37191    -1899.809    23.335111   -1876.4739 
   71800    321.85621   -1902.1716    23.297781   -1878.8738 
   72000    330.37937   -1902.2767    23.914736    -1878.362 
   72200    321.54817   -1902.2551    23.275484   -1878.9796 
   72400    318.10795   -1901.0826     23.02646   -1878.0561 
   72600    339.14546   -1901.6244    24.549275   -1877.0751 
   72800    317.78159   -1902.4411    23.002837   -1879.4383 
   73000    323.65466   -1903.3384    23.427963   -1879.9105 
   73200    320.32494   -1901.0808    23.186939   -1877.8939 
   73400    342.44552    -1901.429    24.788152   -1876.6409 
   73600    326.62952   -1901.9427      23.6433   -1878.2994 
   73800    306.42099   -1902.1319    22.180492   -1879.9515 
   74000    345.86802   -1902.6062    25.035892   -1877.5703 
   74200    328.26876   -1901.1663    23.761958   -1877.4043 
   74400    316.70263   -1902.4003    22.924736   -1879.4756 
   74600    331.78298    -1901.182    24.016337   -1877.1656 
   74800    335.56157   -1902.3571    24.289853   -1878.0672 
   75000    315.07452   -1903.0581    22.806884   -1880.2512 
   75200    343.38191   -1901.5851    24.855934   -1876.7292 
   75400    308.04122   -1900.1948    22.297773   -1877.8971 
   75600    307.27628   -1901.3744    22.242403    -1879.132 
   75800     323.4052   -1901.5553    23.409906   -1878.1454 
   76000    323.96919   -1901.5751    23.450731   -1878.1243 
   76200    325.12557   -1901.3901    23.534436   -1877.8557 
   76400     321.9413   -1903.1871     23.30394   -1879.8832 
   76600    340.22075   -1903.6066    24.627111   -1878.9794 
   76800    325.64084   -1900.7674    23.571734   -1877.1957 
   77000    328.86202   -1901.6858    23.804901   -1877.8809 
   77200    314.57235   -1902.3878    22.770534   -1879.6173 
   77400    328.21865   -1902.8645    23.758331   -1879.1062 
   77600    327.26688   -1899.7134    23.689436    -1876.024 
   77800     322.0189   -1900.9054    23.309558   -1877.5958 
   78000    335.67347   -1903.4784    24.297953   -1879.1804 
   78200    315.60941   -1902.2651    22.845602   -1879.4195 
   78400    346.63509   -1902.4407    25.091417   -1877.3492 
   78600    315.23788   -1901.0082    22.818709   -1878.1895 
   78800    328.20218   -1902.5298    23.757138   -1878.7727 
   79000    329.52512   -1901.2889      23.8529    -1877.436 
   79200    329.83694   -1902.5169    23.875472   -1878.6414 
   79400    332.85616   -1903.1454     24.09402   -1879.0514 
   79600    323.61534   -1901.3306    23.425117   -1877.9055 
   79800    331.71729   -1901.2358    24.011582   -1877.2242 
   80000    316.91611   -1901.8367    22.940188   -1878.8965 
   80200    337.29177   -1902.4595    24.415095   -1878.0444 
   80400     325.2055   -1901.6734    23.540222   -1878.1332 
   80600    317.97551   -1901.6734    23.016874   -1878.6566 
   80800     328.8588   -1900.9203    23.804668   -1877.1156 
   81000    331.14044   -1900.9793    23.969827   -1877.0095 
   81200    304.03216   -1901.3701    22.007575   -1879.3625 
   81400    332.79452     -1902.29    24.089558   -1878.2004 
   81600    333.05389     -1902.26    24.108333   -1878.1517 
   81800     313.5598   -1902.0777     22.69724   -1879.3805 
   82000    343.98925   -1902.1875    24.899896   -1877.2876 
   82200    332.91994   -1901.9372    24.098637   -1877.8385 
   82400     322.2045   -1902.2718    23.322992   -1878.9488 
   82600     331.6222   -1900.8644    24.004698   -1876.8597 
   82800     354.5673   -1903.1657    25.665596   -1877.5001 
   83000    302.63888   -1902.8931    21.906721   -1880.9863 
   83200    335.76742   -1900.0114    24.304753   -1875.7067 
   83400    322.61694   -1899.8693    23.352847   -1876.5165 
   83600    300.69929   -1902.3261    21.766323   -1880.5597 
   83800    339.54808    -1901.123    24.578419   -1876.5446 
   84000    329.31153   -1901.9945    23.837439   -1878.1571 
   84200    323.54666   -1902.8368    23.420145   -1879.4167 
   84400    346.74523   -1901.7936     25.09939   -1876.6942 
   84600    307.68467   -1901.3674    22.271965   -1879.0954 
   84800    333.21154   -1901.1765    24.119744   -1877.0567 
   85000    330.38688   -1901.5502    23.915279   -1877.6349 
   85200    312.04418   -1902.2789    22.587531   -1879.6913 
   85400    376.91021   -1903.4839    27.282902    -1876.201 
   85600     326.1816   -1901.6824    23.610877   -1878.0715 
   85800    321.88019   -1902.3691    23.299517   -1879.0696 
   86000    340.99794   -1902.2328    24.683368   -1877.5495 
   86200    320.68015   -1901.5596    23.212651   -1878.3469 
   86400    343.75214    -1901.898    24.882732   -1877.0153 
   86600    334.10565   -1902.0904    24.184465   -1877.9059 
   86800    316.34067   -1902.1424    22.898535   -1879.2438 
   87000    333.97203   -1900.3326    24.174793   -1876.1578 
   87200    330.43949   -1900.6427    23.919087   -1876.7236 
   87400    324.19384   -1902.7547    23.466992   -1879.2877 
   87600    342.08808   -1902.0647    24.762279   -1877.3024 
   87800    340.32232   -1900.7421    24.634463   -1876.1076 
   88000    339.61268   -1902.5608    24.583095   -1877.9777 
   88200     327.6978   -1903.1722    23.720629   -1879.4516 
   88400    334.64001   -1900.9472    24.223145   -1876.7241 
   88600    328.44618   -1900.5194      23.7748   -1876.7446 
   88800    335.16864   -1901.9446    24.261411   -1877.6832 
   89000    321.73176   -1900.8462    23.288772   -1877.5574 
   89200    326.38774    -1902.043    23.625799   -1878.4172 
   89400    327.94605   -1901.2072    23.738598   -1877.4686 
   89600    324.32877    -1901.604    23.476759   -1878.1272 
   89800    323.20937   -1901.6755    23.395731   -1878.2798 
   90000    341.22773   -1900.9803    24.700001   -1876.2803 
   90200    335.60286   -1902.1258    24.292842    -1877.833 
   90400     315.3256   -1901.5988    22.825058   -1878.7737 
   90600    341.27114   -1901.2513    24.703144   -1876.5482 
   90800    328.24555   -1901.1016    23.760278   -1877.3413 
   91000    322.62045   -1901.6586    23.353101   -1878.3055 
   91200    331.92838   -1901.1085    24.026862   -1877.0816 
   91400     330.2485    -1900.947    23.905262   -1877.0418 
   91600     333.9577   -1900.2765    24.173756   -1876.1027 
   91800    332.59115   -1902.5423    24.074837   -1878.4675 
   92000    319.26366   -1901.4052    23.110118   -1878.2951 
   92200    338.09413   -1899.9251    24.473174    -1875.452 
   92400     328.2363   -1901.9073    23.759608   -1878.1477 
   92600    323.76654   -1902.2924    23.436062   -1878.8563 
   92800    332.91066   -1899.8398    24.097965   -1875.7418 
   93000     331.6415   -1900.6611    24.006096    -1876.655 
   93200    329.43251   -1903.4273    23.846197   -1879.5811 
   93400    338.11786   -1901.4332    24.474891   -1876.9583 
   93600    333.16445   -1899.7258    24.116335   -1875.6094 
   93800    324.96472   -1901.5263    23.522793   -1878.0035 
   94000    332.43403   -1901.9532    24.063464   -1877.8897 
   94200    329.04365   -1900.6613    23.818049   -1876.8432 
   94400    346.10655   -1901.4699    25.053158   -1876.4168 
   94600      330.813   -1901.2084    23.946125   -1877.2622 
   94800    330.53005   -1901.8873    23.925643   -1877.9617 
   95000    333.44306   -1900.8143    24.136503   -1876.6778 
   95200    343.25898   -1901.5026    24.847035   -1876.6556 
   95400    319.68882   -1901.6756    23.140893   -1878.5347 
   95600    349.14289   -1900.6773    25.272946   -1875.4043 
   95800    321.51308   -1901.0235    23.272944   -1877.7505 
   96000     326.1536   -1902.1404     23.60885   -1878.5316 
   96200    353.92449    -1901.447    25.619065   -1875.8279 
   96400    319.34534   -1899.6584     23.11603   -1876.5424 
   96600    330.31336    -1901.198    23.909958    -1877.288 
   96800    344.03543   -1902.9266    24.903239   -1878.0233 
   97000    321.73259   -1901.3183    23.288833   -1878.0294 
   97200    348.10579   -1900.5541    25.197875   -1875.3562 
   97400    322.91301    -1901.573    23.374278   -1878.1987 
   97600     337.6085   -1903.6503    24.438022   -1879.2123 
   97800    356.28854     -1901.13    25.790189   -1875.3398 
   98000    363.71342    -1902.735    26.327643   -1876.4074 
   98200    312.14318   -1902.0682    22.594697   -1879.4735 
   98400    347.33657   -1901.5474    25.142194   -1876.4052 
   98600    342.42277     -1900.71    24.786506   -1875.9235 
   98800     309.4248   -1901.6721    22.397925   -1879.2742 
   99000    329.72339   -1900.7294    23.867252   -1876.8621 
   99200    348.04429   -1900.0943    25.193423   -1874.9008 
   99400    309.49957   -1901.2937    22.403337   -1878.8904 
   99600    333.42309   -1901.3862    24.135058   -1877.2511 
   99800    338.54441   -1900.3139    24.505768   -1875.8082 
  100000    340.10528   -1901.8328    24.618752    -1877.214 
  100200     340.9768   -1901.2174    24.681838   -1876.5356 
  100400    326.50806   -1901.2743    23.634509   -1877.6398 
  100600        330.9   -1901.3922    23.952422   -1877.4398 
  100800    346.29973   -1900.3799    25.067142   -1875.3128 
  101000    337.77855    -1902.244     24.45033   -1877.7937 
  101200    316.23131   -1901.4002    22.890619   -1878.5096 
  101400    348.06512    -1899.296    25.194931   -1874.1011 
  101600    339.38122   -1901.7528    24.566341   -1877.1865 
  101800    330.70068   -1901.3621    23.937994   -1877.4242 
  102000    353.34247   -1900.4223    25.576936   -1874.8454 
  102200    315.13195    -1901.224    22.811041   -1878.4129 
  102400    338.71667   -1901.2328    24.518237   -1876.7145 
  102600    360.26993   -1901.7093    26.078385   -1875.6309 
  102800    340.06241   -1901.9687    24.615649    -1877.353 
  103000     333.6811   -1899.8427    24.153733   -1875.6889 
  103200     325.5939   -1900.3512    23.568336   -1876.7828 
  103400    319.93567   -1901.7835    23.158761   -1878.6247 
  103600    352.27587   -1900.6737    25.499729    -1875.174 
  103800    360.81686    -1901.576    26.117974    -1875.458 
  104000    321.35717   -1901.9264    23.261658   -1878.6647 
  104200    354.75347   -1901.7225    25.679072   -1876.0434 
  104400    349.42578   -1901.4215    25.293423   -1876.1281 
  104600    305.93866   -1900.6662    22.145578   -1878.5206 
  104800    352.42718   -1900.7279    25.510681   -1875.2173 
  105000     329.5013   -1900.3655    23.851176   -1876.5143 
  105200    331.59947   -1902.8892    24.003054   -1878.8861 
  105400    370.08752   -1902.5808    26.789037   -1875.7918 
  105600    322.98957   -1900.0934     23.37982   -1876.7136 
  105800    342.07934   -1901.0594    24.761646   -1876.2978 
  106000    319.25202   -1900.1198    23.109275   -1877.0105 
  106200    329.09631   -1902.0199    23.821861    -1878.198 
  106400    346.94667   -1900.5265    25.113971   -1875.4126 
  106600    347.67059   -1901.3405    25.166373   -1876.1741 
  106800    331.85771   -1901.4635    24.021746   -1877.4418 
  107000    346.95282   -1900.8265    25.114416   -1875.7121 
  107200    342.26744   -1902.8483    24.775262   -1878.0731 
  107400    338.15504   -1901.0365    24.477583   -1876.5589 
  107600    357.41836   -1900.6902    25.871971   -1874.8182 
  107800    331.80795   -1901.9209    24.018145   -1877.9028 
  108000    348.76835   -1902.2661    25.245834   -1877.0203 
  108200    342.49177   -1900.5615      24.7915     -1875.77 
  108400    326.11535   -1899.8453    23.606082   -1876.2392 
  108600    326.45294     -1899.94    23.630518   -1876.3094 
  108800    339.88434   -1901.2807    24.602759   -1876.6779 
  109000     322.8169   -1900.9385    23.367321   -1877.5712 
  109200    360.18028   -1901.3216    26.071895   -1875.2497 
  109400     333.8404   -1900.8031    24.165265   -1876.6379 
  109600    325.97069   -1901.7866    23.595611    -1878.191 
  109800    358.85355   -1901.6796    25.975859   -1875.7037 
  110000    352.36447   -1901.5371    25.506142    -1876.031 
  110200    331.02699   -1901.9476    23.961614    -1877.986 
  110400     338.6103    -1900.814    24.510538   -1876.3035 
  110600    332.77743   -1900.1433    24.088321    -1876.055 
  110800    336.77486   -1901.3486    24.377677   -1876.9709 
  111000    340.97679   -1900.6644    24.681837   -1875.9825 
  111200    333.68639   -1900.4561    24.154117    -1876.302 
  111400    328.25379   -1899.6204    23.760874   -1875.8595 
  111600    357.95209   -1902.3408    25.910606   -1876.4302 
  111800    331.74089   -1901.9348    24.013291   -1877.9215 
  112000    347.15799   -1900.6194    25.129267   -1875.4901 
  112200     337.9485   -1900.2511    24.462632   -1875.7885 
  112400    344.73782   -1900.7346    24.954082   -1875.7805 
  112600    322.62209   -1899.2182     23.35322    -1875.865 
  112800    326.58213   -1902.2433     23.63987   -1878.6035 
  113000    353.95959   -1901.5706    25.621606    -1875.949 
  113200    344.00792   -1898.6516    24.901248   -1873.7504 
  113400    322.97137   -1901.7823    23.378502   -1878.4038 
  113600    345.03695   -1901.8126    24.975735   -1876.8369 
  113800    363.66397   -1900.5818    26.324065   -1874.2577 
  114000    321.12939   -1900.3487     23.24517   -1877.1035 
  114200    350.55193   -1901.6659    25.374941    -1876.291 
  114400    338.92185   -1901.3283    24.533089   -1876.7952 
  114600    337.65594   -1900.2941    24.441455   -1875.8526 
  114800    347.60288   -1900.3593    25.161471   -1875.1979 
  115000    330.09677   -1901.2266     23.89428   -1877.3323 
  115200    337.48163   -1899.9035    24.428838   -1875.4747 
  115400    331.25499   -1899.1393    23.978118   -1875.1611 
  115600    343.71511   -1901.7563    24.880052   -1876.8762 
  115800    343.14594    -1901.722    24.838852   -1876.8832 
  116000    340.56522    -1900.192    24.652045     -1875.54 
  116200    359.52927        -1902    26.024771   -1875.9752 
  116400    325.69538   -1901.6258    23.575682   -1878.0501 
  116600    353.52723   -1901.2537    25.590309   -1875.6634 
  116800    344.90994   -1899.5667    24.966541   -1874.6001 
  117000     325.6132   -1901.9178    23.569733   -1878.3481 
  117200    331.73962    -1900.453    24.013198   -1876.4398 
  117400    348.13849   -1899.6077    25.200241   -1874.4075 
  117600    337.54345   -1902.2006    24.433313   -1877.7673 
  117800    337.85607   -1900.5112    24.455942   -1876.0552 
  118000    352.06989   -1899.4505    25.484819   -1873.9657 
  118200    344.17263   -1900.8572     24.91317    -1875.944 
  118400    318.34399   -1901.0245    23.043547   -1877.9809 
  118600    330.61774   -1899.4738     23.93199   -1875.5418 
  118800    347.82239    -1899.569    25.177361   -1874.3916 
  119000    318.34194    -1900.964    23.043398   -1877.9206 
  119200    333.32725   -1900.7631     24.12812   -1876.6349 
  119400    345.12231   -1899.1617    24.981913   -1874.1798 
  119600    332.22444   -1900.3379    24.048293   -1876.2896 
  119800    361.44035   -1901.7426    26.163106   -1875.5795 
  120000    335.56466   -1900.9827    24.290077   -1876.6926 
  120200    338.31324   -1901.1904    24.489034   -1876.7013 
  120400    353.09823   -1898.8488    25.559256   -1873.2896 
  120600    326.05657   -1901.3641    23.601827   -1877.7623 
  120800    325.90249   -1900.9845    23.590674   -1877.3938 
  121000    370.84289   -1899.7554    26.843715   -1872.9117 
  121200    333.95016   -1900.7232     24.17321     -1876.55 
  121400    328.59943   -1900.0468    23.785893    -1876.261 
  121600    361.96071   -1900.9829    26.200773   -1874.7822 
  121800    347.56609    -1900.807    25.158808   -1875.6482 
  122000    342.06596   -1900.8542    24.760677   -1876.0935 
  122200    334.53467   -1900.1874     24.21552   -1875.9719 
  122400    363.32997   -1900.0317    26.299888   -1873.7318 
  122600    348.40053   -1900.7787    25.219209   -1875.5595 
  122800    322.07985   -1900.5288     23.31397   -1877.2148 
  123000    347.87777   -1900.0623    25.181369    -1874.881 
  123200    346.09016   -1899.3415    25.051972   -1874.2895 
  123400    334.09913   -1900.3919    24.183993   -1876.2079 
  123600    335.17991   -1901.6507    24.262226   -1877.3884 
  123800    351.94329   -1900.1928    25.475655   -1874.7171 
  124000    360.32269   -1901.0587    26.082203   -1874.9765 
  124200    308.79121   -1900.6848    22.352062   -1878.3328 
  124400    355.64159   -1901.0935    25.743359   -1875.3502 
  124600    344.98512   -1898.7034    24.971983   -1873.7315 
  124800    343.91116   -1901.7353    24.894244   -1876.8411 
  125000    326.29835   -1900.3491    23.619328   -1876.7298 
  125200    338.65665    -1899.567    24.513892   -1875.0531 
  125400    348.89382   -1899.4977    25.254917   -1874.2428 
  125600    346.06324   -1901.7132    25.050023   -1876.6632 
  125800    330.53383    -1900.928    23.925917    -1877.002 
  126000    366.27982   -1899.8416    26.513414   -1873.3282 
  126200    338.71763    -1899.706    24.518307   -1875.1877 
  126400    333.22177   -1901.3352    24.120485   -1877.2147 
  126600    342.75051   -1898.6903    24.810229     -1873.88 
  126800    356.51298   -1900.8536    25.806435   -1875.0472 
  127000    329.33293   -1900.3681    23.838988   -1876.5291 
  127200    374.72104   -1901.1166    27.124438   -1873.9922 
  127400     342.8908   -1900.7724    24.820384    -1875.952 
  127600    351.38955   -1901.2981    25.435572   -1875.8625 
  127800     347.0293   -1900.9533    25.119952   -1875.8334 
  128000    335.63358   -1900.9881    24.295065    -1876.693 
  128200    335.03902   -1898.5484    24.252028   -1874.2964 
  128400    358.26353    -1900.335     25.93315   -1874.4018 
  128600    329.55037   -1900.0061    23.854728   -1876.1514 
  128800    344.55423   -1899.9115    24.940793   -1874.9707 
  129000    355.06384   -1900.3625    25.701538   -1874.6609 
  129200    339.20823     -1900.59    24.553819   -1876.0361 
  129400    347.84287   -1900.6772    25.178843   -1875.4983 
  129600    346.52744   -1900.4423    25.083625   -1875.3587 
  129800    350.35573   -1901.4708    25.360738   -1876.1101 
  130000    346.18064   -1899.8876    25.058522    -1874.829 
  130200    347.02106   -1900.8411    25.119356   -1875.7218 
  130400    335.46771   -1900.7231    24.283059     -1876.44 
  130600    362.87078   -1900.0717    26.266649   -1873.8051 
  130800    339.85576   -1900.7744    24.600691   -1876.1737 
  131000     342.8424   -1901.7557    24.816881   -1876.9388 
  131200     373.0571   -1899.2342    27.003992   -1872.2302 
  131400    317.65911   -1900.0889    22.993971   -1877.0949 
  131600    328.85939   -1900.4791    23.804711   -1876.6744 
  131800     365.4115   -1898.0667     26.45056   -1871.6161 
  132000    327.99825    -1900.872    23.742377   -1877.1296 
  132200    345.43999   -1901.6796    25.004909   -1876.6747 
  132400    354.94856    -1898.938    25.693194   -1873.2448 
  132600    340.11442   -1900.2125    24.619414   -1875.5931 
  132800    353.20512   -1901.5763    25.566993   -1876.0093 
  133000    330.85587    -1899.696    23.949227   -1875.7468 
  133200    345.12046   -1900.0629    24.981779   -1875.0812 
  133400    355.98935   -1899.4599    25.768532   -1873.6914 
  133600    339.96548   -1900.5977    24.608633   -1875.9891 
  133800    333.88766   -1900.5425    24.168686   -1876.3738 
  134000    370.99148   -1899.8313    26.854471   -1872.9769 
  134200    351.47605   -1900.0859    25.441833   -1874.6441 
  134400     348.4761   -1901.3439     25.22468   -1876.1192 
  134600    353.78033   -1900.5204     25.60863   -1874.9117 
  134800    351.41506   -1899.4811    25.437418   -1874.0436 
  135000    353.18776   -1901.1652    25.565737   -1875.5995 
  135200    347.13673   -1900.6301    25.127729   -1875.5024 
  135400    358.59954   -1900.3199    25.957472   -1874.3625 
  135600    352.48582   -1899.8919    25.514926    -1874.377 
  135800    330.52098   -1899.8952    23.924986   -1875.9702 
  136000    350.20611   -1899.6267    25.349908   -1874.2768 
  136200    356.94334   -1898.7967    25.837587   -1872.9591 
  136400     319.6743   -1899.7844    23.139842   -1876.6446 
  136600    336.98402   -1899.7441    24.392818   -1875.3513 
  136800    365.49785   -1898.8302    26.456811   -1872.3734 
  137000     323.5647   -1900.0727    23.421451   -1876.6512 
  137200    342.02504   -1900.3269    24.757716   -1875.5692 
  137400    343.54716   -1898.6033    24.867895   -1873.7354 
  137600    345.58673   -1899.3221    25.015531   -1874.3065 
  137800    348.08239   -1900.8769    25.196181   -1875.6807 
  138000    326.55721   -1900.1245    23.638066   -1876.4864 
  138200    344.69208   -1900.0115    24.950771   -1875.0607 
  138400    357.15107   -1898.8202    25.852623   -1872.9675 
  138600    348.76844   -1900.1597    25.245841   -1874.9139 
  138800    343.05955   -1901.0185    24.832599   -1876.1859 
  139000     346.8262   -1898.5335    25.105251   -1873.4283 
  139200    356.55347   -1899.3878    25.809366   -1873.5785 
  139400    353.12128   -1901.4021    25.560925   -1875.8412 
  139600     329.3643   -1900.4142    23.841259   -1876.5729 
  139800      360.136   -1898.5413    26.068689   -1872.4726 
  140000    355.94217   -1899.1704    25.765117   -1873.4052 
  140200    317.82519   -1900.4544    23.005993   -1877.4484 
  140400    349.04202   -1899.8234    25.265644   -1874.5577 
  140600    349.05858   -1898.9991    25.266843   -1873.7323 
  140800    334.55059   -1899.6351    24.216672   -1875.4184 
  141000    370.93587   -1900.5452    26.850445   -1873.6948 
  141200    335.27471   -1900.4092    24.269088   -1876.1401 
  141400    328.84162   -1898.7624    23.803425    -1874.959 
  141600    362.07436    -1899.336    26.208999    -1873.127 
  141800    330.20234   -1898.8777    23.901921   -1874.9758 
  142000    366.01952   -1899.5366    26.494572   -1873.0421 
  142200    337.54355   -1899.2134     24.43332   -1874.7801 
  142400    351.24113    -1899.494    25.424829   -1874.0692 
  142600    360.68167   -1898.4273    26.108189   -1872.3191 
  142800    341.85665   -1899.6732    24.745527   -1874.9277 
  143000    358.50409   -1900.1921    25.950562   -1874.2415 
  143200    346.92101   -1900.6975    25.112114   -1875.5853 
  143400    341.58621   -1899.6923    24.725951   -1874.9663 
  143600    353.82995   -1898.5238    25.612222   -1872.9116 
  143800    343.12247   -1898.9794    24.837154   -1874.1422 
  144000     356.3022   -1900.7328    25.791177   -1874.9416 
  144200    334.31962   -1899.2389    24.199953   -1875.0389 
  144400    346.93809   -1899.3641     25.11335   -1874.2508 
  144600    368.25719   -1899.8717    26.656547   -1873.2151 
  144800    345.54565   -1899.5615    25.012557   -1874.5489 
  145000    347.67163   -1899.6133    25.166448   -1874.4468 
  145200    355.31535   -1899.1828    25.719743    -1873.463 
  145400    340.29064   -1899.9247    24.632169   -1875.2925 
  145600     367.5566   -1900.3877    26.605835   -1873.7819 
  145800    347.14014   -1900.4165    25.127976   -1875.2885 
  146000    340.04752   -1899.3636    24.614571    -1874.749 
  146200     357.6792   -1899.1784    25.890852   -1873.2876 
  146400    330.10972   -1900.4665    23.895217   -1876.5713 
  146600     360.4611   -1900.6963    26.092222   -1874.6041 
  146800    375.93227   -1899.7475    27.212114   -1872.5354 
  147000    345.54002   -1900.5297     25.01215   -1875.5175 
  147200    348.54261   -1899.5371    25.229495   -1874.3076 
  147400    347.41193   -1900.2113    25.147649   -1875.0637 
  147600    344.96902   -1900.2901    24.970818   -1875.3193 
  147800     352.8713   -1898.5533    25.542829   -1873.0104 
  148000     343.1166   -1900.4835    24.836729   -1875.6468 
  148200    333.12544    -1899.716    24.113512   -1875.6025 
  148400     373.3094   -1898.3131    27.022255   -1871.2908 
  148600    332.03137   -1900.0617    24.034317   -1876.0274 
  148800    349.22044     -1900.45    25.278559   -1875.1714 
  149000    360.72456    -1898.692    26.111293   -1872.5808 
  149200    343.79929   -1900.0722    24.886146    -1875.186 
  149400    336.29507    -1899.919    24.342948   -1875.5761 
  149600    352.02295   -1898.2185    25.481421   -1872.7371 
  149800    330.49399   -1898.0718    23.923033   -1874.1488 
  150000    354.38438   -1900.9848    25.652355   -1875.3325 
  150200    372.38954   -1901.9674    26.955671   -1875.0118 
  150400    360.69732   -1900.4737    26.109321   -1874.3644 
  150600    335.71057   -1898.1745    24.300638   -1873.8738 
  150800     341.9464   -1899.6457    24.752023   -1874.8936 
  151000    343.62479   -1900.0187    24.873515   -1875.1452 
  151200     364.6614   -1899.9199    26.396264   -1873.5236 
  151400    356.99209   -1900.5136    25.841115   -1874.6725 
  151600    352.58772   -1900.5246    25.522303   -1875.0023 
  151800    370.65583   -1900.5255    26.830175   -1873.6953 
  152000    356.39096   -1899.0064    25.797602   -1873.2088 
  152200    348.37149   -1899.8811    25.217108    -1874.664 
  152400    345.04788    -1899.457    24.976526   -1874.4805 
  152600    365.58691   -1899.2807    26.463257   -1872.8174 
  152800    353.52973   -1899.4105     25.59049     -1873.82 
  153000    367.16288   -1899.6676    26.577335   -1873.0902 
  153200    354.88377   -1900.6918    25.688503   -1875.0033 
  153400    342.75296   -1899.6633    24.810407   -1874.8529 
  153600    359.68183   -1897.5075    26.035814   -1871.4717 
  153800    362.02658    -1900.376     26.20554   -1874.1704 
  154000    347.02042   -1900.7315    25.119309   -1875.6122 
  154200     379.3146   -1899.3435    27.456946   -1871.8865 
  154400    350.55403   -1897.5882    25.375092   -1872.2131 
  154600    340.03933   -1900.6025    24.613979   -1875.9886 
  154800     338.7711   -1899.3406    24.522177   -1874.8184 
  155000    363.36025    -1897.741    26.302079   -1871.4389 
  155200    350.23451   -1898.7067    25.351963   -1873.3547 
  155400    309.68707   -1899.7579    22.416909    -1877.341 
  155600    363.91271   -1900.0929     26.34207   -1873.7508 
  155800    376.28771   -1898.4565    27.237842   -1871.2187 
  156000     327.1279   -1898.6202    23.679376   -1874.9408 
  156200    352.17693   -1899.3337    25.492567   -1873.8411 
  156400      337.054   -1898.9199    24.397883    -1874.522 
  156600    351.30229   -1898.4734    25.429255   -1873.0441 
  156800    360.29313   -1898.4408    26.080064   -1872.3608 
  157000    337.52502   -1899.5338    24.431978   -1875.1019 
  157200    372.75373   -1899.6276    26.982033   -1872.6456 
  157400    345.12273   -1898.2555    24.981944   -1873.2735 
  157600    324.28279   -1900.2676    23.473431   -1876.7942 
  157800    365.58673   -1898.1937    26.463244   -1871.7304 
  158000    350.93288   -1898.1833    25.402515   -1872.7808 
  158200    347.95126   -1900.7524    25.186689   -1875.5657 
  158400    343.59403   -1897.8469    24.871288   -1872.9756 
  158600    365.85612   -1899.4541    26.482744   -1872.9713 
  158800    337.40054   -1898.3661    24.422968   -1873.9431 
  159000    362.07078   -1900.1495     26.20874   -1873.9407 
  159200    368.17653   -1900.0674    26.650709   -1873.4167 
  159400    374.28284   -1899.8627    27.092718     -1872.77 
  159600    357.74357   -1900.5259    25.895512   -1874.6304 
  159800    359.16934   -1898.6464    25.998717   -1872.6476 
  160000    372.87031   -1899.6934    26.990471   -1872.7029 
  160200    339.38097   -1900.3983    24.566323    -1875.832 
  160400    369.82307   -1899.9792    26.769895   -1873.2093 
  160600    364.03957   -1899.7651    26.351252   -1873.4139 
  160800    359.60961     -1900.21    26.030587   -1874.1794 
  161000    354.86359   -1899.8112    25.687043   -1874.1242 
  161200    345.40447   -1899.4404    25.002338   -1874.4381 
  161400    364.39984   -1898.9289     26.37733   -1872.5516 
  161600    383.79461   -1900.7821    27.781234   -1873.0009 
  161800    334.44524   -1900.8864    24.209046   -1876.6773 
  162000     371.5788   -1898.9385    26.896984   -1872.0415 
  162200    367.16322   -1899.5883    26.577359   -1873.0109 
  162400    332.95234   -1901.0063    24.100982   -1876.9053 
  162600    374.47684   -1899.1223    27.106761   -1872.0156 
  162800    335.41492   -1897.8961    24.279238   -1873.6168 
  163000    342.25254   -1900.4008    24.774183   -1875.6266 
  163200    366.51133    -1899.329    26.530172   -1872.7989 
  163400     359.8232   -1899.9562    26.046047   -1873.9102 
  163600    362.37205   -1899.7311    26.230548   -1873.5006 
  163800     353.2476   -1898.5194    25.570068   -1872.9493 
  164000    343.48873   -1899.9639    24.863666   -1875.1002 
  164200    371.05357   -1898.9511    26.858965   -1872.0921 
  164400    377.42529   -1900.1371    27.320187   -1872.8169 
  164600    354.52309   -1901.1602    25.662396   -1875.4979 
  164800    369.66757   -1899.0841    26.758639   -1872.3255 
  165000    358.32722   -1899.8025     25.93776   -1873.8647 
  165200     337.4558   -1900.0263    24.426968   -1875.5993 
  165400    363.88162   -1898.6579    26.339819   -1872.3181 
  165600     366.9912   -1900.6838    26.564908   -1874.1189 
  165800    362.52589   -1901.4735    26.241683   -1875.2319 
  166000    369.66604   -1899.8229    26.758528   -1873.0643 
  166200    352.42621   -1899.8102    25.510611   -1874.2996 
  166400    346.62977   -1898.7207    25.091032   -1873.6297 
  166600    358.69812   -1898.8967    25.964608   -1872.9321 
  166800     354.9457   -1900.1723    25.692986   -1874.4793 
  167000    365.23992   -1899.0102    26.438141   -1872.5721 
  167200    373.35145   -1899.0258    27.025299   -1872.0005 
  167400    348.54968    -1901.669    25.230006    -1876.439 
  167600    374.56445   -1900.9751    27.113103    -1873.862 
  167800    364.53064   -1897.0105    26.386799   -1870.6237 
  168000     344.2248    -1900.149    24.916946   -1875.2321 
  168200    349.36152   -1899.3965    25.288772   -1874.1077 
  168400    356.23181   -1897.7684    25.786082   -1871.9823 
  168600    359.57124   -1900.0171    26.027809   -1873.9893 
  168800    346.31265   -1898.8365    25.068077   -1873.7685 
  169000     357.9739   -1899.7359    25.912185   -1873.8237 
  169200    347.85759   -1897.9116    25.179909   -1872.7317 
  169400    361.70731   -1897.8807     26.18243   -1871.6983 
  169600    356.37986   -1900.0694    25.796799   -1874.2726 
  169800    353.52716   -1898.9905    25.590304   -1873.4002 
  170000    371.82523   -1899.6505    26.914823   -1872.7357 
  170200    371.96848   -1900.0897    26.925192   -1873.1645 
  170400    352.99839   -1899.3834    25.552029   -1873.8314 
  170600    361.37403   -1899.2887    26.158305   -1873.1304 
  170800    344.28401   -1898.0953    24.921232   -1873.1741 
  171000     366.7795   -1900.6203    26.549584   -1874.0708 
  171200    363.39295   -1898.9695    26.304446   -1872.6651 
  171400    365.20173   -1899.4516    26.435376   -1873.0162 
  171600    358.29229    -1898.658    25.935231   -1872.7228 
  171800    350.80806   -1899.0931    25.393481   -1873.6996 
  172000    365.13849   -1900.8173    26.430798   -1874.3865 
  172200    342.30925   -1898.5362    24.778288   -1873.7579 
  172400    385.29431   -1899.3403    27.889791   -1871.4505 
  172600    342.98783   -1899.6728    24.827408   -1874.8454 
  172800    328.91848   -1898.6382    23.808988   -1874.8292 
  173000    380.41697   -1897.5882    27.536742   -1870.0515 
  173200    330.26393   -1896.9388    23.906379   -1873.0324 
  173400    359.14527   -1900.2091    25.996975   -1874.2121 
  173600    357.51779    -1899.378    25.879168   -1873.4988 
  173800    347.19875   -1898.5948    25.132218   -1873.4626 
  174000    368.59211   -1897.5192    26.680791   -1870.8384 
  174200    351.47088   -1899.0871    25.441459   -1873.6456 
  174400    350.50104   -1899.4674    25.371257   -1874.0961 
  174600    366.46046   -1897.9294     26.52649   -1871.4029 
  174800       371.06   -1899.1828    26.859431   -1872.3234 
  175000    349.86224   -1900.3929    25.325016   -1875.0678 
  175200    361.64357   -1898.5598    26.177817   -1872.3819 
  175400    359.45426   -1898.2775    26.019341   -1872.2582 
  175600    360.31486   -1899.4389    26.081636   -1873.3573 
  175800    370.17009    -1899.588    26.795014    -1872.793 
  176000    369.31937   -1899.6753    26.733434   -1872.9419 
  176200    349.07473   -1899.0361    25.268012   -1873.7681 
  176400    359.02462   -1898.8748    25.988241   -1872.8866 
  176600    364.25315   -1898.6762    26.366712   -1872.3095 
  176800    348.61519     -1898.61    25.234748   -1873.3752 
  177000    334.27739   -1898.9954    24.196897   -1874.7985 
  177200    372.74129   -1898.8378    26.981132   -1871.8566 
  177400    375.41029   -1898.4308    27.174329   -1871.2565 
  177600    372.75376   -1900.3265    26.982035   -1873.3445 
  177800    353.07356   -1900.5874     25.55747   -1875.0299 
  178000    365.17495   -1899.0747    26.433438   -1872.6412 
  178200    377.16388   -1897.9748    27.301264   -1870.6735 
  178400    371.19538   -1899.9277     26.86923   -1873.0585 
  178600     370.2538   -1900.2159    26.801074   -1873.4148 
  178800    359.92644   -1899.2831    26.053521   -1873.2296 
  179000    375.54451   -1898.9784    27.184045   -1871.7943 
  179200     371.9642    -1900.193    26.924882   -1873.2681 
  179400    347.93983    -1899.588    25.185861   -1874.4021 
  179600    378.23554   -1899.5801    27.378837   -1872.2013 
  179800    354.89601   -1898.2004    25.689389    -1872.511 
  180000    367.04018   -1900.4674    26.568454   -1873.8989 
  180200    381.63876    -1900.155    27.625182   -1872.5298 
  180400    359.03569   -1898.7368    25.989043   -1872.7477 
  180600    354.81298   -1899.1528     25.68338   -1873.4694 
  180800    357.17518   -1897.7717    25.854369   -1871.9174 
  181000    363.46724   -1899.7562    26.309824   -1873.4463 
  181200    360.91152   -1899.4677    26.124826   -1873.3429 
  181400    373.96803   -1898.1118    27.069931   -1871.0418 
  181600    362.37796   -1898.1328    26.230975   -1871.9018 
  181800     368.8152   -1899.7657     26.69694   -1873.0687 
  182000    359.34902    -1899.342    26.011724   -1873.3303 
  182200    355.10421   -1898.6293     25.70446   -1872.9248 
  182400    368.77799   -1899.4879    26.694246   -1872.7936 
  182600    392.48793   -1900.4392    28.410506   -1872.0287 
  182800    351.11313   -1900.1365    25.415563    -1874.721 
  183000    355.23046   -1899.3227    25.713599   -1873.6091 
  183200    383.03874   -1898.0969     27.72652   -1870.3704 
  183400    348.88622   -1898.8931    25.254367   -1873.6387 
  183600    363.14956   -1900.2694    26.286828   -1873.9826 
  183800    378.92035   -1899.4708    27.428408   -1872.0424 
  184000    371.05613   -1899.4717     26.85915   -1872.6126 
  184200    375.47977   -1898.8371    27.179359   -1871.6577 
  184400    360.50351   -1899.8179    26.095292   -1873.7226 
  184600    366.73605    -1900.667    26.546439   -1874.1205 
  184800    389.41454   -1899.8359    28.188037   -1871.6479 
  185000    357.68794   -1898.7415    25.891485     -1872.85 
  185200    365.72069   -1900.4751    26.472942   -1874.0022 
  185400    391.07902   -1900.9245    28.308522    -1872.616 
  185600    367.35771   -1898.3937    26.591438   -1871.8023 
  185800    373.36337   -1898.9055    27.026162   -1871.8794 
  186000    358.10429   -1898.9531    25.921623   -1873.0315 
  186200    359.09345    -1899.172    25.993224   -1873.1788 
  186400    367.11226   -1897.7061    26.573671   -1871.1324 
  186600    353.56497   -1898.2507    25.593042   -1872.6577 
  186800    346.01159   -1899.6686    25.046284   -1874.6223 
  187000    374.23725   -1897.8287    27.089418   -1870.7393 
  187200    383.74732   -1901.1754    27.777811   -1873.3976 
  187400    345.39769   -1901.7801    25.001847   -1876.7782 
  187600    385.90933   -1899.8167     27.93431   -1871.8824 
  187800     375.0284   -1898.5118    27.146687   -1871.3651 
  188000    353.22015   -1900.7524    25.568081   -1875.1843 
  188200    381.38173     -1900.66    27.606576   -1873.0535 
  188400    364.26541   -1899.0069      26.3676   -1872.6393 
  188600    343.20344   -1898.2921    24.843015   -1873.4491 
  188800    378.62818   -1899.9432    27.407259   -1872.5359 
  189000    369.07971   -1899.9893    26.716086   -1873.2732 
  189200    364.58154   -1899.9682    26.390483   -1873.5777 
  189400    373.22275   -1899.6355    27.015983   -1872.6195 
  189600    374.91878    -1899.486    27.138751   -1872.3472 
  189800    356.03464   -1900.1928     25.77181    -1874.421 
  190000    363.18379   -1899.3458    26.289306   -1873.0565 
  190200    371.97933   -1898.7286    26.925977   -1871.8027 
  190400    375.74485   -1899.6982    27.198547   -1872.4997 
  190600    382.25927   -1899.4342    27.670098   -1871.7641 
  190800    373.55071   -1899.4885    27.039723   -1872.4488 
  191000     355.8699   -1899.0078    25.759885   -1873.2479 
  191200    382.87299   -1900.3672    27.714522   -1872.6527 
  191400    360.05638   -1898.5883    26.062926   -1872.5254 
  191600    382.21979   -1899.0564     27.66724   -1871.3891 
  191800     371.2466   -1901.0155    26.872938   -1874.1425 
  192000    361.76917   -1899.3704    26.186908   -1873.1835 
  192200    372.58061   -1897.2907    26.969502   -1870.3212 
  192400    354.63446   -1898.8547    25.670457   -1873.1842 
  192600    370.66047    -1900.223    26.830511   -1873.3925 
  192800    378.51279   -1899.8461    27.398906   -1872.4472 
  193000    361.17439   -1898.0448    26.143854    -1871.901 
  193200    358.44411   -1898.1121    25.946221   -1872.1659 
  193400    349.04733   -1899.7608    25.266029   -1874.4948 
  193600    364.67936   -1898.5705    26.397564    -1872.173 
  193800    394.33479   -1898.4853    28.544192   -1869.9411 
  194000    353.42359   -1899.3793    25.582808   -1873.7965 
  194200    370.95958    -1899.455    26.852162   -1872.6029 
  194400    407.52338   -1899.0276    29.498858   -1869.5288 
  194600    360.61422   -1899.1945    26.103306   -1873.0911 
  194800    354.34438   -1899.8082     25.64946   -1874.1588 
  195000    364.51925   -1898.6924    26.385974   -1872.3064 
  195200    361.01594    -1897.223    26.132385   -1871.0906 
  195400    376.63548   -1899.3447    27.263016   -1872.0817 
  195600    346.08193   -1900.4554    25.051376    -1875.404 
  195800    372.89129   -1899.2217     26.99199   -1872.2298 
  196000    374.28672   -1897.1388    27.092999   -1870.0458 
  196200    342.77713   -1899.9679    24.812156   -1875.1558 
  196400    372.01121   -1900.0409    26.928285   -1873.1126 
  196600    378.03457   -1898.6735     27.36429   -1871.3093 
  196800      346.488   -1900.3929     25.08077   -1875.3121 
  197000    361.54745   -1898.8782    26.170858   -1872.7073 
  197200    366.27909    -1897.586    26.513362   -1871.0726 
  197400    349.09624   -1899.1072    25.269569   -1873.8376 
  197600    368.64651   -1899.8959    26.684729   -1873.2111 
  197800    373.85429   -1898.6615    27.061697   -1871.5998 
  198000    348.76765   -1898.3203    25.245784   -1873.0745 
  198200    372.91142   -1898.9518    26.993447   -1871.9583 
  198400    374.89129   -1899.2212    27.136761   -1872.0845 
  198600    364.24846     -1900.48    26.366373   -1874.1136 
  198800    389.98897   -1900.2247    28.229617   -1871.9951 
  199000    362.22507   -1899.3596    26.219909   -1873.1397 
  199200    379.78492   -1900.1401     27.49099   -1872.6491 
  199400    364.92465   -1899.6527    26.415319   -1873.2374 
  199600    371.26792   -1900.8887    26.874481   -1874.0142 
  199800    396.09764   -1899.8575    28.671798   -1871.1857 
  200000    374.70486    -1900.512    27.123267   -1873.3888 
  200200    369.20618   -1900.3702    26.725241    -1873.645 
  200400      380.517   -1899.2494    27.543982   -1871.7054 
  200600      368.502   -1899.5947    26.674268   -1872.9205 
  200800    385.40654   -1900.4474    27.897915   -1872.5495 
  201000    369.30144   -1899.4443    26.732136   -1872.7122 
  201200    367.03697   -1899.3223    26.568221   -1872.7541 
  201400    367.99134   -1898.7289    26.637304   -1872.0915 
  201600    372.22116   -1899.5049    26.943482   -1872.5615 
  201800    357.66994    -1899.161    25.890182   -1873.2708 
  202000    354.82692   -1898.0365    25.684388   -1872.3521 
  202200    375.02504    -1899.385    27.146443   -1872.2385 
  202400    372.52057   -1900.4443    26.965155   -1873.4792 
  202600    373.49009   -1899.9489    27.035335   -1872.9136 
  202800    368.21971   -1899.5413    26.653835   -1872.8875 
  203000    377.56901   -1898.9797     27.33059   -1871.6491 
  203200    369.81186   -1900.1991    26.769083   -1873.4301 
  203400    358.75368   -1898.3328     25.96863   -1872.3642 
  203600    381.65634   -1898.8344    27.626454   -1871.2079 
  203800    360.08692   -1900.1711    26.065137   -1874.1059 
  204000    362.16075   -1899.2483    26.215253   -1873.0331 
  204200    368.72083   -1899.2951    26.690108    -1872.605 
  204400    369.50028   -1899.2189    26.746529   -1872.4723 
  204600    369.81036    -1900.434    26.768975    -1873.665 
  204800    363.08224   -1899.3027    26.281955   -1873.0207 
  205000    368.53151   -1897.8831    26.676405   -1871.2067 
  205200    370.57412   -1900.3242     26.82426   -1873.4999 
  205400    365.85854   -1900.0861     26.48292   -1873.6031 
  205600    380.40505   -1899.9865    27.535879   -1872.4506 
  205800    359.32197   -1898.8032    26.009766   -1872.7934 
  206000    387.40236    -1899.878    28.042384   -1871.8357 
  206200     324.2693   -1897.8845    23.472454    -1874.412 
  206400    372.84183   -1898.2125     26.98841   -1871.2241 
  206600    385.01933   -1899.1043    27.869886   -1871.2345 
  206800    369.32481   -1902.2711    26.733828   -1875.5373 
  207000    377.01292   -1899.3388    27.290337   -1872.0485 
  207200    387.22901   -1897.6841    28.029836   -1869.6542 
  207400    366.26951   -1900.0302    26.512668   -1873.5176 
  207600    367.52513   -1899.6408    26.603557   -1873.0372 
  207800    401.08522   -1899.5238    29.032827    -1870.491 
  208000    361.68495   -1897.9149    26.180811    -1871.734 
  208200    384.23464   -1899.2978    27.813086   -1871.4847 
  208400     361.4234   -1899.3974    26.161879   -1873.2356 
  208600     380.5929   -1898.2985    27.549476   -1870.7491 
  208800    380.10308   -1899.0466     27.51402   -1871.5326 
  209000    370.04835    -1900.812    26.786202   -1874.0258 
  209200    381.72899    -1898.891    27.631713   -1871.2593 
  209400    374.40199   -1898.8036    27.101343   -1871.7023 
  209600    349.64328    -1900.072    25.309167   -1874.7628 
  209800    363.26687   -1898.9455     26.29532   -1872.6502 
  210000    375.81914   -1897.2314    27.203925   -1870.0274 
  210200    362.00063   -1899.4907    26.203662    -1873.287 
  210400    361.60653   -1899.4676    26.175135   -1873.2924 
  210600    374.74617   -1897.8384    27.126257   -1870.7121 
  210800    400.75351    -1898.788    29.008816   -1869.7792 
  211000    353.31959   -1899.2052    25.575279   -1873.6299 
  211200    352.29677   -1899.6542    25.501242   -1874.1529 
  211400    390.94116   -1896.4113    28.298542   -1868.1127 
  211600    391.24682   -1900.6343    28.320668   -1872.3136 
  211800    348.59499   -1901.0253    25.233286   -1875.7921 
  212000     396.8121   -1899.6589    28.723514   -1870.9354 
  212200    375.69945   -1898.6622    27.195261    -1871.467 
  212400    363.33277   -1899.2378     26.30009   -1872.9378 
  212600    384.13186   -1899.0791    27.805646   -1871.2734 
  212800    346.75707    -1896.976    25.100247   -1871.8757 
  213000    355.37563   -1896.8085    25.724107   -1871.0844 
  213200    363.13416   -1898.8361    26.285713   -1872.5504 
  213400    370.10766   -1898.9858    26.790495   -1872.1953 
  213600    392.10154    -1898.326    28.382537   -1869.9435 
  213800    358.82012   -1899.4819    25.973439   -1873.5084 
  214000    365.66255   -1899.0736    26.468733   -1872.6049 
  214200    388.87026    -1898.573    28.148638   -1870.4243 
  214400    355.83169   -1898.9761    25.757119   -1873.2189 
  214600    393.86047   -1899.0415    28.509858   -1870.5316 
  214800    376.40862   -1900.2949    27.246594   -1873.0483 
  215000    361.00793   -1898.3662    26.131805   -1872.2344 
  215200    405.04674   -1899.2768    29.319584   -1869.9572 
  215400    345.65434   -1898.3124    25.020425    -1873.292 
  215600    376.88384   -1898.6508    27.280994   -1871.3698 
  215800    367.70878    -1898.515     26.61685   -1871.8981 
  216000    373.92511    -1898.604    27.066824   -1871.5371 
  216200    395.85799   -1899.8398     28.65445   -1871.1854 
  216400    350.65865   -1899.2602    25.382665   -1873.8775 
  216600    387.94284    -1898.045    28.081506   -1869.9635 
  216800    393.14141   -1898.4135    28.457808   -1869.9557 
  217000    351.30939   -1899.2714     25.42977   -1873.8417 
  217200    393.43976   -1899.2243    28.479405   -1870.7449 
  217400    367.21177   -1897.0431    26.580874   -1870.4622 
  217600    370.32756     -1899.14    26.806413   -1872.3336 
  217800    378.85906   -1899.1262    27.423971   -1871.7023 
  218000    370.84042   -1897.9301    26.843536   -1871.0866 
  218200    385.82038   -1899.9466    27.927871   -1872.0187 
  218400    377.00692    -1899.905    27.289903   -1872.6151 
  218600    357.90664   -1898.7194    25.907316   -1872.8121 
  218800    387.88566   -1898.4273    28.077368   -1870.3499 
  219000    369.10275   -1898.7604    26.717754   -1872.0427 
  219200    373.30677   -1900.2749    27.022065   -1873.2528 
  219400    391.54362    -1898.479    28.342152   -1870.1369 
  219600    391.62342   -1898.8021    28.347928   -1870.4542 
  219800     358.4651   -1899.3942     25.94774   -1873.4464 
  220000    368.96732   -1898.9861    26.707951   -1872.2781 
  220200    396.60906   -1898.4142    28.708817   -1869.7054 
  220400    387.26682   -1898.0148    28.032573   -1869.9822 
  220600     374.4634   -1900.1314    27.105788   -1873.0256 
  220800    371.72735   -1899.2053    26.907738   -1872.2976 
  221000    395.74987   -1897.4694    28.646624   -1868.8228 
  221200    375.59483    -1898.597    27.187688   -1871.4093 
  221400    364.00157   -1900.2113    26.348501   -1873.8628 
  221600    378.97794   -1897.8788    27.432577   -1870.4462 
  221800    399.34922   -1896.4773    28.907166   -1867.5701 
  222000    369.28426   -1899.2135    26.730893   -1872.4826 
  222200    367.42203   -1900.8558    26.596094   -1874.2597 
  222400    377.75092   -1897.5077    27.343758   -1870.1639 
  222600     384.3302   -1898.2358    27.820003   -1870.4158 
  222800    366.78507   -1899.7971    26.549987   -1873.2471 
  223000    391.27269   -1899.9857     28.32254   -1871.6631 
  223200    380.45875   -1897.4001    27.539766   -1869.8603 
  223400    372.15252   -1898.5449    26.938514   -1871.6064 
  223600    369.48053   -1900.3602      26.7451   -1873.6151 
  223800    388.40189   -1898.3565    28.114735   -1870.2418 
  224000    396.78986   -1898.5561    28.721904   -1869.8342 
  224200    361.97706   -1900.0911    26.201956   -1873.8891 
  224400    386.44533   -1898.8953    27.973108   -1870.9222 
  224600    398.05207    -1899.274     28.81327   -1870.4607 
  224800    372.81022   -1900.1098    26.986122   -1873.1237 
  225000    372.74162   -1898.2639    26.981156   -1871.2828 
  225200    378.70163   -1899.4205    27.412576    -1872.008 
  225400    370.84909    -1898.083    26.844164   -1871.2389 
  225600     379.5347   -1899.4187    27.472877   -1871.9458 
  225800    351.95598    -1897.952    25.476573   -1872.4754 
  226000    400.68491    -1899.512     29.00385   -1870.5082 
  226200    358.84661   -1898.3282    25.975356   -1872.3529 
  226400     366.3322   -1899.9552    26.517206   -1873.4379 
  226600    397.47673   -1898.2951    28.771624   -1869.5235 
  226800    382.97644   -1900.3063    27.722011   -1872.5843 
  227000    357.57382   -1899.8436    25.883224   -1873.9604 
  227200    399.75059   -1898.0549    28.936219   -1869.1187 
  227400    361.21562   -1897.7562    26.146839   -1871.6093 
  227600     369.3004   -1900.5346    26.732061   -1873.8026 
  227800    398.89463   -1898.3608     28.87426   -1869.4865 
  228000    373.36575   -1897.2645    27.026334   -1870.2382 
  228200    369.49785   -1900.0454    26.746353   -1873.2991 
  228400    389.67578    -1898.538    28.206947   -1870.3311 
  228600    389.87728   -1898.8534    28.221533   -1870.6319 
  228800    384.79278   -1899.7353    27.853487   -1871.8818 
  229000    387.02288   -1898.5242    28.014915   -1870.5093 
  229200    359.97224   -1899.0074    26.056836   -1872.9505 
  229400    400.82249   -1900.2904    29.013809   -1871.2766 
  229600    393.07396   -1898.8694    28.452926   -1870.4164 
  229800    377.22659    -1900.401    27.305804   -1873.0952 
  230000     381.2527   -1898.3282    27.597236    -1870.731 
  230200    397.04908   -1898.7761    28.740668   -1870.0355 
  230400    364.62663   -1899.1081    26.393747   -1872.7144 
  230600    375.39864   -1897.9114    27.173486   -1870.7379 
  230800    365.53161   -1897.9259    26.459255   -1871.4666 
  231000     389.8506   -1900.0708    28.219601   -1871.8512 
  231200    371.93026   -1896.9281    26.922426   -1870.0057 
  231400    372.20646   -1898.3499    26.942418   -1871.4074 
  231600    381.77486   -1899.2131    27.635033    -1871.578 
  231800    374.31382   -1897.1983    27.094961   -1870.1034 
  232000    374.40317   -1897.1296    27.101428   -1870.0282 
  232200    379.74418   -1898.8326    27.488041   -1871.3445 
  232400    387.88283   -1899.3169    28.077163   -1871.2398 
  232600     384.3667   -1899.9471    27.822645   -1872.1245 
  232800    392.91462   -1898.7204    28.441393    -1870.279 
  233000    383.85519   -1897.6513    27.785619   -1869.8657 
  233200    362.53709   -1897.9731    26.242494   -1871.7306 
  233400    376.22628   -1896.9597    27.233396   -1869.7263 
  233600    388.58212   -1898.4932    28.127781   -1870.3654 
  233800    367.68827   -1899.0274    26.615366    -1872.412 
  234000    385.70701   -1897.8127    27.919664   -1869.8931 
  234200     396.7613   -1897.2612    28.719837   -1868.5414 
  234400      373.516   -1900.6764     27.03721   -1873.6392 
  234600    371.85685     -1898.26    26.917112   -1871.3429 
  234800    400.97798   -1897.2386    29.025064   -1868.2135 
  235000    381.34674   -1899.0504    27.604044   -1871.4464 
  235200     390.5337   -1899.5942    28.269048   -1871.3252 
  235400     379.8251   -1896.5862    27.493898   -1869.0923 
  235600    378.04121   -1897.6445     27.36477   -1870.2798 
  235800    387.98232   -1898.4985    28.084365   -1870.4141 
  236000      362.451    -1898.492    26.236262   -1872.2557 
  236200    396.08974   -1898.5353    28.671225   -1869.8641 
  236400    400.98181   -1897.9187    29.025341   -1868.8934 
  236600      379.387     -1900.13    27.462187   -1872.6678 
  236800      386.309   -1897.7712     27.96324   -1869.8079 
  237000     394.6364    -1897.082    28.566025    -1868.516 
  237200    371.19406    -1899.967    26.869135   -1873.0979 
  237400    395.40407   -1898.6062    28.621593   -1869.9846 
  237600    375.61265   -1896.9044    27.188977   -1869.7154 
  237800    384.37722   -1899.0807    27.823407   -1871.2573 
  238000    382.69988   -1898.0277    27.701992   -1870.3257 
  238200    385.53074   -1898.9462    27.906905   -1871.0393 
  238400      380.923   -1897.9998    27.573371   -1870.4264 
  238600    383.13561   -1898.4708    27.733532   -1870.7373 
  238800    383.52273   -1899.3674    27.761554   -1871.6058 
  239000    394.45368     -1898.49    28.552798   -1869.9372 
  239200    385.69479   -1897.6037     27.91878   -1869.6849 
  239400      385.817   -1897.6359    27.927626   -1869.7083 
  239600    386.56387   -1899.4948    27.981689   -1871.5131 
  239800    372.13369   -1898.8741    26.937151   -1871.9369 
  240000    399.74192   -1898.9229    28.935591   -1869.9873 
  240200     396.9491   -1898.6746    28.733431   -1869.9412 
  240400     361.8917   -1897.6667    26.195777   -1871.4709 
  240600     378.2122   -1898.9904    27.377148   -1871.6132 
  240800    376.14743   -1897.7941    27.227688   -1870.5664 
  241000    398.00237   -1897.8587    28.809672    -1869.049 
  241200    382.76838   -1898.2392     27.70695   -1870.5322 
  241400    371.59362   -1899.8147    26.898058   -1872.9167 
  241600    387.04386   -1898.3557    28.016434   -1870.3393 
  241800     408.9378   -1898.6748    29.601241   -1869.0736 
  242000    399.24429   -1900.8163     28.89957   -1871.9167 
  242200    375.73072   -1899.1571    27.197524   -1871.9596 
  242400    385.27881   -1897.4566    27.888669   -1869.5679 
  242600    390.46142   -1897.5832    28.263816   -1869.3194 
  242800    365.11468   -1896.4475    26.429075   -1870.0184 
  243000    391.15937    -1897.915    28.314337   -1869.6007 
  243200    393.95824   -1899.9874    28.516936   -1871.4705 
  243400    380.54518   -1897.0805    27.546022   -1869.5345 
  243600    388.30138    -1896.718     28.10746   -1868.6105 
  243800    371.85752   -1899.2774     26.91716   -1872.3602 
  244000    370.99505   -1897.2177    26.854729    -1870.363 
  244200    386.86748   -1898.0683    28.003666   -1870.0646 
  244400    412.18245   -1898.4699    29.836107   -1868.6338 
  244600    378.83431    -1898.075     27.42218   -1870.6528 
  244800    372.09532   -1898.8239    26.934373   -1871.8895 
  245000    393.10176   -1896.7234    28.454939   -1868.2684 
  245200     398.4095   -1897.1079    28.839143   -1868.2688 
  245400    379.60667   -1899.1115    27.478087   -1871.6334 
  245600    377.19514   -1898.0851    27.303527   -1870.7815 
  245800     378.6918   -1894.8747    27.411864   -1867.4628 
  246000    387.86505   -1897.6922    28.075876   -1869.6164 
  246200    372.57161    -1898.305     26.96885   -1871.3361 
  246400    394.18003    -1898.918     28.53299    -1870.385 
  246600    394.93501   -1897.7905     28.58764   -1869.2028 
  246800    389.55831   -1898.2824    28.198443    -1870.084 
  247000    377.52846   -1898.9168    27.327655   -1871.5892 
  247200    419.23358   -1898.5766    30.346509   -1868.2301 
  247400    379.91897   -1897.8345    27.500693   -1870.3338 
  247600    382.77449   -1898.2259    27.707392   -1870.5185 
  247800    396.65356   -1898.2615    28.712038   -1869.5494 
  248000    385.27524   -1899.2805     27.88841   -1871.3921 
  248200    391.22917   -1898.3561     28.31939   -1870.0367 
  248400    385.31446   -1897.8072     27.89125    -1869.916 
  248600    368.88148    -1897.783    26.701738   -1871.0812 
  248800     390.4575   -1898.3342    28.263532   -1870.0707 
  249000    382.65214   -1897.0717    27.698536   -1869.3732 
  249200      404.709   -1899.3748    29.295137   -1870.0797 
  249400    383.79908   -1899.1356    27.781558    -1871.354 
  249600    389.71955   -1897.8044    28.210115   -1869.5943 
  249800    421.21143    -1898.253    30.489676   -1867.7633 
  250000    385.37022   -1900.6118    27.895286   -1872.7165 
  250200    397.65277   -1899.6736    28.784366   -1870.8892 
  250400     413.9342   -1896.8549    29.962909    -1866.892 
  250600    376.57957   -1898.4932    27.258969   -1871.2342 
  250800    405.46373   -1899.6948    29.349769    -1870.345 
  251000    417.73898    -1898.037     30.23832   -1867.7987 
  251200    369.83883    -1898.951    26.771036   -1872.1799 
  251400    405.16259   -1897.3761     29.32797   -1868.0482 
  251600    402.10627    -1898.338    29.106737   -1869.2312 
  251800    374.17963   -1899.1926    27.085247   -1872.1073 
  252000    409.89771   -1897.7143    29.670725   -1868.0435 
  252200    378.35663   -1898.5389    27.387602   -1871.1513 
  252400    378.07022    -1899.482     27.36687   -1872.1151 
  252600    432.42324   -1898.2934    31.301251   -1866.9922 
  252800    379.29731     -1898.55    27.455694   -1871.0943 
  253000    383.86687   -1897.9663    27.786465   -1870.1798 
  253200    407.03277   -1897.1287    29.463344   -1867.6654 
  253400    371.70651   -1898.3239    26.906229   -1871.4176 
  253600    390.20565   -1898.1013    28.245302    -1869.856 
  253800    386.83481   -1897.4609    28.001301   -1869.4596 
  254000    376.31976   -1897.0325    27.240162   -1869.7923 
  254200    383.67584   -1897.5498    27.772637   -1869.7772 
  254400    411.34551    -1898.949    29.775525   -1869.1734 
  254600    392.83831   -1898.7747    28.435869   -1870.3388 
  254800     382.7939   -1897.7215    27.708797   -1870.0127 
  255000    376.12559   -1896.0577    27.226107   -1868.8316 
  255200    395.29616   -1896.3692    28.613782   -1867.7554 
  255400    405.89973   -1898.8165    29.381328   -1869.4351 
  255600    376.86505   -1899.2343    27.279633   -1871.9547 
  255800    401.63883    -1896.224      29.0729   -1867.1511 
  256000    385.79778   -1896.9129    27.926235   -1868.9867 
  256200    377.69903    -1898.421    27.340002    -1871.081 
  256400    419.34192   -1898.1797    30.354351   -1867.8254 
  256600    371.33782   -1896.8962    26.879541   -1870.0167 
  256800    390.32142    -1898.303    28.253682   -1870.0494 
  257000    394.31318   -1897.9815    28.542628   -1869.4389 
  257200    386.03622   -1896.8115    27.943494    -1868.868 
  257400    394.62097   -1897.9146    28.564908   -1869.3497 
  257600    385.54791   -1898.5366    27.908148   -1870.6284 
  257800    388.82084   -1896.2727    28.145061   -1868.1277 
  258000    403.87874   -1898.1986    29.235038   -1868.9635 
  258200    388.38435   -1899.8344    28.113466   -1871.7209 
  258400    399.07485   -1897.5087    28.887305   -1868.6214 
  258600    391.60334   -1896.6151    28.346475   -1868.2687 
  258800    381.26017   -1898.8768    27.597777    -1871.279 
  259000    390.53315   -1898.5743    28.269008   -1870.3053 
  259200     396.4272    -1896.128    28.695653   -1867.4324 
  259400    373.44645   -1895.8914    27.032176   -1868.8593 
  259600    394.11725   -1898.9843    28.528445   -1870.4558 
  259800     365.1682   -1897.4774    26.432949   -1871.0444 
  260000    391.43135   -1895.4035    28.334025   -1867.0695 
  260200    410.50494    -1896.735     29.71468   -1867.0203 
  260400    360.90579   -1898.8777    26.124412   -1872.7533 
  260600    395.37348   -1898.2608    28.619379   -1869.6414 
  260800       428.41   -1897.9799     31.01075   -1866.9691 
  261000    369.15575    -1898.428     26.72159   -1871.7064 
  261200     394.6967   -1897.7677     28.57039   -1869.1973 
  261400    392.08494    -1895.408    28.381336   -1867.0267 
  261600    396.52237   -1898.9192    28.702542   -1870.2166 
  261800    404.52268   -1900.0768     29.28165   -1870.7952 
  262000    409.84172   -1896.3218    29.666672   -1866.6552 
  262200    389.46194   -1897.3615    28.191468   -1869.1701 
  262400    359.50588   -1898.3988    26.023078   -1872.3757 
  262600    413.28285   -1897.1383     29.91576   -1867.2225 
  262800    380.80479   -1896.5326    27.564814   -1868.9678 
  263000    375.30709   -1898.3325    27.166859   -1871.1656 
  263200    400.37498   -1897.9382    28.981416   -1868.9568 
  263400    379.81125   -1896.4509    27.492896    -1868.958 
  263600    421.43169   -1898.1912     30.50562   -1867.6856 
  263800    379.28273   -1898.1969    27.454639   -1870.7423 
  264000    407.03146   -1898.5375     29.46325   -1869.0743 
  264200    401.08859    -1896.933    29.033071   -1867.8999 
  264400    385.41048   -1898.7587      27.8982   -1870.8605 
  264600    396.58352   -1897.4229    28.706968   -1868.7159 
  264800    405.31811   -1896.6316    29.339227   -1867.2924 
  265000    389.78896   -1899.4321    28.215139   -1871.2169 
  265200    394.99971   -1898.9131    28.592323   -1870.3208 
  265400    404.47085   -1896.2905    29.277898   -1867.0126 
  265600    397.91245    -1897.898    28.803164   -1869.0949 
  265800    369.12007   -1897.2869    26.719008   -1870.5679 
  266000    390.95458    -1897.845    28.299513   -1869.5455 
  266200    410.08088   -1897.3223    29.683984   -1867.6383 
  266400    395.53715    -1895.465    28.631226   -1866.8338 
  266600    355.10418   -1897.8228    25.704458   -1872.1184 
  266800    388.64273   -1895.7164    28.132169   -1867.5842 
  267000     422.8316   -1895.1708    30.606953   -1864.5638 
  267200    364.13741   -1898.6979    26.358334   -1872.3396 
  267400    379.79535   -1898.1533    27.491745   -1870.6615 
  267600    420.19935   -1895.9677    30.416416   -1865.5513 
  267800    377.43953   -1896.7821    27.321217   -1869.4609 
  268000    378.84614   -1896.7958    27.423036   -1869.3728 
  268200    390.49055   -1896.6651    28.265924   -1868.3991 
  268400    391.37243   -1898.3959     28.32976   -1870.0661 
  268600    415.77538   -1897.5161    30.096184   -1867.4199 
  268800    399.09583   -1898.4429    28.888824   -1869.5541 
  269000    389.12775   -1898.8338    28.167277   -1870.6665 
  269200    404.60037   -1897.7896    29.287274   -1868.5023 
  269400    391.79309    -1897.386     28.36021   -1869.0258 
  269600    422.95359   -1899.2054    30.615784   -1868.5896 
  269800    397.89422   -1898.7927    28.801844   -1869.9908 
  270000    387.72124   -1898.2015    28.065466   -1870.1361 
  270200    403.24866   -1894.8902    29.189429   -1865.7007 
  270400     401.4743   -1898.2614    29.060991   -1869.2004 
  270600    367.91031   -1897.7967    26.631438   -1871.1653 
  270800    417.70548   -1895.7903    30.235896   -1865.5544 
  271000    401.83585   -1896.8429    29.087161   -1867.7557 
  271200    389.20715   -1899.0194    28.173025   -1870.8464 
  271400    387.79174   -1897.3528    28.070569   -1869.2823 
  271600    407.52245   -1896.7903     29.49879   -1867.2915 
  271800    407.23637   -1897.7172    29.478082   -1868.2392 
  272000    387.91445   -1898.5046    28.079451   -1870.4252 
  272200    406.58769   -1897.5719    29.431127   -1868.1408 
  272400    401.91315   -1896.4297    29.092757   -1867.3369 
  272600    384.05081   -1897.8804    27.799779   -1870.0806 
  272800    408.29586   -1898.6958    29.554774   -1869.1411 
  273000    376.56165   -1896.9355    27.257671   -1869.6779 
  273200    407.89298   -1897.0514    29.525611   -1867.5258 
  273400    399.45536    -1897.594    28.914848   -1868.6791 
  273600    392.25243   -1898.8972    28.393459   -1870.5038 
  273800    394.72953   -1897.5234    28.572766   -1868.9507 
  274000    387.67881   -1895.9558    28.062395   -1867.8934 
  274200    405.86144   -1897.9966    29.378557   -1868.6181 
  274400    387.60069   -1897.1473     28.05674   -1869.0905 
  274600    412.75163   -1897.2557    29.877308   -1867.3784 
  274800    411.53674   -1899.0675    29.789367   -1869.2781 
  275000    394.75636   -1897.7239    28.574708   -1869.1492 
  275200    403.93142   -1896.9856    29.238851   -1867.7468 
  275400    406.97203   -1897.9657    29.458948   -1868.5067 
  275600    390.79758   -1897.1972    28.288149    -1868.909 
  275800    409.59801   -1896.0057    29.649031   -1866.3567 
  276000    391.44714   -1896.7619    28.335168   -1868.4267 
  276200    395.17367   -1898.1307    28.604915   -1869.5258 
  276400    413.79338     -1896.87    29.952716   -1866.9172 
  276600    410.05711   -1897.3335    29.682263   -1867.6513 
  276800    404.21257   -1897.6774    29.259202   -1868.4182 
  277000    402.60604   -1896.3905    29.142913   -1867.2476 
  277200    401.97775   -1895.1689    29.097433   -1866.0715 
  277400    386.17456   -1896.2456    27.953509    -1868.292 
  277600    374.23705   -1897.5957    27.089404   -1870.5063 
  277800    410.10999   -1895.6044    29.686091   -1865.9183 
  278000    414.07972    -1895.694    29.973443   -1865.7206 
  278200    362.00314   -1896.4154    26.203844   -1870.2115 
  278400    410.45938   -1898.6713    29.711382   -1868.9599 
  278600    378.04904   -1894.6303    27.365337    -1867.265 
  278800    417.61353   -1895.6679     30.22924   -1865.4386 
  279000    382.17556    -1898.898    27.664039   -1871.2339 
  279200    397.21598   -1898.0105     28.75275   -1869.2578 
  279400    421.92236    -1895.453    30.541138   -1864.9119 
  279600    403.59865   -1897.0583    29.214763   -1867.8436 
  279800    402.55489   -1899.8055     29.13921   -1870.6662 
  280000    400.94842    -1896.556    29.022925    -1867.533 
  280200    399.16919   -1894.4086    28.894134   -1865.5144 
  280400    391.36482    -1897.585    28.329209   -1869.2558 
  280600    379.81112   -1896.6858    27.492886   -1869.1929 
  280800    407.16111   -1897.1414    29.472634   -1867.6687 
  281000    402.40271    -1898.041    29.128194   -1868.9128 
  281200    397.03939   -1896.3503    28.739967   -1867.6103 
  281400    391.14717   -1896.4719    28.313454   -1868.1585 
  281600    402.51799   -1898.0634    29.136539   -1868.9268 
  281800    423.04712   -1898.0545    30.622554   -1867.4319 
  282000    388.48993   -1898.4236    28.121108   -1870.3025 
  282200    398.60035   -1896.7762    28.852958   -1867.9232 
  282400    429.95632   -1895.6601    31.122681   -1864.5374 
  282600    384.40685   -1898.4151    27.825552   -1870.5895 
  282800    397.55579   -1898.8532    28.777346   -1870.0759 
  283000    413.57491   -1895.0561    29.936901   -1865.1192 
  283200    389.31379     -1897.38    28.180744   -1869.1992 
  283400    399.38349   -1899.4424    28.909646   -1870.5328 
  283600    396.51841   -1895.6727    28.702255   -1866.9705 
  283800    387.21307   -1896.2247    28.028682   -1868.1961 
  284000    378.91098   -1895.8607    27.427729   -1868.4329 
  284200    396.81453   -1895.5198     28.72369   -1866.7961 
  284400    410.57115   -1898.3981    29.719473   -1868.6786 
  284600    396.55454   -1896.3894    28.704871   -1867.6845 
  284800    412.23477   -1895.6103    29.839895   -1865.7704 
  285000     414.8753   -1897.4592    30.031031   -1867.4281 
  285200    381.94777    -1897.308     27.64755   -1869.6605 
  285400    403.61169   -1897.7737    29.215707    -1868.558 
  285600    409.98388    -1895.788    29.676963    -1866.111 
  285800    402.65322   -1895.4974    29.146328   -1866.3511 
  286000    396.73614   -1897.8998    28.718016   -1869.1818 
  286200    380.76712    -1897.192    27.562087   -1869.6299 
  286400    399.64482   -1892.6193    28.928562   -1863.6907 
  286600    395.95801   -1895.8285     28.66169   -1867.1668 
  286800    366.25841   -1898.8889    26.511865   -1872.3771 
  287000    435.21305   -1896.6352    31.503193    -1865.132 
  287200    411.38391   -1896.2223    29.778305    -1866.444 
  287400    390.99542   -1898.1262     28.30247   -1869.8237 
  287600    415.45744   -1896.5799     30.07317   -1866.5067 
  287800    394.36576   -1896.5087    28.546434   -1867.9623 
  288000    399.09824   -1896.1448    28.888998   -1867.2558 
  288200    435.85583   -1897.0135    31.549721   -1865.4638 
  288400     371.5925   -1896.8628    26.897976   -1869.9648 
  288600    407.12652   -1896.5883    29.470131   -1867.1182 
  288800    430.64518   -1895.3255    31.172545    -1864.153 
  289000    367.26289   -1897.2818    26.584575   -1870.6972 
  289200    390.05829   -1896.0248    28.234635   -1867.7901 
  289400     406.2137   -1894.4278    29.404056   -1865.0237 
  289600    392.14063   -1896.9306    28.385366   -1868.5452 
  289800    407.98974    -1896.528    29.532615   -1866.9953 
  290000    399.12496   -1896.2017    28.890932   -1867.3108 
  290200    401.60246   -1897.2192    29.070267   -1868.1489 
  290400    421.95536   -1897.2394    30.543526   -1866.6959 
  290600    402.36604   -1896.8511     29.12554   -1867.7255 
  290800    410.61455    -1897.025    29.722614   -1867.3024 
  291000     389.9693   -1894.8933    28.228194   -1866.6651 
  291200    407.05005   -1897.5706    29.464595    -1868.106 
  291400    407.60646   -1898.0388    29.504871   -1868.5339 
  291600    403.49899   -1894.7785    29.207549   -1865.5709 
  291800    420.79609   -1897.3603    30.459612   -1866.9007 
  292000    385.70604   -1897.0248    27.919595   -1869.1052 
  292200     392.6402   -1896.2275    28.421528    -1867.806 
  292400    429.85743   -1896.7175    31.115523   -1865.6019 
  292600    413.09872   -1897.1908    29.902433   -1867.2884 
  292800    414.95984   -1899.2808    30.037151   -1869.2437 
  293000    396.46946   -1897.5458    28.698712   -1868.8471 
  293200    409.05709   -1895.7794    29.609876   -1866.1695 
  293400    414.31159   -1895.9483    29.990227   -1865.9581 
  293600    371.54988   -1896.9185    26.894891   -1870.0236 
  293800    394.60806   -1895.0631    28.563973   -1866.4991 
  294000    430.61581   -1893.8612    31.170418   -1862.6908 
  294200    387.74186   -1897.1382    28.066958   -1869.0713 
  294400    408.94236   -1897.6173    29.601571   -1868.0157 
  294600     404.9012   -1894.4748    29.309049   -1865.1657 
  294800    410.00408   -1896.5364    29.678425    -1866.858 
  295000    391.41296   -1896.0897    28.332694    -1867.757 
  295200    388.75089   -1895.7306    28.139998   -1867.5906 
  295400    396.84497   -1895.1184    28.725893   -1866.3925 
  295600    406.11051   -1896.7002    29.396586   -1867.3036 
  295800    367.44771   -1896.4719    26.597953   -1869.8739 
  296000    429.51523   -1897.5582    31.090752   -1866.4675 
  296200    387.93775   -1895.5346    28.081138   -1867.4534 
  296400    400.71957   -1896.8604    29.006359    -1867.854 
  296600    404.78042    -1896.548    29.300307   -1867.2477 
  296800    405.51233   -1895.9323    29.353287    -1866.579 
  297000     416.8196    -1895.698     30.17177   -1865.5262 
  297200    410.15306   -1897.3786    29.689209   -1867.6894 
  297400    398.18545   -1897.9852    28.822925   -1869.1623 
  297600    421.07824   -1895.5844    30.480035   -1865.1044 
  297800    404.44296   -1894.7061    29.275879   -1865.4302 
  298000    385.39644   -1898.4112    27.897184    -1870.514 
  298200    399.58017     -1896.36    28.923883   -1867.4362 
  298400    412.94349   -1894.8567    29.891195   -1864.9655 
  298600    385.69333   -1896.9678    27.918674   -1869.0491 
  298800    396.91139   -1897.5874    28.730702   -1868.8567 
  299000    409.18423   -1896.2305    29.619079   -1866.6115 
  299200    414.91466   -1896.1801     30.03388   -1866.1462 
  299400    401.91771   -1897.6349    29.093088   -1868.5418 
  299600    405.46385    -1896.319    29.349777   -1866.9692 
  299800    405.25533   -1895.8996    29.334683   -1866.5649 
  300000    403.58875   -1896.7812    29.214047   -1867.5672 
  300200    392.99311   -1897.0727    28.447074   -1868.6256 
  300400    409.89615   -1896.2672    29.670612   -1866.5966 
  300600    418.54775   -1895.7185    30.296864   -1865.4216 
  300800    408.16511    -1897.778    29.545309   -1868.2327 
  301000    397.93012   -1898.0207    28.804443   -1869.2163 
  301200    418.90882   -1897.8587       30.323   -1867.5357 
  301400    418.85565   -1897.1877    30.319151   -1866.8686 
  301600    403.93785   -1896.5707    29.239317   -1867.3313 
  301800    398.34553   -1897.3816    28.834513   -1868.5471 
  302000    396.69249   -1896.3932    28.714856   -1867.6783 
  302200    423.86848   -1895.6971    30.682008   -1865.0151 
  302400    393.49007   -1896.7165    28.483046   -1868.2334 
  302600    395.61796   -1897.2148    28.637076   -1868.5777 
  302800    427.78401   -1897.7455    30.965437   -1866.7801 
  303000    411.25508   -1897.5436    29.768979   -1867.7746 
  303200    409.01377   -1897.2756    29.606741   -1867.6689 
  303400    391.74051   -1895.2701    28.356404   -1866.9137 
  303600    420.44176   -1896.7795    30.433963   -1866.3455 
  303800    412.12895   -1897.3388    29.832235   -1867.5066 
  304000    403.21582   -1895.9207    29.187052   -1866.7336 
  304200    390.96916   -1895.3267    28.300569   -1867.0261 
  304400    417.39478    -1897.693    30.213405   -1867.4796 
  304600    429.69068   -1897.4053    31.103453   -1866.3019 
  304800    410.25978   -1897.5954    29.696934   -1867.8985 
  305000    413.59907   -1896.9855    29.938651   -1867.0468 
  305200    411.43413   -1896.2547    29.781939   -1866.4728 
  305400    401.18595   -1898.1721    29.040118    -1869.132 
  305600    400.27234   -1896.7521    28.973986   -1867.7781 
  305800    417.46679   -1895.6137    30.218618    -1865.395 
  306000     396.4003   -1897.2821    28.693706   -1868.5884 
  306200    388.34833   -1897.0123    28.110859   -1868.9014 
  306400    414.82791   -1894.9371    30.027601   -1864.9095 
  306600     404.4254   -1895.3917    29.274608   -1866.1171 
  306800     374.3677   -1897.6369    27.098861    -1870.538 
  307000    394.90889   -1895.4093    28.585749   -1866.8236 
  307200    421.57122   -1894.5068     30.51572   -1863.9911 
  307400     385.8922   -1896.0543     27.93307   -1868.1212 
  307600    404.64401   -1897.4858    29.290433   -1868.1953 
  307800    415.01635   -1895.0651    30.041241   -1865.0238 
  308000    396.99207   -1897.1728    28.736541   -1868.4362 
  308200    398.92612   -1896.9949    28.876539   -1868.1183 
  308400    416.40559   -1895.4517    30.141802   -1865.3099 
  308600    398.89134    -1897.269    28.874021    -1868.395 
  308800    402.71948   -1895.4665    29.151124   -1866.3154 
  309000    435.35452   -1896.5041    31.513434   -1864.9907 
  309200    387.63572    -1895.481    28.059275   -1867.4217 
  309400     406.9408    -1897.011    29.456687   -1867.5543 
  309600    402.45168   -1896.3031    29.131739   -1867.1714 
  309800    410.82421   -1895.6567    29.737791   -1865.9189 
  310000    405.40977   -1895.4309    29.345862    -1866.085 
  310200    414.16172   -1896.0285    29.979378   -1866.0491 
  310400    413.00337   -1897.8771     29.89553   -1867.9816 
  310600    419.42005   -1899.1082    30.360006   -1868.7482 
  310800    425.54283    -1896.433    30.803208   -1865.6298 
  311000    422.67523    -1896.747    30.595634   -1866.1514 
  311200     409.4309   -1896.5077    29.636934   -1866.8707 
  311400    432.88933   -1897.0325    31.334989   -1865.6975 
  311600    414.26922   -1898.3669     29.98716   -1868.3797 
  311800    445.51348    -1898.482    32.248796   -1866.2332 
  312000    436.03822     -1897.17    31.562923   -1865.6071 
  312200    423.42496   -1897.6268    30.649904   -1866.9769 
  312400    412.68037   -1895.6225     29.87215   -1865.7504 
  312600    431.82543   -1898.9912    31.257978   -1867.7332 
  312800    395.05508   -1896.6767    28.596331   -1868.0803 
  313000    428.15531    -1895.627    30.992313   -1864.6347 
  313200    442.94331   -1897.9181    32.062753   -1865.8553 
  313400    377.85845    -1896.096    27.351541   -1868.7445 
  313600    402.55167   -1895.3204    29.138977   -1866.1814 
  313800     430.0625    -1895.824    31.130367   -1864.6936 
  314000    396.73498   -1896.6008    28.717932   -1867.8829 
  314200    411.32421   -1897.1211    29.773983   -1867.3471 
  314400    426.02359   -1895.6961    30.838008   -1864.8581 
  314600    405.98974   -1894.3893    29.387844   -1865.0015 
  314800    410.21933   -1896.8696    29.694006   -1867.1756 
  315000    413.67287   -1896.3014    29.943992   -1866.3574 
  315200    403.92673   -1894.2976    29.238511   -1865.0591 
  315400    423.89468   -1896.8263    30.683905   -1866.1424 
  315600    418.05576   -1897.4392    30.261251    -1867.178 
  315800    423.99754    -1895.361    30.691351   -1864.6697 
  316000    397.43968   -1895.1139    28.768942   -1866.3449 
  316200    406.57493     -1897.56    29.430204   -1868.1298 
  316400    417.73525   -1895.2917     30.23805   -1865.0537 
  316600    423.61989   -1896.0139    30.664014   -1865.3499 
  316800    415.46044   -1897.5951    30.073387   -1867.5218 
  317000    419.92297   -1895.6528     30.39641   -1865.2564 
  317200    418.47144   -1895.9192     30.29134   -1865.6279 
  317400     400.7137   -1896.4962    29.005934   -1867.4903 
  317600    397.53056   -1895.0273    28.775521   -1866.2518 
  317800    423.09818    -1894.893     30.62625   -1864.2667 
  318000    418.96094   -1896.3471    30.326773   -1866.0203 
  318200    390.96062   -1897.3403    28.299951   -1869.0404 
  318400    422.66228   -1895.2754    30.594697   -1864.6807 
  318600    421.94425   -1894.6833    30.542722   -1864.1406 
  318800    408.78646   -1897.9563    29.590287    -1868.366 
  319000    395.97528   -1896.3732     28.66294   -1867.7102 
  319200    454.19043   -1896.2791    32.876884   -1863.4022 
  319400    418.17055   -1896.3322     30.26956   -1866.0626 
  319600     377.3968   -1896.7267    27.318124   -1869.4085 
  319800     418.0363   -1895.1023    30.259843   -1864.8424 
  320000    420.60187   -1894.7239    30.445553   -1864.2784 
  320200    390.57896   -1896.6302    28.272324   -1868.3579 
  320400    408.83775   -1895.0261    29.593999   -1865.4321 
  320600    439.89652   -1896.9806    31.842209   -1865.1384 
  320800     400.9577   -1896.6865    29.023597   -1867.6629 
  321000     419.2898    -1896.638    30.350578   -1866.2874 
  321200    426.97871   -1896.8325    30.907145   -1865.9253 
  321400    397.83869   -1895.6255    28.797825   -1866.8277 
  321600    407.67524   -1895.3417     29.50985   -1865.8318 
  321800    397.37351   -1895.6193    28.764153   -1866.8551 
  322000    395.20036   -1895.2507    28.606848   -1866.6438 
  322200    424.44274   -1894.9205    30.723577    -1864.197 
  322400    415.72904   -1897.4879     30.09283   -1867.3951 
  322600    412.64666   -1895.9829     29.86971   -1866.1132 
  322800    432.46713    -1896.364    31.304428   -1865.0596 
  323000    411.42953   -1897.7414    29.781607   -1867.9598 
  323200    406.12704   -1896.2918    29.397783    -1866.894 
  323400    417.31862   -1894.5241    30.207892   -1864.3162 
  323600    431.56073   -1896.3287    31.238817   -1865.0898 
  323800    414.08716   -1898.2524    29.973981   -1868.2784 
  324000    404.77374   -1895.9301    29.299823   -1866.6303 
  324200    428.94212   -1893.8701    31.049267   -1862.8208 
  324400    381.65863   -1895.6543     27.62662   -1868.0277 
  324600    403.77159    -1897.596    29.227281   -1868.3688 
  324800    415.80568   -1895.0136    30.098378   -1864.9152 
  325000    411.09021   -1896.1528    29.757045   -1866.3957 
  325200    417.20641   -1896.3385     30.19977   -1866.1387 
  325400    424.36706   -1895.5639    30.718099   -1864.8458 
  325600    396.84848   -1897.1028    28.726148   -1868.3767 
  325800    436.22424    -1895.797    31.576389   -1864.2206 
  326000    399.40009   -1894.8829    28.910847   -1865.9721 
  326200    400.74818   -1896.7493     29.00843   -1867.7409 
  326400    427.72406   -1895.8344    30.961097   -1864.8733 
  326600     394.2513   -1895.6517    28.538149   -1867.1135 
  326800    415.71247   -1895.6604    30.091631   -1865.5688 
  327000    423.95453   -1895.2499    30.688237   -1864.5616 
  327200    399.74794   -1895.7171    28.936027    -1866.781 
  327400    426.07872   -1895.8279    30.841998   -1864.9859 
  327600    415.25427   -1894.9866    30.058463   -1864.9282 
  327800    425.13513   -1898.0386    30.773696   -1867.2649 
  328000    402.51803   -1896.1526    29.136542    -1867.016 
  328200    430.41163    -1893.969    31.155639   -1862.8133 
  328400    425.93635   -1895.2081    30.831693   -1864.3764 
  328600    400.94954   -1897.4647    29.023005   -1868.4417 
  328800    417.94944   -1896.7406    30.253555    -1866.487 
  329000    415.94146   -1893.7872    30.108206    -1863.679 
  329200    430.96442   -1896.6675    31.195653   -1865.4718 
  329400     406.8821   -1897.4953    29.452438   -1868.0429 
  329600    417.09814   -1896.3466    30.191933   -1866.1547 
  329800    428.71824   -1894.8626    31.033062   -1863.8295 
  330000    423.69397   -1896.9476    30.669377   -1866.2783 
  330200    423.35597   -1895.8681     30.64491   -1865.2231 
  330400    412.26073   -1894.2598    29.841774   -1864.4181 
  330600    420.11774   -1896.7226    30.410509   -1866.3121 
  330800    410.80745   -1895.1774    29.736577   -1865.4408 
  331000    444.16196   -1897.9431    32.150966   -1865.7921 
  331200    407.97389   -1896.3268    29.531468   -1866.7954 
  331400    423.36284    -1895.848    30.645407   -1865.2026 
  331600    434.53329   -1896.6727    31.453988   -1865.2187 
  331800    396.63136   -1895.8698    28.710431   -1867.1593 
  332000    397.85526   -1895.5939    28.799024   -1866.7948 
  332200     392.0402   -1893.3064    28.378097   -1864.9283 
  332400    397.88593   -1893.5154    28.801244   -1864.7141 
  332600    394.55046   -1894.5649    28.559804   -1866.0051 
  332800    437.22813   -1896.4476    31.649056   -1864.7986 
  333000    413.41602   -1895.2228      29.9254   -1865.2974 
  333200    438.67048   -1897.8998    31.753461   -1866.1463 
  333400    418.50993   -1897.0753    30.294126   -1866.7812 
  333600    423.61076   -1893.5473    30.663354   -1862.8839 
  333800    428.38584   -1895.7382    31.009001   -1864.7292 
  334000    398.75766   -1896.6261    28.864345   -1867.7617 
  334200    435.46972   -1894.1829    31.521772   -1862.6611 
  334400    427.31096   -1894.5011    30.931195   -1863.5699 
  334600    415.07572   -1895.4795    30.045538    -1865.434 
  334800    418.57529   -1895.1012    30.298858   -1864.8023 
  335000    411.91396   -1893.0352    29.816673   -1863.2185 
  335200     407.5969   -1893.4139    29.504179   -1863.9097 
  335400    396.83617   -1896.1431    28.725256   -1867.4179 
  335600     428.2737   -1896.1572    31.000884   -1865.1563 
  335800    419.49985   -1893.3064    30.365782   -1862.9407 
  336000    412.71344   -1894.3941    29.874543   -1864.5196 
  336200     405.4862   -1896.5233    29.351395    -1867.172 
  336400     414.2245   -1894.9586    29.983922   -1864.9747 
  336600    420.45014   -1893.6542     30.43457   -1863.2196 
  336800    408.15332   -1894.9453    29.544456   -1865.4008 
  337000    407.85337   -1894.1434    29.522744   -1864.6206 
  337200    404.51647   -1894.1458    29.281201   -1864.8646 
  337400    406.36207   -1895.6415    29.414795   -1866.2267 
  337600    422.81004   -1893.4662    30.605393   -1862.8608 
  337800    408.95121   -1893.9693    29.602212   -1864.3671 
  338000     429.5917   -1896.8861    31.096288   -1865.7898 
  338200    418.97462   -1895.9851    30.327763   -1865.6573 
  338400    414.86641   -1895.4617    30.030388   -1865.4313 
  338600    433.56621   -1894.3103    31.383985   -1862.9263 
  338800    426.86539   -1895.0654    30.898942   -1864.1664 
  339000     383.3038   -1894.0528    27.745707   -1866.3071 
  339200    427.73203    -1893.496    30.961674   -1862.5343 
  339400    422.89493    -1893.332    30.611538   -1862.7205 
  339600    402.69989   -1895.6591    29.149706   -1866.5094 
  339800    427.99426    -1895.437    30.980656   -1864.4563 
  340000    417.99501   -1894.0643    30.256854   -1863.8075 
  340200    415.68895   -1893.8849    30.089927    -1863.795 
  340400    435.05006   -1894.5728    31.491395   -1863.0814 
  340600    409.10831   -1895.3757    29.613583   -1865.7621 
  340800     422.7389   -1895.5576    30.600244   -1864.9574 
  341000    435.23157   -1894.4142    31.504534   -1862.9096 
  341200    407.23798   -1893.7003    29.478199   -1864.2221 
  341400     425.7326   -1895.0076    30.816944   -1864.1906 
  341600    425.38618   -1894.0364    30.791868   -1863.2445 
  341800    406.99785   -1893.9239    29.460817   -1864.4631 
  342000    405.88463   -1894.0972    29.380236   -1864.7169 
  342200    435.99082   -1892.8341    31.559492   -1861.2746 
  342400     426.4143   -1894.7233     30.86629    -1863.857 
  342600    382.04099   -1894.9431    27.654298   -1867.2888 
  342800    456.07139   -1894.9154    33.013039   -1861.9023 
  343000    422.02725   -1894.1577     30.54873   -1863.6089 
  343200    402.15403   -1895.2882    29.110193    -1866.178 
  343400    417.51569   -1892.3191    30.222158   -1862.0969 
  343600    415.91694   -1894.4458    30.106431   -1864.3393 
  343800    419.10808   -1895.4588    30.337424   -1865.1214 
  344000    455.78389   -1894.0154    32.992228   -1861.0231 
  344200    394.59287   -1895.1971    28.562874   -1866.6342 
  344400    426.70549   -1895.8283    30.887367   -1864.9409 
  344600    424.92146   -1893.1624    30.758229   -1862.4042 
  344800    429.02591   -1894.9715    31.055333   -1863.9162 
  345000    412.59715    -1894.173    29.866126   -1864.3069 
  345200    418.03005    -1894.222     30.25939   -1863.9627 
  345400    444.68866   -1894.8868    32.189091   -1862.6977 
  345600    418.52113   -1895.8044    30.294937   -1865.5094 
  345800    411.44385   -1895.0655    29.782643   -1865.2829 
  346000    427.01181    -1892.819     30.90954   -1861.9094 
  346200    403.18524   -1894.0848    29.184838      -1864.9 
  346400    416.55729   -1895.4464    30.152783   -1865.2936 
  346600    425.00266   -1893.4367    30.764107   -1862.6726 
  346800    408.00435   -1892.5948    29.533673   -1863.0612 
  347000     413.6264   -1894.7303    29.940628   -1864.7897 
  347200    401.55338   -1893.6737    29.066715    -1864.607 
  347400    428.64443   -1892.9883    31.027719   -1861.9606 
  347600    415.92943   -1894.2795    30.107335   -1864.1722 
  347800    420.01043   -1895.2538    30.402741   -1864.8511 
  348000    404.37775   -1892.9896    29.271159   -1863.7184 
  348200    429.79472   -1893.3286    31.110983   -1862.2176 
  348400    439.04758   -1894.6887    31.780758    -1862.908 
  348600    404.49107   -1894.8723    29.279361   -1865.5929 
  348800    406.88346   -1892.4902    29.452536   -1863.0376 
  349000    437.69207   -1892.9859    31.682638   -1861.3032 
  349200    400.94121     -1894.87    29.022402   -1865.8476 
  349400    420.27397   -1894.1688    30.421818   -1863.7469 
  349600    430.63208   -1894.3044    31.171596   -1863.1328 
  349800    412.69987   -1894.4364    29.873561   -1864.5628 
  350000    439.06749   -1892.3887      31.7822   -1860.6065 
  350200    425.84621   -1893.0989    30.825168   -1862.2737 
  350400    404.05309   -1895.5007    29.247658    -1866.253 
  350600    419.16005   -1893.1789    30.341186   -1862.8377 
  350800    421.65003   -1892.5518    30.521425   -1862.0304 
  351000      423.172   -1893.8024    30.631593   -1863.1708 
  351200    439.98967   -1894.9274    31.848952   -1863.0785 
  351400    418.16599   -1895.8281     30.26923   -1865.5589 
  351600    414.88014   -1892.7927    30.031381   -1862.7613 
  351800    439.11182   -1892.3359    31.785408   -1860.5505 
  352000    398.88018   -1894.7018    28.873213   -1865.8286 
  352200    428.73664    -1894.254    31.034394   -1863.2196 
  352400    440.03843   -1893.4122    31.852481   -1861.5597 
  352600    384.19945   -1892.4246    27.810539   -1864.6141 
  352800    435.09167   -1893.3152    31.494407   -1861.8207 
  353000    413.70313   -1894.2033    29.946183   -1864.2571 
  353200    408.06371   -1893.5582    29.537969   -1864.0203 
  353400    440.13301   -1892.0653    31.859328   -1860.2059 
  353600    437.94188   -1896.3225    31.700721   -1864.6218 
  353800    404.87268   -1894.3636    29.306985   -1865.0566 
  354000    438.90912   -1891.6899    31.770736   -1859.9192 
  354200    417.42854   -1894.7143    30.215849   -1864.4984 
  354400    413.50624   -1895.5547    29.931931   -1865.6227 
  354600    421.29212   -1893.5354    30.495517   -1863.0399 
  354800    428.92931   -1894.9718     31.04834   -1863.9234 
  355000    433.78412   -1894.2188    31.399759    -1862.819 
  355200     410.5548   -1893.8683    29.718289     -1864.15 
  355400    417.65615   -1895.7682    30.232325   -1865.5359 
  355600    427.20471   -1893.7474    30.923504   -1862.8239 
  355800    432.57606   -1894.2717    31.312313   -1862.9594 
  356000    395.56481   -1893.8761    28.633228   -1865.2429 
  356200     429.7512   -1893.2561    31.107833   -1862.1483 
  356400    453.96836   -1896.0488    32.860809    -1863.188 
  356600    408.81542   -1894.3973    29.592382   -1864.8049 
  356800    429.52333   -1895.2408    31.091339   -1864.1495 
  357000    423.46986   -1894.0512    30.653154    -1863.398 
  357200    421.97414   -1894.1029    30.544885    -1863.558 
  357400    429.80578    -1895.135    31.111784   -1864.0232 
  357600    452.84271   -1896.5988    32.779328   -1863.8195 
  357800    407.20827   -1892.6065    29.476048   -1863.1305 
  358000    454.71619   -1895.4323    32.914941   -1862.5173 
  358200     417.1779   -1895.4505    30.197707   -1865.2528 
  358400     430.3535   -1894.3873    31.151431   -1863.2359 
  358600    416.64248   -1893.0348     30.15895   -1862.8758 
  358800     423.0869   -1895.6966    30.625434   -1865.0711 
  359000    413.12469   -1893.9592    29.904312   -1864.0548 
  359200     425.9783    -1894.589     30.83473   -1863.7543 
  359400    443.23028    -1896.595    32.083526   -1864.5115 
  359600    432.75303   -1894.0689    31.325123   -1862.7438 
  359800    404.85244   -1892.4022     29.30552   -1863.0967 
  360000    429.24992   -1894.8839    31.071548   -1863.8123 
  360200    418.30128   -1895.6188    30.279023   -1865.3398 
  360400    415.17614   -1891.3395    30.052808   -1861.2867 
  360600    458.86529    -1894.727    33.215276   -1861.5118 
  360800    382.78412   -1897.9092    27.708089   -1870.2011 
  361000    435.41935   -1894.1196    31.518126   -1862.6015 
  361200    443.03588   -1890.3045    32.069454    -1858.235 
  361400    421.50325   -1895.0674      30.5108   -1864.5566 
  361600    422.41392   -1895.7715    30.576719   -1865.1948 
  361800    443.68005   -1894.6542    32.116083   -1862.5381 
  362000    437.95379   -1894.0477    31.701583   -1862.3461 
  362200    432.90285    -1895.106    31.335967     -1863.77 
  362400    433.91263   -1894.9727    31.409061   -1863.5637 
  362600     432.2832   -1894.1906    31.291114   -1862.8994 
  362800    424.47789   -1893.3195    30.726121   -1862.5933 
  363000    428.90485   -1895.0074     31.04657   -1863.9608 
  363200    414.00012   -1894.0657    29.967681    -1864.098 
  363400    430.70815   -1892.9502    31.177103   -1861.7731 
  363600    423.57881    -1893.991     30.66104     -1863.33 
  363800    423.19267   -1895.6485     30.63309   -1865.0154 
  364000    438.23824   -1893.4325    31.722173   -1861.7104 
  364200    437.98467   -1892.7852    31.703819   -1861.0814 
  364400    421.14864   -1894.4484    30.485131   -1863.9633 
  364600    441.40455   -1895.9517    31.951369   -1864.0003 
  364800    432.13872   -1893.7915    31.280655   -1862.5108 
  365000    424.62386   -1894.1321    30.736687   -1863.3954 
  365200    428.20119   -1895.8999    30.995635   -1864.9043 
  365400    451.00107   -1893.4037    32.646019   -1860.7577 
  365600     418.1031   -1894.0555    30.264678   -1863.7908 
  365800    420.28052   -1894.7203    30.422292    -1864.298 
  366000    443.03345   -1895.0717    32.069278   -1863.0024 
  366200    429.42048   -1894.8944    31.083894   -1863.8105 
  366400    415.03086   -1893.6885    30.042292   -1863.6462 
  366600    450.20221   -1894.0486    32.588193   -1861.4604 
  366800    432.43451   -1894.0268    31.302066   -1862.7247 
  367000    429.59023   -1895.6687    31.096182   -1864.5725 
  367200    419.53984   -1895.4041    30.368677   -1865.0354 
  367400    461.93134    -1894.717    33.437215   -1861.2798 
  367600    425.97487   -1894.3442    30.834481   -1863.5097 
  367800    404.25258   -1894.8873    29.262098   -1865.6252 
  368000    455.21788   -1893.4902    32.951257    -1860.539 
  368200    453.60759   -1894.1924    32.834694   -1861.3577 
  368400    428.32192   -1896.4157    31.004374   -1865.4114 
  368600    437.79815   -1895.0376    31.690317   -1863.3473 
  368800    447.41565   -1894.1664    32.386487   -1861.7799 
  369000    435.90818   -1893.7029     31.55351   -1862.1494 
  369200    406.81343   -1894.8784    29.447467   -1865.4309 
  369400    433.12008   -1894.2195    31.351692   -1862.8678 
  369600    447.14552   -1893.7405    32.366933   -1861.3736 
  369800    402.68835   -1894.4521    29.148871   -1865.3032 
  370000    425.91115   -1893.1945    30.829869   -1862.3647 
  370200     451.4402   -1894.0762    32.677806   -1861.3984 
  370400    401.53212   -1893.1613    29.065176   -1864.0962 
  370600    429.60632    -1893.276    31.097346   -1862.1786 
  370800     416.3999    -1894.248     30.14139   -1864.1066 
  371000    426.13844   -1893.9891    30.846321   -1863.1428 
  371200    433.79588   -1892.4098     31.40061   -1861.0092 
  371400    409.19476   -1893.7682    29.619842   -1864.1483 
  371600    418.82358    -1893.706     30.31683   -1863.3892 
  371800     432.3414   -1893.3761    31.295327   -1862.0807 
  372000    412.11669   -1893.3273    29.831347   -1863.4959 
  372200    418.88957   -1892.6975    30.321607   -1862.3759 
  372400    425.79412   -1893.1004    30.821397    -1862.279 
  372600    419.60255   -1894.5727    30.373216   -1864.1995 
  372800    445.85165   -1894.2429    32.273275   -1861.9697 
  373000    423.68876   -1893.3299    30.668999   -1862.6609 
  373200    426.79438   -1893.5718    30.893802    -1862.678 
  373400    425.85269   -1895.5584    30.825637   -1864.7328 
  373600       419.66   -1893.1701    30.377375   -1862.7927 
  373800    445.65839   -1893.1654    32.259286   -1860.9061 
  374000    421.25113    -1894.773     30.49255   -1864.2804 
  374200    435.68842   -1894.6721    31.537603   -1863.1345 
  374400    454.66332   -1893.7359    32.911114   -1860.8248 
  374600    423.22187   -1895.3374    30.635203   -1864.7022 
  374800    454.07896   -1894.4763    32.868815   -1861.6075 
  375000    433.81367   -1894.4209    31.401898    -1863.019 
  375200    411.16162   -1896.2035    29.762214   -1866.4413 
  375400     452.7219   -1892.2406    32.770583     -1859.47 
  375600    433.30238   -1893.4862    31.364888   -1862.1214 
  375800    418.68087   -1896.6191      30.3065   -1866.3126 
  376000    441.21887   -1892.2844    31.937928   -1860.3465 
  376200    416.27421   -1893.2961    30.132292   -1863.1638 
  376400    425.96581   -1896.6904    30.833825   -1865.8566 
  376600    453.24546   -1894.4985    32.808481     -1861.69 
  376800    440.92485   -1891.8609    31.916645   -1859.9443 
  377000    409.68545   -1893.2522     29.65536   -1863.5968 
  377200    427.69585   -1894.1022    30.959055   -1863.1431 
  377400    438.94247   -1894.1678     31.77315   -1862.3947 
  377600    427.57669   -1893.0661     30.95043   -1862.1157 
  377800    433.43607   -1894.3614    31.374565   -1862.9868 
  378000    424.47621   -1894.4091       30.726   -1863.6831 
  378200     438.8629    -1893.677     31.76739   -1861.9096 
  378400    432.10884   -1893.6633    31.278493   -1862.3848 
  378600    433.78819   -1894.3136    31.400054   -1862.9135 
  378800    439.45116   -1895.1255    31.809972   -1863.3156 
  379000    423.29115     -1894.12    30.640218   -1863.4798 
  379200    452.13982   -1891.9595    32.728449   -1859.2311 
  379400    441.81091   -1893.8223    31.980784   -1861.8415 
  379600    417.31744   -1896.0885    30.207807   -1865.8806 
  379800     450.6585   -1893.4397    32.621222   -1860.8185 
  380000    447.95041    -1891.988    32.425196   -1859.5628 
  380200    405.36572   -1893.1994    29.342674   -1863.8567 
  380400    442.07721   -1893.4235     32.00006   -1861.4235 
  380600    458.71076   -1893.0939    33.204091   -1859.8898 
  380800    443.95739    -1895.463    32.136158   -1863.3268 
  381000    437.83379   -1892.8898    31.692897   -1861.1969 
  381200    443.68191   -1892.4482    32.116217    -1860.332 
  381400    425.13365   -1893.6997    30.773589   -1862.9261 
  381600     456.9854   -1893.4643    33.079199   -1860.3851 
  381800    427.15728   -1893.8926     30.92007   -1862.9726 
  382000    447.49235   -1894.1192    32.392038   -1861.7271 
  382200    462.89537   -1893.6663    33.506997   -1860.1593 
  382400    438.56448   -1892.7366    31.745789   -1860.9908 
  382600    423.98962   -1893.7339    30.690778   -1863.0432 
  382800    435.79856   -1895.2793    31.545576   -1863.7337 
  383000    414.59535   -1890.4956    30.010767   -1860.4848 
  383200    443.76242   -1890.6689    32.122045   -1858.5468 
  383400    408.39611   -1894.1395    29.562031   -1864.5775 
  383600    421.15676   -1893.3328    30.485719   -1862.8471 
  383800    436.32931   -1890.8491    31.583994   -1859.2651 
  384000    428.87037   -1893.6961    31.044074   -1862.6521 
  384200    423.19707   -1893.5151    30.633408   -1862.8817 
  384400    439.25551    -1892.538    31.795809   -1860.7422 
  384600    435.04826   -1893.9854    31.491264   -1862.4941 
  384800     431.0898   -1893.0554    31.204729   -1861.8507 
  385000    437.46631   -1892.6513    31.666297    -1860.985 
  385200    423.98074   -1894.0183    30.690134   -1863.3281 
  385400    441.42799    -1893.249    31.953066    -1861.296 
  385600    423.17096   -1892.6921    30.631518   -1862.0606 
  385800    425.44081   -1893.3043    30.795823   -1862.5085 
  386000    429.73867   -1892.9543    31.106926   -1861.8473 
  386200    425.91585   -1894.2952    30.830209    -1863.465 
  386400    454.72687   -1892.2824    32.915714   -1859.3667 
  386600    443.95097   -1891.3705    32.135693   -1859.2348 
  386800    430.32694   -1893.9959    31.149509   -1862.8464 
  387000    454.75907   -1894.9734    32.918045   -1862.0553 
  387200    423.54091   -1892.1176    30.658298   -1861.4593 
  387400    449.13334   -1893.2336    32.510823   -1860.7227 
  387600    421.53467    -1892.506    30.513075   -1861.9929 
  387800    436.59339   -1891.4234     31.60311   -1859.8203 
  388000    459.94561   -1891.4177    33.293476   -1858.1243 
  388200    422.11384    -1893.952    30.554998    -1863.397 
  388400     461.4198   -1893.6174    33.400187   -1860.2172 
  388600    430.36659   -1891.7048    31.152378   -1860.5524 
  388800     417.8253    -1892.478    30.244569   -1862.2335 
  389000    448.66706   -1891.8441    32.477071   -1859.3671 
  389200    443.06542   -1892.6014    32.071592   -1860.5298 
  389400    439.38346   -1894.6746    31.805071   -1862.8695 
  389600    449.88184   -1892.7764    32.565003   -1860.2114 
  389800    424.56672   -1892.6216    30.732552   -1861.8891 
  390000    424.63523   -1891.6137     30.73751   -1860.8762 
  390200    469.49717   -1892.2927    33.984872   -1858.3079 
  390400     416.4079   -1894.5117    30.141969   -1864.3698 
  390600    424.58784   -1891.2473     30.73408   -1860.5133 
  390800    482.16113   -1892.2922    34.901562   -1857.3907 
  391000    393.05268   -1894.0725    28.451386   -1865.6211 
  391200    445.03056   -1891.8477     32.21384   -1859.6339 
  391400    436.23678   -1889.4425    31.577296   -1857.8652 
  391600    412.93642     -1893.12    29.890684   -1863.2293 
  391800    450.12058   -1894.0716    32.582285   -1861.4893 
  392000    452.93984   -1893.4807    32.786359   -1860.6944 
  392200    448.56495   -1893.3107    32.469679    -1860.841 
  392400    435.03197   -1892.5355    31.490086   -1861.0454 
  392600    419.93653   -1890.8699    30.397392   -1860.4725 
  392800    442.90035   -1890.7499    32.059644   -1858.6903 
  393000    436.39834   -1892.3616    31.588991   -1860.7726 
  393200    441.58044   -1893.4152    31.964101   -1861.4511 
  393400    448.90973   -1892.2913    32.494636   -1859.7967 
  393600    442.18919   -1890.6897    32.008166   -1858.6816 
  393800    442.35795   -1892.3297    32.020382   -1860.3094 
  394000    451.41594   -1893.3138     32.67605   -1860.6377 
  394200     432.0176   -1890.6673    31.271888   -1859.3955 
  394400    447.43765     -1892.22    32.388079   -1859.8319 
  394600     413.1027    -1893.854    29.902721   -1863.9512 
  394800    467.16996   -1894.1273    33.816416   -1860.3109 
  395000    468.32394   -1890.9078    33.899947   -1857.0078 
  395200    407.80336   -1892.3309    29.519124   -1862.8118 
  395400    463.25718   -1893.4699    33.533187   -1859.9367 
  395600    430.83911   -1892.1913    31.186583   -1861.0048 
  395800      426.537   -1892.9158    30.875171   -1862.0407 
  396000    432.77509   -1891.4477     31.32672    -1860.121 
  396200    418.22638    -1889.926    30.273601   -1859.6524 
  396400    442.77464   -1891.4586    32.050544   -1859.4081 
  396600    451.81054   -1892.9125    32.704614   -1860.2079 
  396800    451.31495   -1892.5298     32.66874   -1859.8611 
  397000    445.19731   -1890.5657     32.22591   -1858.3398 
  397200    444.37185   -1893.2893    32.166159   -1861.1231 
  397400    437.40653   -1892.9994    31.661969   -1861.3374 
  397600    452.80687   -1892.5278    32.776734   -1859.7511 
  397800    443.74872   -1891.8813    32.121053   -1859.7602 
  398000    419.18387   -1892.0301     30.34291   -1861.6872 
  398200    448.39415   -1891.8904    32.457316   -1859.4331 
  398400    451.07468   -1893.3885    32.651348   -1860.7371 
  398600    436.50808   -1893.6797    31.596935   -1862.0827 
  398800    453.87892   -1891.9069    32.854335   -1859.0525 
  399000    418.71506   -1892.7127    30.308975   -1862.4037 
  399200    453.08936    -1892.648    32.797182   -1859.8509 
  399400    440.93253   -1893.2052    31.917202    -1861.288 
  399600    435.95338   -1892.7105    31.556782   -1861.1537 
  399800    466.18079   -1892.9507    33.744814   -1859.2059 
  400000     408.6041    -1891.604    29.577086   -1862.0269 
  400200    450.86789   -1893.7591     32.63638   -1861.1228 
  400400    463.53015   -1893.3069    33.552946    -1859.754 
  400600    446.45728   -1893.1814    32.317114   -1860.8643 
  400800    438.71255   -1893.2441    31.756507   -1861.4876 
  401000     434.2248   -1890.7423    31.431658   -1859.3107 
  401200    445.18834   -1892.7195    32.225261   -1860.4943 
  401400    437.94805    -1893.297    31.701168   -1861.5958 
  401600    458.69628   -1891.7094    33.203043   -1858.5064 
  401800    454.69923   -1894.1562    32.913713   -1861.2425 
  402000     431.1267   -1893.8512      31.2074   -1862.6438 
  402200     462.7321   -1890.6365    33.495178   -1857.1414 
  402400     437.1877   -1890.5622    31.646129   -1858.9161 
  402600    401.71626   -1895.2426    29.078505   -1866.1641 
  402800    429.24885   -1892.7586    31.071471   -1861.6872 
  403000    454.10359   -1890.2031    32.870598   -1857.3325 
  403200    409.35555   -1892.0548     29.63148   -1862.4234 
  403400    440.23456   -1891.7741    31.866679   -1859.9074 
  403600     450.7214   -1891.8213    32.625776   -1859.1955 
  403800    436.17917   -1894.1044    31.573126   -1862.5313 
  404000    445.20958   -1892.4151    32.226799   -1860.1883 
  404200    441.39005   -1891.7686     31.95032   -1859.8182 
  404400     440.5429     -1895.99    31.888998    -1864.101 
  404600    455.33076   -1893.4482    32.959428   -1860.4888 
  404800    469.70391   -1892.9079    33.999837    -1858.908 
  405000    431.21548   -1894.1761    31.213826   -1862.9622 
  405200    440.32642    -1892.396    31.873328   -1860.5227 
  405400    449.27579   -1893.4367    32.521134   -1860.9156 
  405600    418.64993    -1892.238     30.30426   -1861.9337 
  405800    455.18489   -1892.3192    32.948868   -1859.3703 
  406000    430.67786   -1895.0686    31.174911   -1863.8937 
  406200    423.19904   -1893.4277    30.633551   -1862.7942 
  406400    483.16891   -1893.4903    34.974511   -1858.5158 
  406600    415.13486   -1895.1541     30.04982   -1865.1043 
  406800    424.58177     -1894.04    30.733641   -1863.3063 
  407000    480.74341   -1892.3804    34.798939   -1857.5814 
  407200    420.84523   -1893.2137    30.463168   -1862.7505 
  407400    442.47029   -1895.4134    32.028513   -1863.3848 
  407600     446.7087   -1893.0304    32.335314   -1860.6951 
  407800    431.39728   -1894.8761    31.226986   -1863.6491 
  408000    438.76457   -1895.7508    31.760272   -1863.9905 
  408200     446.0066   -1893.9698    32.284491   -1861.6854 
  408400    456.20508   -1895.6784    33.022716   -1862.6557 
  408600    451.86889   -1895.2244    32.708837   -1862.5155 
  408800     441.2029   -1895.1822    31.936773   -1863.2454 
  409000    453.22155   -1894.0837     32.80675   -1861.2769 
  409200    456.02289   -1896.0346    33.009527   -1863.0251 
  409400    435.56337   -1894.8689    31.528551   -1863.3403 
  409600    454.48006   -1893.2384    32.897849   -1860.3405 
  409800    441.92729   -1894.8501    31.989208   -1862.8609 
  410000     426.3282   -1895.8609    30.860057   -1865.0008 
  410200    448.97687   -1894.6671    32.499497   -1862.1676 
  410400    457.96029   -1894.9303    33.149768   -1861.7805 
  410600     429.7849   -1894.7136    31.110273   -1863.6033 
  410800    461.52411   -1896.1355    33.407737   -1862.7278 
  411000    446.78109   -1893.5397    32.340553   -1861.1991 
  411200    437.73338   -1894.4912    31.685629   -1862.8055 
  411400    459.07237   -1895.0849    33.230266   -1861.8546 
  411600    427.80652   -1893.7032    30.967066   -1862.7361 
  411800    453.75782   -1895.0681    32.845569   -1862.2226 
  412000    429.45227   -1894.2761    31.086195   -1863.1899 
  412200    431.73034    -1894.762    31.251095   -1863.5109 
  412400    446.90713   -1894.5507    32.349677    -1862.201 
  412600    440.55883   -1896.0282    31.890151   -1864.1381 
  412800    474.95042   -1894.7241     34.37961   -1860.3445 
  413000    444.69507    -1895.384    32.189556   -1863.1944 
  413200    419.83543   -1895.1707    30.390074   -1864.7806 
  413400    465.49424   -1893.7291    33.695117    -1860.034 
  413600    447.47799   -1894.7594    32.390999   -1862.3684 
  413800     448.3861   -1897.1356    32.456733   -1864.6789 
  414000    454.27607     -1895.17    32.883083   -1862.2869 
  414200    427.98682    -1893.585    30.980118   -1862.6049 
  414400    436.59429   -1893.8467    31.603175   -1862.2435 
  414600    442.90226   -1894.5896    32.059782   -1862.5298 
  414800     437.3089   -1895.0609    31.654903    -1863.406 
  415000    458.67527   -1893.5358    33.201522   -1860.3343 
  415200    453.17833   -1893.5223    32.803622   -1860.7187 
  415400    441.32715   -1895.7165    31.945766   -1863.7707 
  415600    441.20715   -1894.4123     31.93708   -1862.4752 
  415800    459.05885   -1893.3224    33.229288   -1860.0931 
  416000    438.32203   -1894.3408    31.728239   -1862.6125 
  416200     443.3196   -1895.6628    32.089991   -1863.5728 
  416400     442.7393   -1893.2206    32.047985   -1861.1726 
  416600    467.65197    -1892.753    33.851306   -1858.9017 
  416800    447.67875   -1894.9438    32.405532   -1862.5383 
  417000     441.1174    -1896.482    31.930584   -1864.5514 
  417200    453.67537   -1892.8809    32.839601   -1860.0413 
  417400    451.65912   -1892.5703    32.693653   -1859.8766 
  417600    440.82305    -1894.751    31.909277   -1862.8417 
  417800    451.09579   -1896.2517    32.652876   -1863.5988 
  418000    450.04385   -1893.4836     32.57673   -1860.9069 
  418200    445.63538    -1892.532     32.25762   -1860.2744 
  418400    422.48616   -1894.8091    30.581949   -1864.2272 
  418600    434.02015   -1893.7508    31.416844    -1862.334 
  418800    451.97425   -1894.4449    32.716464   -1861.7284 
  419000    425.86545   -1894.7162    30.826561   -1863.8896 
  419200    450.55893   -1893.1324    32.614015   -1860.5184 
  419400     457.7089   -1894.9469    33.131571   -1861.8153 
  419600    424.60593   -1895.2567    30.735389   -1864.5213 
  419800    466.19877   -1895.4303    33.746115   -1861.6842 
  420000    453.03984   -1894.7384    32.793598   -1861.9448 
  420200    445.58163    -1893.704     32.25373   -1861.4503 
  420400    459.72654   -1895.7838    33.277619   -1862.5062 
  420600    442.06887     -1895.08    31.999456   -1863.0805 
  420800    449.85389   -1892.4112    32.562981   -1859.8483 
  421000     447.8339   -1893.7638    32.416762    -1861.347 
  421200      446.346   -1895.6734    32.309059   -1863.3644 
  421400    440.48915   -1894.0709    31.885107   -1862.1858 
  421600    464.20406   -1895.8963    33.601727   -1862.2946 
  421800    440.26812   -1895.9009    31.869108   -1864.0318 
  422000    457.75882   -1893.5604    33.135184   -1860.4252 
  422200     445.7403   -1895.3036    32.265215   -1863.0384 
  422400    420.94131    -1895.672    30.470123   -1865.2019 
  422600    455.33621   -1892.0808    32.959821    -1859.121 
  422800    437.00083     -1894.96    31.632603   -1863.3274 
  423000    437.57098   -1896.0203    31.673874   -1864.3464 
  423200    466.35589   -1894.5017    33.757489   -1860.7442 
  423400    447.30177   -1894.5072    32.378243   -1862.1289 
  423600    442.37667   -1896.0514    32.021737   -1864.0297 
  423800    442.83753   -1896.2199    32.055096   -1864.1648 
  424000    478.58269   -1895.8004    34.642534   -1861.1578 
  424200    432.20721   -1894.7319    31.285614   -1863.4463 
  424400    428.14206   -1895.9758    30.991355   -1864.9844 
  424600    473.65875   -1894.7551    34.286111    -1860.469 
  424800    460.68105   -1896.9814    33.346712   -1863.6347 
  425000     437.5007   -1897.3036    31.668786   -1865.6348 
  425200    442.58978   -1892.3132    32.037163    -1860.276 
  425400    415.94702   -1892.8306    30.108609    -1862.722 
  425600    432.67534   -1895.4686    31.319499   -1864.1491 
  425800    438.04066   -1894.1079    31.707872   -1862.4001 
  426000    448.65139   -1894.7905    32.475936   -1862.3145 
  426200    432.90287   -1894.5703    31.335969   -1863.2344 
  426400    456.33945   -1895.6478    33.032442   -1862.6154 
  426600    446.83448    -1894.414    32.344418   -1862.0696 
  426800    475.83034   -1895.4647    34.443303   -1861.0214 
  427000     432.7651   -1895.6563    31.325997   -1864.3303 
  427200     425.3555   -1894.2509    30.789647   -1863.4613 
  427400      464.566   -1894.2556    33.627927   -1860.6277 
  427600    440.15376   -1894.5672     31.86083   -1862.7064 
  427800    461.69405   -1896.1632    33.420038   -1862.7431 
  428000    476.64257   -1897.4021    34.502097      -1862.9 
  428200    462.52646   -1897.7893    33.480293    -1864.309 
  428400    460.15541   -1895.0766    33.308663   -1861.7679 
  428600    455.90356   -1893.1389     33.00089    -1860.138 
  428800    441.14391   -1894.6628    31.932502   -1862.7303 
  429000    454.62205   -1895.9248    32.908127   -1863.0167 
  429200    486.65578   -1894.9201     35.22691   -1859.6931 
  429400    436.23273   -1894.6238    31.577003   -1863.0468 
  429600    447.97051   -1894.9916     32.42665   -1862.5649 
  429800    462.69438    -1894.873    33.492448   -1861.3806 
  430000    431.86813   -1895.4412    31.261069   -1864.1802 
  430200    467.39709   -1894.1993    33.832857   -1860.3665 
  430400    454.16929   -1893.6321    32.875353   -1860.7567 
  430600    426.65386   -1895.1377     30.88363    -1864.254 
  430800    465.58476   -1894.7876     33.70167   -1861.0859 
  431000    445.90257   -1894.8438    32.276961   -1862.5668 
  431200    475.75687   -1895.8692    34.437985   -1861.4312 
  431400    462.50986   -1895.9206    33.479091   -1862.4415 
  431600    420.06353   -1895.3658    30.406585   -1864.9592 
  431800    460.62397   -1892.7152     33.34258   -1859.3726 
  432000    455.65607    -1895.193    32.982975     -1862.21 
  432200      411.122   -1897.2119    29.759346   -1867.4525 
  432400     478.9872   -1892.4851    34.671815   -1857.8133 
  432600    448.77477   -1894.7754    32.484867   -1862.2905 
  432800    450.62911   -1898.5844    32.619095   -1865.9653 
  433000    473.93373   -1895.0581    34.306016   -1860.7521 
  433200    452.87804   -1895.0365    32.781885   -1862.2546 
  433400    439.85945   -1894.1291    31.839526   -1862.2896 
  433600    470.65192   -1895.7622     34.06846   -1861.6937 
  433800    426.71012   -1895.3647    30.887703    -1864.477 
  434000    464.97308   -1895.6559    33.657393   -1861.9985 
  434200    466.40688   -1894.2674    33.761179   -1860.5062 
  434400    441.92801   -1895.3077     31.98926   -1863.3184 
  434600    449.52124   -1894.2058    32.538901   -1861.6669 
  434800    454.07369   -1895.3229    32.868433   -1862.4545 
  435000    431.59463   -1895.9649    31.241271   -1864.7237 
  435200    466.06124   -1894.8385     33.73616   -1861.1024 
  435400    467.05364   -1894.3463    33.807996   -1860.5383 
  435600    433.07202   -1896.4373    31.348213    -1865.089 
  435800    418.76594   -1894.3324    30.312658   -1864.0197 
  436000    459.95728   -1890.7804    33.294321   -1857.4861 
  436200    452.23761   -1895.7165    32.735528   -1862.9809 
  436400    411.87644   -1897.2345    29.813957   -1867.4206 
  436600    489.90798   -1894.4738    35.462323   -1859.0114 
  436800     458.6359   -1893.5742    33.198672   -1860.3755 
  437000    441.80784   -1897.0961    31.980561   -1865.1155 
  437200    447.85186   -1894.2396    32.418062   -1861.8215 
  437400    423.91512   -1892.6595    30.685385   -1861.9741 
  437600    461.88387   -1893.3303    33.433778   -1859.8965 
  437800    445.75225   -1895.3446     32.26608   -1863.0785 
  438000    430.81537    -1896.082    31.184864   -1864.8971 
  438200    482.35351   -1893.7281    34.915487   -1858.8126 
  438400    448.97373   -1893.5432    32.499269   -1861.0439 
  438600    449.75379   -1896.3861    32.555734   -1863.8304 
  438800    457.23007   -1894.0269     33.09691     -1860.93 
  439000    443.43539   -1893.5647    32.098373   -1861.4663 
  439200    485.90517   -1896.5623    35.172577   -1861.3897 
  439400    445.60918   -1896.3055    32.255724   -1864.0498 
  439600    463.75049   -1895.2398    33.568895   -1861.6709 
  439800    454.77833   -1893.9496    32.919439   -1861.0301 
  440000    455.89981   -1897.3014    33.000619   -1864.3007 
  440200    460.44575   -1895.9343    33.329679   -1862.6046 
  440400     478.8599   -1894.7187      34.6626   -1860.0561 
  440600    433.13877   -1893.9551    31.353045    -1862.602 
  440800    455.29169   -1895.7691    32.956599   -1862.8125 
  441000    464.99167   -1895.4899    33.658739   -1861.8312 
  441200    446.01711   -1893.5439    32.285252   -1861.2587 
  441400    456.35749   -1893.8232    33.033747   -1860.7894 
  441600    443.35255   -1893.0999    32.092376   -1861.0076 
  441800    445.97336   -1894.9891    32.282086    -1862.707 
  442000    449.91411   -1894.0506     32.56734   -1861.4832 
  442200    458.28003   -1894.4014    33.172912   -1861.2285 
  442400    471.65707   -1895.7908    34.141218   -1861.6496 
  442600    456.54461   -1894.8142    33.047292   -1861.7669 
  442800    453.20854   -1894.6644    32.805809   -1861.8586 
  443000    492.69108   -1896.6139    35.663779   -1860.9501 
  443200    448.60343   -1895.1232    32.472465   -1862.6507 
  443400    454.67179    -1892.986    32.911727   -1860.0743 
  443600    465.54529   -1893.3607    33.698813   -1859.6619 
  443800    446.66917   -1895.6742    32.332452   -1863.3417 
  444000    469.25774   -1895.1911    33.967541   -1861.2235 
  444200    457.82022   -1892.3867    33.139628   -1859.2471 
  444400    452.75279   -1893.7907    32.772819   -1861.0179 
  444600    444.06129   -1892.9986    32.143679   -1860.8549 
  444800    473.09384   -1894.4301     34.24522   -1860.1849 
  445000    436.68403   -1893.0687    31.609671    -1861.459 
  445200    457.96467   -1893.6575    33.150084   -1860.5074 
  445400    481.46101   -1894.0217    34.850883   -1859.1708 
  445600    458.78841   -1893.8311    33.209712   -1860.6214 
  445800    446.74746   -1893.3693    32.338119   -1861.0312 
  446000    467.95164   -1893.1705    33.872998   -1859.2975 
  446200    467.23444   -1894.7659    33.821083   -1860.9448 
  446400    448.30713   -1895.6825    32.451017   -1863.2315 
  446600    474.57098   -1895.6643    34.352143   -1861.3121 
  446800    474.90806     -1893.61    34.376543   -1859.2334 
  447000    465.84664   -1893.8814    33.720626   -1860.1608 
  447200    438.99282   -1894.0352    31.776794   -1862.2584 
  447400    441.15045   -1894.0841    31.932976   -1862.1511 
  447600    458.74499   -1893.1599    33.206569   -1859.9533 
  447800    453.01913   -1892.8387    32.792098   -1860.0466 
  448000    465.36878   -1895.1624    33.686036   -1861.4763 
  448200    431.14372   -1896.1767    31.208632   -1864.9681 
  448400    487.05177   -1894.9326    35.255574    -1859.677 
  448600      475.726   -1893.3695    34.435751   -1858.9337 
  448800    432.66587   -1895.6708    31.318814    -1864.352 
  449000    477.61953   -1895.6023    34.572815   -1861.0295 
  449200    454.84166   -1894.0309    32.924023   -1861.1069 
  449400    449.22289   -1894.4753    32.517305    -1861.958 
  449600    484.32681   -1893.5464    35.058326   -1858.4881 
  449800    433.24904   -1895.5471    31.361027    -1864.186 
  450000    462.17724   -1895.2767    33.455014   -1861.8217 
  450200    466.62013     -1892.31    33.776616   -1858.5334 
  450400    414.02255   -1894.7021    29.969304   -1864.7328 
  450600      478.297   -1895.8635    34.621854   -1861.2417 
  450800    464.99411   -1894.8779    33.658915    -1861.219 
  451000    438.59894   -1893.8425    31.748283   -1862.0942 
  451200    480.58917   -1894.1385    34.787774   -1859.3507 
  451400    456.97222   -1896.2251    33.078245   -1863.1468 
  451600    477.07682   -1896.5541     34.53353   -1862.0206 
  451800    462.82831   -1893.3312    33.502143    -1859.829 
  452000    421.77276   -1892.8099    30.530309   -1862.2796 
  452200     473.6094   -1895.7212    34.282539   -1861.4386 
  452400    443.04446   -1894.6558    32.070075   -1862.5857 
  452600    469.15097   -1894.6824    33.959812   -1860.7226 
  452800    457.35066   -1893.4691    33.105639   -1860.3635 
  453000    455.00487   -1894.8672    32.935837   -1861.9314 
  453200    464.71681   -1895.6673    33.638843   -1862.0284 
  453400    441.96018   -1893.4202    31.991589   -1861.4286 
  453600    455.07454   -1891.8485    32.940881   -1858.9077 
  453800    462.56739   -1894.8848    33.483255   -1861.4015 
  454000    433.14672   -1895.9942    31.353621   -1864.6406 
  454200     469.2878   -1894.4354    33.969717   -1860.4657 
  454400    440.59926   -1892.4462    31.893078   -1860.5531 
  454600    464.11989   -1894.4491    33.595634   -1860.8534 
  454800    452.60755   -1896.2089    32.762306   -1863.4466 
  455000    440.96602   -1895.0884    31.919626   -1863.1688 
  455200    508.39619   -1892.5573    36.800604   -1855.7566 
  455400    455.55198   -1897.1653     32.97544   -1864.1899 
  455600    434.56904   -1896.8973    31.456576   -1865.4407 
  455800    523.79455   -1893.5341    37.915226   -1855.6189 
  456000    425.01739   -1893.8974    30.765173   -1863.1322 
  456200    444.42728   -1896.0429    32.170171   -1863.8727 
  456400    488.30674   -1894.3163    35.346416   -1858.9698 
  456600    458.26075   -1894.5453    33.171517   -1861.3738 
  456800    458.78822   -1894.2102    33.209698   -1861.0005 
  457000    469.37966   -1894.6121    33.976366   -1860.6357 
  457200    491.60115   -1896.1963    35.584884   -1860.6114 
  457400    441.65035   -1893.0747    31.969161   -1861.1055 
  457600    471.06897   -1895.2128    34.098648   -1861.1142 
  457800    471.21836   -1893.9955    34.109462   -1859.8861 
  458000    467.85254   -1894.8057    33.865825   -1860.9399 
  458200     455.7428   -1897.0912    32.989253   -1864.1019 
  458400    480.75445   -1895.7615    34.799738   -1860.9617 
  458600     447.9567   -1890.6793    32.425651   -1858.2536 
  458800    453.46321   -1894.6909    32.824243   -1861.8667 
  459000    440.73076   -1894.0077    31.902597   -1862.1051 
  459200    461.32793   -1893.0134    33.393537   -1859.6198 
  459400    467.30207   -1893.6526    33.825978   -1859.8266 
  459600    457.16415   -1894.3311    33.092138    -1861.239 
  459800    415.70005   -1892.1023    30.090731   -1862.0116 
  460000    461.55113     -1892.26    33.409693   -1858.8503 
  460200    462.34691   -1894.5376    33.467296   -1861.0703 
  460400     467.3561    -1893.821     33.82989   -1859.9912 
  460600    459.48401   -1894.8361    33.260063    -1861.576 
  460800    462.56286   -1893.7947    33.482927   -1860.3118 
  461000    467.25892    -1893.208    33.822855   -1859.3852 
  461200    460.14678    -1895.412    33.308038    -1862.104 
  461400    442.77332    -1892.237    32.050448   -1860.1865 
  461600    478.40355   -1894.1393    34.629567   -1859.5098 
  461800    452.64072   -1894.1254    32.764707   -1861.3607 
  462000    432.40205   -1893.1387    31.299717    -1861.839 
  462200    476.96882    -1893.886    34.525713   -1859.3603 
  462400    465.38729   -1893.1455    33.687376   -1859.4581 
  462600    461.25793   -1896.6282     33.38847   -1863.2397 
  462800    463.24418   -1893.8972    33.532246    -1860.365 
  463000    471.13286   -1892.8664    34.103273   -1858.7632 
  463200    460.71739   -1894.6799    33.349342   -1861.3306 
  463400      460.995   -1894.9654    33.369437   -1861.5959 
  463600    451.73087   -1894.5615    32.698847   -1861.8627 
  463800    490.06157    -1894.698    35.473441   -1859.2246 
  464000     459.8648   -1894.4048    33.287627   -1861.1172 
  464200    443.95447   -1894.8978    32.135947   -1862.7619 
  464400    471.45529   -1894.0974    34.126612   -1859.9707 
  464600    464.09831   -1894.4717    33.594072   -1860.8777 
  464800    458.68111   -1894.6403    33.201944   -1861.4384 
  465000    469.43065    -1893.982    33.980057   -1860.0019 
  465200    473.84888   -1895.2855    34.299874   -1860.9856 
  465400    467.90841    -1895.371    33.869869   -1861.5011 
  465600    454.35292   -1894.3859    32.888646   -1861.4972 
  465800    445.50626   -1895.1392    32.248274   -1862.8909 
  466000    448.17758   -1895.4751    32.441639   -1863.0335 
  466200    482.16747   -1894.8876    34.902021   -1859.9856 
  466400    458.90332   -1894.6289     33.21803   -1861.4109 
  466600    445.98925   -1894.1586    32.283235   -1861.8754 
  466800    473.66706   -1895.8777    34.286713    -1861.591 
  467000    438.48182   -1893.5036    31.739805   -1861.7638 
  467200    489.32128   -1895.5276    35.419854   -1860.1077 
  467400    463.43123   -1895.2348    33.545785   -1861.6891 
  467600    451.65814   -1894.2624    32.693582   -1861.5688 
  467800    504.31687   -1896.0676     36.50532   -1859.5622 
  468000    472.38339   -1897.2403    34.193793   -1863.0465 
  468200    464.29294   -1896.7905    33.608161   -1863.1823 
  468400    467.83047    -1892.979    33.864228   -1859.1147 
  468600    503.65937   -1894.4582    36.457727   -1858.0004 
  468800    457.99539   -1895.3427    33.152308   -1862.1904 
  469000    457.84181   -1895.4247    33.141191   -1862.2835 
  469200     488.1545   -1893.8963    35.335396   -1858.5609 
  469400    477.04305   -1895.0477    34.531086   -1860.5166 
  469600    430.63961   -1893.8814    31.172142   -1862.7092 
  469800    494.13615   -1895.5415    35.768382   -1859.7731 
  470000    462.62984   -1893.5551    33.487776   -1860.0674 
  470200    437.15408   -1894.5611    31.643696   -1862.9175 
  470400    468.61541   -1895.2325    33.921045   -1861.3115 
  470600     478.5821   -1895.3954    34.642491   -1860.7529 
  470800    468.04488   -1895.4968    33.879748   -1861.6171 
  471000    471.47918   -1894.1012    34.128342   -1859.9729 
  471200    475.04895   -1895.5208    34.386742   -1861.1341 
  471400    453.19318   -1895.4131    32.804697   -1862.6084 
  471600    472.35115   -1895.3473     34.19146   -1861.1558 
  471800    464.61361   -1894.2473    33.631373   -1860.6159 
  472000    450.98379   -1892.6785    32.644769   -1860.0338 
  472200    473.99649   -1895.0622    34.310559   -1860.7516 
  472400     458.7497   -1894.9535     33.20691   -1861.7466 
  472600    503.60495   -1894.7052    36.453788   -1858.2514 
  472800    454.01501   -1894.7841    32.864186   -1861.9199 
  473000    451.99433   -1894.1824    32.717918   -1861.4645 
  473200      482.067   -1892.1378    34.894748    -1857.243 
  473400    459.76024   -1896.0662    33.280058   -1862.7861 
  473600    448.49895   -1895.4897    32.464902   -1863.0248 
  473800    473.61171   -1891.8663    34.282706   -1857.5836 
  474000    453.18052   -1893.4852    32.803781   -1860.6814 
  474200    456.10496   -1894.9468    33.015468   -1861.9313 
  474400    490.49821    -1895.445    35.505047   -1859.9399 
  474600    464.10008   -1894.0992      33.5942    -1860.505 
  474800    465.68366   -1894.7286    33.708829   -1861.0198 
  475000    465.41178   -1893.5242    33.689149   -1859.8351 
  475200    464.47793   -1894.3689    33.621551   -1860.7474 
  475400    469.34721   -1895.4495    33.974018   -1861.4755 
  475600    475.52516   -1893.1869    34.421213   -1858.7657 
  475800     471.6677   -1893.2641    34.141987   -1859.1221 
  476000    440.24215   -1894.2618    31.867228   -1862.3946 
  476200    488.08006   -1896.4955    35.330007   -1861.1655 
  476400    475.84351   -1893.7037    34.444257   -1859.2595 
  476600    462.41539   -1895.5605    33.472253   -1862.0882 
  476800    484.06972   -1896.3754    35.039716   -1861.3357 
  477000    493.70559   -1894.4579    35.737215   -1858.7207 
  477200    458.80294   -1893.6881    33.210763   -1860.4773 
  477400    443.09301   -1894.6627    32.073589   -1862.5891 
  477600    485.46409   -1894.7558    35.140649   -1859.6151 
  477800    465.06949   -1892.9959    33.664372   -1859.3315 
  478000    459.13107   -1895.1389    33.234516   -1861.9044 
  478200    473.70323   -1893.4235    34.289331   -1859.1342 
  478400    481.06685    -1895.448    34.822352   -1860.6257 
  478600    466.94543   -1896.1274    33.800163   -1862.3273 
  478800    451.15705   -1894.1039     32.65731   -1861.4465 
  479000    443.26125   -1892.2242    32.085767   -1860.1385 
  479200    508.94602   -1896.1001    36.840404   -1859.2597 
  479400    441.56233   -1894.5293     31.96279   -1862.5665 
  479600    468.09861   -1894.7929    33.883637   -1860.9093 
  479800      496.052   -1893.5685    35.907062   -1857.6614 
  480000     449.8658    -1895.138    32.563842   -1862.5742 
  480200    455.04314   -1892.1839    32.938608   -1859.2453 
  480400    507.29555   -1894.3499    36.720934    -1857.629 
  480600    436.80091   -1896.7531    31.618131    -1865.135 
  480800    474.95354   -1893.0464    34.379835   -1858.6665 
  481000    480.69963   -1892.0104     34.79577   -1857.2146 
  481200    437.97509   -1895.4281    31.703126    -1863.725 
  481400    500.51671   -1893.9601    36.230243   -1857.7298 
  481600    463.74199    -1892.626     33.56828   -1859.0577 
  481800    471.68312   -1895.9103    34.143104   -1861.7672 
  482000    466.83022   -1894.1669    33.791824   -1860.3751 
  482200    462.73129    -1892.291     33.49512   -1858.7958 
  482400    448.31789   -1891.9774    32.451796   -1859.5256 
  482600    481.16501   -1895.8562    34.829457   -1861.0267 
  482800    457.02294   -1893.6921    33.081917   -1860.6102 
  483000    479.20382   -1894.1853    34.687495   -1859.4978 
  483200    456.63504   -1894.9552    33.053838   -1861.9013 
  483400    463.65079   -1894.4183    33.561679   -1860.8566 
  483600    480.56453     -1893.54    34.785991    -1858.754 
  483800    449.88532   -1893.3963    32.565256    -1860.831 
  484000    458.93138   -1894.2094     33.22006   -1860.9894 
  484200     483.8891   -1895.5694    35.026642   -1860.5428 
  484400    438.12601   -1891.8692     31.71405   -1860.1552 
  484600    477.63892   -1893.4955    34.574219   -1858.9213 
  484800    440.71211   -1893.0885    31.901247   -1861.1872 
  485000    459.07463   -1892.7784     33.23043   -1859.5479 
  485200    490.74562   -1892.5383    35.522956   -1857.0153 
  485400    449.30522   -1894.0852    32.523264   -1861.5619 
  485600    476.32759   -1896.9964    34.479297   -1862.5172 
  485800    480.71633   -1893.4036    34.796979   -1858.6066 
  486000    478.67762   -1893.1337    34.649405   -1858.4843 
  486200    465.32675   -1894.8179    33.682994   -1861.1349 
  486400    471.91673   -1893.9153    34.160014   -1859.7553 
  486600    474.67235   -1892.7381    34.359482   -1858.3786 
  486800    436.68735   -1892.3845    31.609911   -1860.7746 
  487000     471.2715   -1894.8357    34.113308   -1860.7224 
  487200    470.62234   -1895.2617    34.066318   -1861.1954 
  487400    486.61141   -1893.9035    35.223699   -1858.6798 
  487600    469.50361   -1894.2529    33.985339   -1860.2676 
  487800    467.54291   -1896.4509    33.843412   -1862.6074 
  488000    482.85269   -1893.6632    34.951621   -1858.7116 
  488200    461.27328   -1892.6388    33.389581   -1859.2493 
  488400    488.86088    -1892.292    35.386527   -1856.9054 
  488600    462.38009    -1894.262    33.469697   -1860.7923 
  488800     458.1821   -1895.2759    33.165823     -1862.11 
  489000    500.40395   -1893.6158    36.222081   -1857.3937 
  489200    469.51991   -1894.6569    33.986518   -1860.6704 
  489400     476.8312    -1895.403    34.515751   -1860.8873 
  489600    462.68407   -1893.3178    33.491701   -1859.8261 
  489800    480.86558   -1892.7771    34.807783   -1857.9693 
  490000    469.95039   -1893.6244    34.017679   -1859.6067 
  490200    447.00979   -1895.5791    32.357108    -1863.222 
  490400    498.89918   -1894.6454    36.113157   -1858.5322 
  490600    499.81047   -1894.6865    36.179121   -1858.5074 
  490800    458.36694   -1896.4352    33.179203    -1863.256 
  491000    462.19117   -1893.5266    33.456023   -1860.0706 
  491200    483.07811   -1892.1227    34.967938   -1857.1548 
  491400    433.22239   -1893.9642    31.359098   -1862.6051 
  491600    462.30175    -1895.921    33.464027    -1862.457 
  491800    470.41482   -1891.0897    34.051297   -1857.0384 
  492000    483.01976   -1893.5721    34.963714   -1858.6084 
  492200    455.14842   -1895.3497    32.946228   -1862.4034 
  492400    478.57454   -1894.2725    34.641944   -1859.6306 
  492600    469.10451   -1893.6285    33.956449   -1859.6721 
  492800    466.70612   -1894.7643    33.782841   -1860.9815 
  493000    479.36745   -1893.0455    34.699339   -1858.3461 
  493200    492.79833    -1892.757    35.671543   -1857.0855 
  493400    454.90168   -1893.0579    32.928368   -1860.1295 
  493600    480.83389   -1895.1013    34.805489   -1860.2958 
  493800    488.35221   -1893.5698    35.349707   -1858.2201 
  494000    466.19969   -1894.8281    33.746182   -1861.0819 
  494200     478.7771   -1895.2224    34.656606   -1860.5658 
  494400    485.26224   -1894.7587    35.126038   -1859.6327 
  494600    476.85978   -1894.5743     34.51782   -1860.0565 
  494800    480.65504   -1895.6258    34.792542   -1860.8332 
  495000    445.26119   -1894.8203    32.230534   -1862.5898 
  495200    487.18178   -1893.4837    35.264985   -1858.2188 
  495400    474.34215   -1893.9127    34.335579   -1859.5771 
  495600    457.69493   -1896.1454    33.130559   -1863.0149 
  495800    483.03591   -1895.1413    34.964883   -1860.1764 
  496000    467.87184   -1892.5277    33.867222   -1858.6605 
  496200    470.69291   -1893.7125    34.071427   -1859.6411 
  496400    457.36966   -1892.5428    33.107014   -1859.4358 
  496600    478.29477   -1895.0389    34.621692   -1860.4172 
  496800    462.20804   -1895.1107    33.457244   -1861.6535 
  497000    519.10812   -1895.7946    37.575995   -1858.2186 
  497200    474.17371   -1895.7134    34.323387     -1861.39 
  497400    478.68124   -1895.7559    34.649668   -1861.1063 
  497600    463.58047   -1891.9528    33.556588   -1858.3962 
  497800    463.91501   -1893.5723    33.580804   -1859.9915 
  498000    486.98789   -1894.3082     35.25095   -1859.0573 
  498200    446.28871   -1893.0439    32.304912    -1860.739 
  498400    474.19721   -1894.5429    34.325088   -1860.2178 
  498600     452.0377   -1892.4139    32.721057   -1859.6928 
  498800    476.37007   -1894.1208    34.482372   -1859.6384 
  499000    447.95796   -1894.2699    32.425742   -1861.8441 
  499200     493.6518   -1894.5641    35.733322   -1858.8308 
  499400     483.5688   -1894.3778    35.003457   -1859.3744 
  499600    464.15306    -1896.132    33.598035    -1862.534 
  499800    509.48353   -1894.6987    36.879313   -1857.8194 
  500000    485.61568   -1892.6251    35.151622   -1857.4735 
  500200    442.71581   -1892.9039    32.046286   -1860.8576 
  500400    464.30013   -1895.3622    33.608681   -1861.7535 
  500600     468.4749   -1892.3672    33.910874   -1858.4563 
  500800    503.26245   -1894.0027    36.428995   -1857.5737 
  501000     471.4777   -1895.8565    34.128234   -1861.7283 
  501200    458.27912   -1894.1616    33.172846   -1860.9888 
  501400    484.48446   -1892.7116    35.069738   -1857.6419 
  501600    463.86457   -1894.7124    33.577153   -1861.1353 
  501800    467.54104   -1894.3289    33.843277   -1860.4856 
  502000    494.11304   -1894.4822    35.766709   -1858.7155 
  502200    474.62431   -1893.8371    34.356004   -1859.4811 
  502400    465.09607   -1892.9528    33.666296   -1859.2865 
  502600    479.90591    -1893.826    34.738316   -1859.0877 
  502800    463.31109   -1893.9483    33.537089   -1860.4112 
  503000    485.51449   -1893.8423    35.144297    -1858.698 
  503200    497.20586   -1893.9709    35.990585   -1857.9803 
  503400     455.5554    -1894.811    32.975688   -1861.8353 
  503600    493.20749   -1893.4357     35.70116   -1857.7345 
  503800    479.96757    -1893.001     34.74278   -1858.2582 
  504000    438.08205    -1893.397    31.710868   -1861.6861 
  504200     488.8668   -1894.5412    35.386956   -1859.1543 
  504400    473.69007   -1892.4722    34.288379   -1858.1838 
  504600    477.00874   -1892.5281    34.528602   -1857.9995 
  504800    495.43607   -1895.5914    35.862477    -1859.729 
  505000    457.59831   -1894.3585    33.123566    -1861.235 
  505200    492.54005   -1893.2735    35.652847   -1857.6207 
  505400    474.71833   -1893.8275     34.36281   -1859.4647 
  505600    491.42418   -1896.5005    35.572074   -1860.9284 
  505800    479.62899   -1893.5152    34.718271    -1858.797 
  506000    507.99147   -1893.8767    36.771309   -1857.1054 
  506200    474.62217   -1895.5829    34.355849   -1861.2271 
  506400    506.44771   -1896.7686    36.659562    -1860.109 
  506600    500.36199   -1893.9293    36.219044   -1857.7102 
  506800    458.17289   -1892.6654    33.165156   -1859.5002 
  507000    482.07368   -1895.5138    34.895232   -1860.6186 
  507200    474.44006   -1893.8133    34.342667   -1859.4706 
  507400    476.51319   -1892.9515    34.492732   -1858.4587 
  507600    478.25361   -1894.6156    34.618713   -1859.9968 
  507800     467.0732   -1892.1411    33.809411   -1858.3317 
  508000    462.61839   -1891.8863    33.486947   -1858.3994 
  508200    474.20443   -1893.9089    34.325611   -1859.5833 
  508400    458.29634   -1892.9237    33.174092   -1859.7496 
  508600    468.53876   -1893.4971    33.915497   -1859.5816 
  508800    480.24359   -1891.7196    34.762759   -1856.9569 
  509000    475.23134   -1894.8007    34.399944   -1860.4008 
  509200    476.27364   -1894.8907    34.475392   -1860.4153 
  509400     481.0465   -1893.3353    34.820879   -1858.5144 
  509600    464.99017    -1893.653     33.65863   -1859.9944 
  509800      496.691   -1895.7187    35.953316   -1859.7654 
  510000     487.7644   -1894.5986    35.307158   -1859.2914 
  510200    473.15492   -1894.6614    34.249641   -1860.4118 
  510400    475.94294   -1894.3295    34.451454    -1859.878 
  510600    486.62468   -1893.2315    35.224659   -1858.0068 
  510800    472.97572   -1893.6922     34.23667   -1859.4556 
  511000    474.84208   -1892.8314    34.371768   -1858.4596 
  511200    486.44049   -1894.6094    35.211326   -1859.3981 
  511400    449.59223   -1892.2876     32.54404   -1859.7435 
  511600    490.77163   -1892.7722    35.524839   -1857.2474 
  511800    473.58283   -1893.1679    34.280616   -1858.8873 
  512000    489.36111   -1894.4088    35.422737   -1858.9861 
  512200     505.7916   -1892.8263    36.612069   -1856.2142 
  512400    465.28892   -1891.8994    33.680256   -1858.2192 
  512600     472.2968   -1893.4075    34.187525     -1859.22 
  512800    501.67271   -1893.8875    36.313921   -1857.5736 
  513000    458.45158   -1892.4291     33.18533   -1859.2437 
  513200    477.91099   -1892.9971    34.593913   -1858.4031 
  513400     472.9621   -1893.3278    34.235683   -1859.0922 
  513600    493.06748   -1893.1815    35.691025   -1857.4905 
  513800    463.37014   -1891.7812    33.541363   -1858.2398 
  514000    485.10743   -1894.0358    35.114832   -1858.9209 
  514200    467.52877   -1892.4438    33.842389   -1858.6014 
  514400    472.56687   -1894.1046    34.207075   -1859.8975 
  514600    474.35525   -1893.5217    34.336528   -1859.1851 
  514800    463.50392    -1891.106    33.551047    -1857.555 
  515000    492.56871   -1894.7277    35.654921   -1859.0727 
  515200    479.98143   -1894.1697    34.743783   -1859.4259 
  515400    503.17851   -1893.3228    36.422919   -1856.8999 
  515600    479.63648   -1894.7849    34.718813   -1860.0661 
  515800    485.51099   -1893.5646    35.144044   -1858.4206 
  516000    461.61447    -1893.318    33.414278   -1859.9037 
  516200    479.62282   -1892.8289    34.717824   -1858.1111 
  516400    483.07587   -1893.1008    34.967776    -1858.133 
  516600    463.93317   -1894.8121    33.582118     -1861.23 
  516800    486.02835   -1893.4605    35.181493    -1858.279 
  517000     502.2774   -1892.5838    36.357692   -1856.2261 
  517200    485.45719   -1895.4873     35.14015   -1860.3471 
  517400    469.12478   -1894.7237    33.957917   -1860.7658 
  517600     488.5908   -1892.9539    35.366978    -1857.587 
  517800    461.19723   -1892.5433    33.384076   -1859.1593 
  518000    502.02667   -1896.0321    36.339543   -1859.6926 
  518200    487.03356   -1894.5316    35.254256   -1859.2773 
  518400    485.28102   -1891.6559    35.127397   -1856.5285 
  518600     499.5569   -1894.3569    36.160767   -1858.1961 
  518800    454.65722   -1896.4987    32.910672    -1863.588 
  519000    515.02447   -1893.6901    37.280397   -1856.4097 
  519200    525.45383   -1892.9914    38.035333   -1854.9561 
  519400     448.8072   -1896.0478    32.487215   -1863.5606 
  519600    460.60677   -1892.8541    33.341335   -1859.5128 
  519800    499.30879   -1892.2747    36.142807   -1856.1319 
  520000    459.33878    -1893.454    33.249551   -1860.2044 
  520200    492.63521   -1894.8237    35.659735    -1859.164 
  520400    463.32209   -1892.9978    33.537885   -1859.4599 
  520600    487.07759   -1893.6255    35.257443    -1858.368 
  520800    477.72338   -1893.1611    34.580332   -1858.5808 
  521000    466.14565   -1893.7367     33.74227   -1859.9944 
  521200    485.74873   -1893.1039    35.161253   -1857.9426 
  521400    473.39207   -1895.7364    34.266808   -1861.4696 
  521600    471.80426   -1894.5248    34.151873   -1860.3729 
  521800    476.95322   -1892.3071    34.524584   -1857.7825 
  522000     494.7981   -1896.2757    35.816297   -1860.4594 
  522200    478.22621   -1894.2081     34.61673   -1859.5914 
  522400    481.85409   -1893.8558    34.879337   -1858.9764 
  522600     483.6068    -1893.849    35.006208   -1858.8428 
  522800    483.35494   -1893.3564    34.987977   -1858.3684 
  523000     499.5194   -1895.0805    36.158052   -1858.9224 
  523200    450.59231   -1892.1193    32.616431   -1859.5029 
  523400    501.14921   -1893.2872    36.276027   -1857.0112 
  523600    470.15774    -1894.327    34.032689   -1860.2943 
  523800    457.06862   -1893.7436    33.085224   -1860.6584 
  524000    490.40745   -1891.5145    35.498477   -1856.0161 
  524200    490.41134    -1894.434    35.498759   -1858.9353 
  524400    473.74358   -1894.7445    34.292251   -1860.4522 
  524600    463.77501   -1891.0725     33.57067   -1857.5018 
  524800    499.07048   -1892.4622    36.125556   -1856.3367 
  525000    458.84968   -1894.2819    33.214147   -1861.0677 
  525200    480.41628   -1893.9253     34.77526     -1859.15 
  525400     505.7061   -1892.3176     36.60588   -1855.7117 
  525600    487.26385   -1895.2673    35.270925   -1859.9963 
  525800    501.03432   -1895.7441     36.26771   -1859.4764 
  526000     499.5454   -1893.7126    36.159934   -1857.5527 
  526200     472.3876   -1893.9831    34.194098    -1859.789 
  526400    505.58364   -1893.6583    36.597016   -1857.0613 
  526600    475.10437   -1892.6437    34.390753    -1858.253 
  526800    486.85509   -1894.6642    35.241338   -1859.4228 
  527000    493.74208   -1894.7277    35.739857   -1858.9878 
  527200      500.326   -1894.8124    36.216438    -1858.596 
  527400    488.68374   -1893.8279    35.373706   -1858.4542 
  527600    493.26759   -1893.1199    35.705511   -1857.4144 
  527800    461.68081   -1894.2206     33.41908   -1860.8015 
  528000    479.26926   -1893.6435    34.692232   -1858.9512 
  528200    511.49928   -1894.4851    37.025224   -1857.4599 
  528400    454.33239   -1893.1372    32.887159   -1860.2501 
  528600    514.36645   -1895.5862    37.232766   -1858.3535 
  528800    475.39434   -1894.2591    34.411743   -1859.8474 
  529000    499.50992   -1894.7648    36.157366   -1858.6074 
  529200     495.3022   -1894.0177    35.852787   -1858.1649 
  529400    470.40599   -1895.1948    34.050658   -1861.1441 
  529600    478.73393   -1893.8168    34.653482   -1859.1634 
  529800    493.06201   -1893.6785    35.690629   -1857.9878 
  530000    450.19974   -1894.1476    32.588015   -1861.5596 
  530200    499.23544   -1894.7345    36.137498    -1858.597 
  530400    495.95253   -1893.1533    35.899862   -1857.2534 
  530600    469.46782   -1893.9234    33.982748   -1859.9406 
  530800    480.31341     -1891.46    34.767813   -1856.6922 
  531000     495.5077   -1894.3673    35.867662   -1858.4997 
  531200    467.30086   -1894.6183    33.825891   -1860.7924 
  531400    496.66774    -1894.545    35.951633   -1858.5934 
  531600    480.61925   -1894.8136    34.789952   -1860.0236 
  531800    496.34163   -1891.2163    35.928027   -1855.2882 
  532000    506.76585   -1893.5445    36.682591   -1856.8619 
  532200    452.19245   -1894.9853    32.732259    -1862.253 
  532400      497.927   -1893.2461    36.042785   -1857.2033 
  532600    501.63055   -1892.3953    36.310869   -1856.0844 
  532800    464.56953   -1894.8085    33.628182   -1861.1803 
  533000    485.80666    -1893.441    35.165446   -1858.2756 
  533200    504.35394   -1892.0065    36.508003   -1855.4985 
  533400    506.66914   -1894.4002    36.675591   -1857.7246 
  533600    467.94869   -1893.4751    33.872785   -1859.6023 
  533800    482.12554   -1892.9645    34.898986   -1858.0656 
  534000    480.61201   -1892.9945    34.789428    -1858.205 
  534200    471.44066   -1893.7483    34.125553   -1859.6228 
  534400     508.7061   -1894.6301    36.823038    -1857.807 
  534600    477.42403   -1893.9449    34.558664   -1859.3862 
  534800    499.52753    -1894.404     36.15864   -1858.2454 
  535000    466.11705   -1892.5876      33.7402   -1858.8474 
  535200    483.00307    -1893.222    34.962507   -1858.2595 
  535400    494.83666   -1893.8356    35.819089   -1858.0165 
  535600    466.88034   -1893.6151    33.795451   -1859.8197 
  535800    504.91981   -1894.4591    36.548964   -1857.9101 
  536000    495.12249   -1894.3947    35.839779   -1858.5549 
  536200    505.02831   -1894.0588    36.556818    -1857.502 
  536400    496.84399   -1893.6254    35.964391    -1857.661 
  536600    487.77799   -1894.6788    35.308142   -1859.3707 
  536800    463.58719   -1894.5309    33.557074   -1860.9739 
  537000    469.19436   -1890.6955    33.962953   -1856.7326 
  537200    506.47508   -1893.1115    36.661544   -1856.4499 
  537400    474.68897   -1895.6356    34.360684   -1861.2749 
  537600      492.541   -1894.8814    35.652916   -1859.2285 
  537800    499.62298    -1893.305     36.16555   -1857.1394 
  538000     485.7984   -1894.2764    35.164848   -1859.1116 
  538200    475.78203   -1894.9947    34.439806   -1860.5549 
  538400     479.6809   -1891.8009    34.722028   -1857.0788 
  538600    502.60088   -1892.4222    36.381107   -1856.0411 
  538800    490.53564   -1895.8404    35.507757   -1860.3326 
  539000    463.48815    -1891.599    33.549906   -1858.0491 
  539200    490.96484   -1891.0258    35.538824    -1855.487 
  539400    492.12171   -1894.6162    35.622565   -1858.9936 
  539600    474.04957   -1893.8403    34.314401   -1859.5259 
  539800    488.19977   -1892.3421    35.338673   -1857.0035 
  540000    478.57318   -1893.9126    34.641845   -1859.2708 
  540200    489.99003   -1893.4242    35.468262   -1857.9559 
  540400    494.34504   -1892.9681    35.783502   -1857.1846 
  540600    460.05837   -1894.6441    33.301639   -1861.3425 
  540800    523.19117   -1892.9771    37.871549   -1855.1055 
  541000    494.96475    -1893.388    35.828361   -1857.5597 
  541200    470.00481   -1895.6591    34.021618   -1861.6375 
  541400    496.88364   -1893.9329    35.967261   -1857.9656 
  541600     487.7321   -1893.7102    35.304821   -1858.4054 
  541800    457.87149   -1892.8041     33.14334   -1859.6607 
  542000    496.26081   -1895.0649    35.922177   -1859.1427 
  542200    473.69601    -1893.366    34.288808   -1859.0772 
  542400    511.36938    -1893.486    37.015821   -1856.4702 
  542600    479.83243   -1895.5164    34.732997   -1860.7834 
  542800    496.17294   -1894.2446    35.915816   -1858.3287 
  543000    492.51959   -1890.5526    35.651366   -1854.9012 
  543200     466.2011   -1895.4371    33.746284   -1861.6908 
  543400    500.75189   -1894.4163    36.247266   -1858.1691 
  543600    507.03468   -1893.0936    36.702051   -1856.3916 
  543800     463.3422   -1893.3655    33.539341   -1859.8262 
  544000    485.17347   -1894.6264    35.119612   -1859.5068 
  544200    493.08067   -1894.2294     35.69198   -1858.5374 
  544400    511.05576   -1893.1246    36.993119   -1856.1315 
  544600    475.11311    -1894.316    34.391386   -1859.9247 
  544800    480.34614   -1894.1196    34.770182   -1859.3495 
  545000    501.77226    -1890.419    36.321127   -1854.0978 
  545200    473.37128   -1893.8611    34.265303   -1859.5957 
  545400    465.99258   -1894.3947     33.73119   -1860.6635 
  545600    493.82245   -1892.0079    35.745675   -1856.2622 
  545800    487.14577   -1892.2343    35.262378   -1856.9719 
  546000    497.32784    -1893.373    35.999414   -1857.3736 
  546200    475.52583   -1893.9044    34.421261   -1859.4831 
  546400     495.9156   -1894.6456    35.897188   -1858.7484 
  546600    487.18509   -1891.5634    35.265225   -1856.2982 
  546800    520.59233   -1894.4007     37.68343   -1856.7172 
  547000    481.09616   -1896.4618    34.824473   -1861.6373 
  547200    480.66032   -1893.0615    34.792925   -1858.2686 
  547400    501.56967   -1890.8182    36.306462   -1854.5117 
  547600    463.68996   -1894.4666    33.564513   -1860.9021 
  547800    487.98531   -1893.1895    35.323149   -1857.8663 
  548000    513.71433   -1892.0466    37.185562    -1854.861 
  548200    459.85739   -1895.8808     33.28709   -1862.5937 
  548400    490.27774   -1893.8356    35.489088   -1858.3465 
  548600    528.49136   -1890.4656    38.255207   -1852.2104 
  548800    459.26257   -1893.1046    33.244034   -1859.8605 
  549000    467.73323   -1894.8795    33.857189   -1861.0223 
  549200    519.21864   -1894.8027    37.583995   -1857.2187 
  549400    488.66493   -1894.4911    35.372344   -1859.1187 
  549600    491.19576   -1893.2061     35.55554   -1857.6506 
  549800     486.5132   -1892.0982    35.216589   -1856.8816 
  550000    484.47297   -1894.4472    35.068906   -1859.3783 
  550200    490.64227   -1893.3343    35.515475   -1857.8188 
  550400    512.19389   -1893.4329    37.075504   -1856.3574 
  550600     498.2456   -1893.8858    36.065847     -1857.82 
  550800    501.90583   -1894.8968    36.330795    -1858.566 
  551000     484.4016   -1893.2335     35.06374   -1858.1697 
  551200    484.06297   -1890.9635    35.039228   -1855.9243 
  551400    476.85359   -1893.7844    34.517372    -1859.267 
  551600    483.86072    -1893.304    35.024588   -1858.2794 
  551800    502.65799   -1892.1503    36.385241    -1855.765 
  552000    482.72614   -1892.8008    34.942461   -1857.8583 
  552200    472.98988   -1892.4451    34.237695   -1858.2074 
  552400    519.64614   -1894.0254     37.61494   -1856.4104 
  552600    459.33279   -1893.1505    33.249117   -1859.9014 
  552800    479.64495   -1890.6908    34.719426   -1855.9713 
  553000    486.90462   -1892.6384    35.244923   -1857.3935 
  553200    484.47144   -1894.1574    35.068795   -1859.0886 
  553400    515.05765   -1892.9309    37.282799   -1855.6481 
  553600    474.32358   -1893.7597    34.334236   -1859.4254 
  553800    485.96331   -1893.5114    35.176785   -1858.3347 
  554000    534.61334   -1894.6186    38.698351   -1855.9203 
  554200     493.3055   -1894.8473    35.708255    -1859.139 
  554400    486.19305   -1895.0453    35.193415   -1859.8519 
  554600    503.03103    -1894.797    36.412244   -1858.3848 
  554800    504.88301   -1892.9002    36.546301   -1856.3539 
  555000     488.0636   -1897.2323    35.328816   -1861.9035 
  555200    482.03132   -1896.8207    34.892166   -1861.9285 
  555400    524.38726   -1893.2541    37.958129   -1855.2959 
  555600    490.68535   -1895.2123    35.518593   -1859.6937 
  555800    496.87561   -1898.0435     35.96668   -1862.0768 
  556000    485.83646   -1893.6836    35.167603    -1858.516 
  556200    522.29647   -1894.4473    37.806785   -1856.6405 
  556400    476.84962   -1896.9119    34.517084   -1862.3948 
  556600    485.44972   -1895.8265    35.139609   -1860.6869 
  556800    505.73036   -1893.6694    36.607637   -1857.0618 
  557000    483.48427   -1894.2552    34.997338   -1859.2579 
  557200    497.19929   -1896.7009    35.990109   -1860.7108 
  557400    506.27086   -1895.6261    36.646761   -1858.9793 
  557600    489.28316   -1894.6555    35.417095   -1859.2384 
  557800    480.83692   -1894.6043    34.805708   -1859.7986 
  558000    484.35996   -1895.6245    35.060726   -1860.5637 
  558200    478.14378   -1894.6896    34.610764   -1860.0788 
  558400    510.01764   -1896.2214    36.917974   -1859.3034 
  558600    487.39183   -1895.9992     35.28019    -1860.719 
  558800    484.69116   -1895.6843    35.084699   -1860.5996 
  559000    484.15748     -1894.67    35.046069    -1859.624 
  559200    507.37035   -1893.5785    36.726348   -1856.8522 
  559400    480.75097   -1893.9037    34.799486   -1859.1042 
  559600    460.09359   -1894.9932    33.304188    -1861.689 
  559800    512.21279   -1896.1984    37.076872   -1859.1215 
  560000    516.05031   -1895.3998    37.354653   -1858.0452 
  560200    475.74913   -1895.7439    34.437425   -1861.3065 
  560400    527.26236    -1896.997    38.166245   -1858.8308 
  560600     505.4102   -1895.4766    36.584462   -1858.8921 
  560800    476.55495   -1896.7832    34.495755   -1862.2875 
  561000     512.5529   -1895.1797    37.101491   -1858.0782 
  561200    487.12781   -1894.6381    35.261078    -1859.377 
  561400    511.48014   -1898.1115    37.023838   -1861.0877 
  561600    518.31039   -1896.6759     37.51825   -1859.1577 
  561800    496.20822   -1894.7288     35.91837   -1858.8104 
  562000    491.56349   -1895.8496    35.582158   -1860.2675 
  562200    510.75278    -1895.681    36.971188   -1858.7098 
  562400    495.12613   -1896.2925    35.840042   -1860.4525 
  562600    476.82296   -1896.1252    34.515155     -1861.61 
  562800    511.82402   -1893.6979     37.04873   -1856.6492 
  563000    482.26775    -1895.891     34.90928   -1860.9818 
  563200    502.57815   -1897.8345    36.379462    -1861.455 
  563400    507.94966   -1893.6705    36.768282   -1856.9022 
  563600    486.89944   -1896.2085    35.244547    -1860.964 
  563800    510.21303   -1897.7869    36.932118   -1860.8548 
  564000    481.39426   -1894.9168    34.846051   -1860.0708 
  564200    485.11016   -1894.9248    35.115029   -1859.8098 
  564400    528.18988   -1896.2429    38.233384   -1858.0095 
  564600    466.99045   -1896.0531    33.803422   -1862.2497 
  564800     498.5514     -1895.74    36.087983    -1859.652 
  565000    503.41175   -1894.6209    36.439802   -1858.1811 
  565200    474.85895   -1895.5161    34.372989   -1861.1431 
  565400    494.56231    -1895.975     35.79923   -1860.1758 
  565600    509.66274   -1894.5562    36.892285   -1857.6639 
  565800    494.21135    -1896.546    35.773825   -1860.7722 
  566000    482.52415   -1896.3196    34.927839   -1861.3918 
  566200    523.01595   -1894.1183    37.858866   -1856.2594 
  566400     488.5093    -1896.709    35.361078   -1861.3479 
  566600    468.32011   -1896.6397     33.89967   -1862.7401 
  566800    501.27012   -1891.3528    36.284779   -1855.0681 
  567000    483.29191   -1894.4612    34.983414   -1859.4778 
  567200    467.11877     -1897.76     33.81271   -1863.9473 
  567400    502.25701   -1893.5115    36.356216   -1857.1553 
  567600    498.28659   -1894.5284    36.068814   -1858.4596 
  567800    479.69019   -1896.1032    34.722701   -1861.3805 
  568000    495.96475   -1896.0834    35.900746   -1860.1827 
  568200    503.50303   -1896.2474     36.44641   -1859.8009 
  568400     500.0993   -1896.6848    36.200029   -1860.4847 
  568600    491.71597   -1895.7597    35.593195   -1860.1665 
  568800    509.45833   -1894.8844    36.877488   -1858.0069 
  569000    503.95982   -1895.9607    36.479475   -1859.4812 
  569200    490.03212   -1898.5658    35.471309   -1863.0945 
  569400    475.32439    -1893.674     34.40668   -1859.2673 
  569600    504.69383   -1895.9052    36.532607   -1859.3726 
  569800    508.48672   -1897.8209    36.807158   -1861.0137 
  570000    507.82117   -1896.5339    36.758981   -1859.7749 
  570200     502.8374   -1896.3266    36.398228   -1859.9284 
  570400     513.9514   -1896.4202    37.202722   -1859.2175 
  570600    507.42214   -1897.2302    36.730097   -1860.5001 
  570800    506.97451   -1897.3977    36.697695      -1860.7 
  571000    492.87457   -1893.7647    35.677062   -1858.0877 
  571200    494.28234   -1896.2681    35.778964   -1860.4891 
  571400    508.55187   -1898.1639    36.811873    -1861.352 
  571600    526.35969   -1897.6583    38.100905   -1859.5574 
  571800    504.09801   -1895.3577    36.489478   -1858.8682 
  572000    471.50247   -1894.3518    34.130028   -1860.2218 
  572200    500.65442   -1895.0272    36.240211    -1858.787 
  572400    517.03912   -1895.3906    37.426229   -1857.9644 
  572600    496.05172   -1896.8755    35.907042   -1860.9684 
  572800    512.73559   -1896.0349    37.114715   -1858.9202 
  573000    524.63716   -1894.3778    37.976218   -1856.4016 
  573200     500.9784   -1897.6721    36.263662   -1861.4085 
  573400    507.13215   -1897.3995    36.709106   -1860.6904 
  573600    501.70888    -1894.035    36.316539   -1857.7184 
  573800    494.74547   -1895.8838    35.812488   -1860.0713 
  574000    470.97901   -1895.8111    34.092137   -1861.7189 
  574200    508.26686   -1894.9351    36.791243   -1858.1439 
  574400    519.81452   -1895.6355    37.627128   -1858.0084 
  574600    465.35425   -1893.9986    33.684985   -1860.3136 
  574800    472.78763   -1894.4319    34.223054   -1860.2088 
  575000    520.71497   -1894.3888    37.692308   -1856.6965 
  575200    492.21841   -1895.4026    35.629565    -1859.773 
  575400    501.85567   -1897.2465    36.327165   -1860.9193 
  575600    541.87377   -1895.2848    39.223902   -1856.0609 
  575800    478.08379   -1896.2293    34.606421   -1861.6229 
  576000     501.0629   -1896.7733    36.269779   -1860.5036 
  576200    502.08334   -1893.6249    36.343645   -1857.2812 
  576400    504.87466   -1895.8588    36.545696   -1859.3131 
  576600     507.9619   -1895.8512    36.769168   -1859.0821 
  576800    482.13872   -1894.9678     34.89994   -1860.0679 
  577000    506.79726   -1896.0648    36.684865   -1859.3799 
  577200    515.74527   -1897.3289    37.332573   -1859.9963 
  577400    490.98097   -1897.5935    35.539992   -1862.0535 
  577600    531.54863   -1895.5566     38.47651   -1857.0801 
  577800    505.39035   -1898.1676    36.583024   -1861.5846 
  578000    482.61306    -1898.347    34.934275   -1863.4127 
  578200    536.91248   -1896.1207    38.864776    -1857.256 
  578400    484.16903   -1897.7779    35.046905    -1862.731 
  578600    527.36597   -1899.7491    38.173745   -1861.5753 
  578800    489.56307    -1894.068    35.437356   -1858.6307 
  579000    495.21671   -1897.7478    35.846599   -1861.9012 
  579200    497.78674   -1897.6172    36.032632   -1861.5845 
  579400    515.33439   -1897.2512    37.302831   -1859.9483 
  579600    500.85713   -1897.4494    36.254884   -1861.1945 
  579800    501.19121   -1897.8443    36.279067   -1861.5653 
  580000    523.30651   -1897.8922    37.879898   -1860.0123 
  580200    507.11966   -1896.5841    36.708202   -1859.8759 
  580400    517.27584   -1899.9255    37.443364   -1862.4821 
  580600    483.97072   -1896.0952    35.032551   -1861.0626 
  580800    516.55674   -1895.3811    37.391311   -1857.9897 
  581000    492.69681   -1897.5232    35.664194   -1861.8591 
  581200    495.05358   -1898.3855    35.834791   -1862.5507 
  581400    530.45518   -1896.6821     38.39736   -1858.2847 
  581600    483.46725   -1896.9843    34.996106   -1861.9881 
  581800    481.45506   -1896.4211    34.850452   -1861.5707 
  582000    521.74324   -1895.5858     37.76674    -1857.819 
  582200    512.29137   -1898.5876    37.082559    -1861.505 
  582400    477.38173   -1896.0777    34.555601   -1861.5221 
  582600    516.54898   -1895.4523    37.390749   -1858.0615 
  582800    513.38071   -1896.7806    37.161413   -1859.6191 
  583000    508.28174   -1897.2817     36.79232   -1860.4893 
  583200    497.16437   -1898.1056    35.987582    -1862.118 
  583400    520.47174   -1897.7591    37.674701   -1860.0844 
  583600    522.81008   -1897.2956    37.843964   -1859.4517 
  583800    505.57031   -1898.5455    36.596051   -1861.9494 
  584000     502.1374    -1895.681    36.347557   -1859.3334 
  584200    516.86747   -1896.2254    37.413804   -1858.8116 
  584400    494.48419   -1899.4196    35.793575    -1863.626 
  584600    499.34569   -1896.1546    36.145478   -1860.0091 
  584800    518.05832   -1897.0631    37.500004   -1859.5631 
  585000    483.88483   -1898.0126    35.026333   -1862.9862 
  585200    520.93486    -1897.854    37.708224   -1860.1458 
  585400    527.56227   -1895.9999    38.187954    -1857.812 
  585600     476.7193   -1896.2374    34.507651   -1861.7297 
  585800    473.42162   -1897.8534    34.268946   -1863.5845 
  586000    525.40486   -1896.9147    38.031788   -1858.8829 
  586200    518.40216   -1896.9652    37.524893   -1859.4403 
  586400    480.62566   -1897.6456    34.790415   -1862.8552 
  586600    493.44021   -1896.0656    35.718006   -1860.3475 
  586800    503.04661   -1895.2745    36.413372   -1858.8611 
  587000    496.77157   -1897.5644    35.959148   -1861.6053 
  587200    473.82387   -1897.3357    34.298064   -1863.0376 
  587400    497.08824   -1893.4195    35.982071   -1857.4374 
  587600    541.03935    -1897.104    39.163502   -1857.9405 
  587800    466.56629   -1899.1067    33.772719    -1865.334 
  588000     527.9138   -1897.6444      38.2134    -1859.431 
  588200    533.36634   -1895.9404    38.608086   -1857.3324 
  588400    502.50862   -1898.0889    36.374429   -1861.7145 
  588600    511.70433   -1897.9864    37.040066   -1860.9464 
  588800    514.39974   -1895.3177    37.235176   -1858.0826 
  589000    516.68544   -1895.9153    37.400627   -1858.5147 
  589200     498.7223   -1897.7173    36.100353   -1861.6169 
  589400    504.83114   -1896.1657    36.542546   -1859.6232 
  589600    512.69214   -1895.2407     37.11157   -1858.1291 
  589800    515.37144   -1897.1318    37.305513   -1859.8263 
  590000    509.04628   -1897.7779    36.847662   -1860.9303 
  590200    495.61519   -1895.5697    35.875443   -1859.6943 
  590400     482.2994   -1894.2666    34.911571    -1859.355 
  590600    510.46549   -1897.0058    36.950392   -1860.0554 
  590800    496.67746   -1895.6339    35.952336   -1859.6816 
  591000    519.10498    -1897.154    37.575767   -1859.5782 
  591200    480.90063   -1895.7849    34.810319   -1860.9746 
  591400    532.09755   -1894.8982    38.516244    -1856.382 
  591600     506.9706   -1895.8408    36.697412   -1859.1434 
  591800     536.6874   -1898.4379    38.848483   -1859.5894 
  592000    505.95535   -1895.5552    36.623923   -1858.9313 
  592200    507.26029   -1896.1914    36.718381    -1859.473 
  592400    512.78602   -1897.3514    37.118366   -1860.2331 
  592600    488.57397   -1896.2709    35.365759   -1860.9051 
  592800    520.11516   -1894.8266     37.64889   -1857.1777 
  593000    492.73432    -1897.211    35.666909   -1861.5441 
  593200    494.87578   -1898.8078    35.821921   -1862.9859 
  593400    524.62232   -1896.9401    37.975144    -1858.965 
  593600    512.81059   -1896.1356    37.120144   -1859.0155 
  593800    514.35064   -1898.7144    37.231621   -1861.4828 
  594000    500.53833   -1896.9934    36.231808   -1860.7615 
  594200    538.25956   -1895.8907    38.962285   -1856.9284 
  594400    527.19838   -1899.8754    38.161614   -1861.7138 
  594600    485.83945   -1898.4675     35.16782   -1863.2996 
  594800    540.99949   -1895.6298    39.160616   -1856.4691 
  595000    514.55111   -1896.7917    37.246133   -1859.5456 
  595200    481.53494   -1898.7643    34.856235   -1863.9081 
  595400    531.24816   -1897.6658     38.45476   -1859.2111 
  595600     516.7434   -1895.5922    37.404823   -1858.1874 
  595800    509.46821   -1897.9863    36.878204   -1861.1081 
  596000    536.16604   -1899.3324    38.810744   -1860.5217 
  596200    488.69252    -1896.186    35.374341   -1860.8117 
  596400    545.75155   -1899.3859    39.504598   -1859.8813 
  596600    510.74695   -1896.6177    36.970766   -1859.6469 
  596800     501.4169   -1898.1642    36.295404   -1861.8688 
  597000    516.79747   -1896.7635    37.408737   -1859.3548 
  597200    508.74558   -1894.9736    36.825895   -1858.1477 
  597400    503.39461   -1894.6298    36.438562   -1858.1912 
  597600    509.56191    -1896.292    36.884986    -1859.407 
  597800    484.22456   -1897.7954    35.050925   -1862.7445 
  598000    529.06298    -1895.908    38.296584   -1857.6114 
  598200     510.8264   -1895.2626    36.976517   -1858.2861 
  598400    474.26549   -1897.6321     34.33003    -1863.302 
  598600    534.61858   -1895.5711     38.69873   -1856.8724 
  598800    545.44105   -1897.2282    39.482122   -1857.7461 
  599000      461.451   -1897.1307    33.402445   -1863.7282 
  599200    521.34849    -1897.514    37.738166   -1859.7758 
  599400    514.94842   -1893.4904    37.274892   -1856.2156 
  599600    492.73105   -1897.4554    35.666672   -1861.7887 
  599800    528.95149   -1897.9191    38.288514   -1859.6306 
  600000     516.2403   -1896.3329    37.368406   -1858.9645 
  600200    502.26307   -1897.4919    36.356654   -1861.1352 
  600400    514.67248   -1898.5034    37.254918   -1861.2484 
  600600    514.46744   -1896.7289    37.240076   -1859.4888 
  600800    524.10581   -1897.5622    37.937756   -1859.6245 
  601000    517.23965   -1899.2575    37.440745   -1861.8168 
  601200    525.51988   -1898.2228    38.040115   -1860.1827 
  601400    527.60385   -1896.9371    38.190964   -1858.7462 
  601600    497.57138   -1897.0658    36.017044   -1861.0487 
  601800    509.79957   -1897.6321    36.902189   -1860.7299 
  602000    517.07132   -1895.8031     37.42856   -1858.3746 
  602200     506.7157   -1897.0395    36.678961   -1860.3605 
  602400    481.81614   -1897.6112     34.87659   -1862.7346 
  602600    509.02888   -1895.0507    36.846402   -1858.2043 
  602800    534.10808   -1897.8107    38.661777   -1859.1489 
  603000    480.56226   -1897.1379    34.785826   -1862.3521 
  603200    526.46423   -1896.0217    38.108472   -1857.9132 
  603400     497.9229   -1894.6863    36.042488   -1858.6438 
  603600    478.38027   -1895.5488    34.627882   -1860.9209 
  603800     511.6582   -1896.3513    37.036728   -1859.3146 
  604000    475.88357   -1894.1651    34.447156    -1859.718 
  604200    506.12399   -1897.3733     36.63613   -1860.7372 
  604400    481.44896   -1896.6627    34.850011   -1861.8127 
  604600    545.06417     -1894.49    39.454842   -1855.0352 
  604800    528.89986   -1897.8364    38.284776   -1859.5516 
  605000    504.92525   -1900.9384    36.549358   -1864.3891 
  605200     530.0051    -1894.815     38.36478   -1856.4502 
  605400     530.6102    -1896.251    38.408581   -1857.8424 
  605600    468.75288   -1897.8826    33.930996   -1863.9516 
  605800    530.71264   -1896.7547    38.415996   -1858.3387 
  606000    515.64178   -1895.1514    37.325081   -1857.8263 
  606200    495.38859   -1897.9051    35.859041   -1862.0461 
  606400    517.94029   -1897.0973    37.491461   -1859.6058 
  606600    512.65028   -1896.5012     37.10854   -1859.3927 
  606800    495.58306   -1897.1091    35.873117    -1861.236 
  607000    507.97288   -1896.3601    36.769963   -1859.5901 
  607200    498.57234   -1896.2104    36.089498   -1860.1209 
  607400    519.00451   -1896.7505    37.568495    -1859.182 
  607600    524.00864   -1897.0616    37.930722   -1859.1309 
  607800    514.42617   -1899.2351    37.237089   -1861.9981 
  608000    513.67636   -1895.6129    37.182813   -1858.4301 
  608200     534.3231   -1898.1885    38.677342   -1859.5111 
  608400    484.77377   -1898.7636     35.09068   -1863.6729 
  608600     520.5111   -1894.0446     37.67755    -1856.367 
  608800    517.72603    -1893.988    37.475951   -1856.5121 
  609000    482.27563   -1898.6061     34.90985   -1863.6963 
  609200    513.46228   -1894.4871    37.167317   -1857.3198 
  609400    508.94121   -1895.1119    36.840056   -1858.2718 
  609600    494.05446   -1898.3544    35.762469   -1862.5919 
  609800    498.70543    -1894.906    36.099132   -1858.8068 
  610000    524.38612   -1894.1895    37.958047   -1856.2315 
  610200     497.4419   -1897.4823     36.00767   -1861.4746 
  610400    490.56619   -1898.3307    35.509968   -1862.8207 
  610600    538.09306   -1895.3262    38.950232    -1856.376 
  610800    520.47764     -1895.82    37.675129   -1858.1449 
  611000    480.44259   -1896.5124    34.777164   -1861.7353 
  611200    527.30008    -1895.354    38.168975    -1857.185 
  611400    502.11201   -1895.3709     36.34572   -1859.0252 
  611600    509.75434   -1897.9024    36.898915   -1861.0035 
  611800    533.78584   -1897.7249    38.638452   -1859.0864 
  612000    496.79846   -1895.4828    35.961095   -1859.5217 
  612200     519.7562   -1895.2959    37.622906    -1857.673 
  612400    500.71222   -1898.1321    36.244395   -1861.8877 
  612600    522.53512   -1897.3059    37.824061   -1859.4819 
  612800    527.18306   -1895.8447    38.160505   -1857.6842 
  613000    486.45343   -1896.3247    35.212263   -1861.1124 
  613200    544.78962   -1895.8843    39.434968   -1856.4494 
  613400    498.40134   -1897.6805    36.077121   -1861.6034 
  613600    509.88766    -1897.395    36.908566   -1860.4864 
  613800    551.48161   -1894.0586    39.919372   -1854.1392 
  614000    476.05164   -1895.6057    34.459322   -1861.1464 
  614200    536.72789   -1899.2095    38.851414   -1860.3581 
  614400    530.20194   -1896.0244    38.379029   -1857.6454 
  614600    511.97934   -1896.3571    37.059973   -1859.2971 
  614800    521.26444   -1896.1964    37.732081   -1858.4643 
  615000    510.27098   -1898.4661    36.936312   -1861.5297 
  615200    514.68346   -1896.5405    37.255713   -1859.2847 
  615400    542.85683   -1895.5596    39.295061   -1856.2646 
  615600    471.97702   -1897.2853    34.164378   -1863.1209 
  615800    511.52321   -1895.8779    37.026956    -1858.851 
  616000    540.21839   -1894.9876    39.104076   -1855.8836 
  616200    483.76588   -1898.4363    35.017723   -1863.4186 
  616400    516.72481   -1896.5993    37.403477   -1859.1958 
  616600     542.8722   -1895.6936    39.296174   -1856.3975 
  616800    504.71169   -1896.7066    36.533899   -1860.1727 
  617000    502.08086   -1896.0262    36.343465   -1859.6828 
  617200    518.05745   -1896.7481    37.499942   -1859.2482 
  617400    536.28845   -1896.5878    38.819605   -1857.7682 
  617600    517.25402   -1896.2531    37.441785   -1858.8113 
  617800    517.85762    -1899.113    37.485477   -1861.6275 
  618000    536.91623   -1897.6043    38.865047   -1858.7392 
  618200    514.87913    -1894.599    37.269877   -1857.3292 
  618400    507.27088   -1898.0217    36.719148   -1861.3025 
  618600    499.38337   -1896.5211    36.148205   -1860.3729 
  618800    520.87204   -1893.7932    37.703678   -1856.0896 
  619000    532.99926   -1897.6576    38.581515   -1859.0761 
  619200    515.07289   -1899.3557    37.283902   -1862.0717 
  619400    467.78759   -1893.9411    33.861124     -1860.08 
  619600    526.60588   -1894.7397    38.118725    -1856.621 
  619800    509.41892   -1893.8272    36.874635   -1856.9525 
  620000    504.43235   -1897.9117    36.513679    -1861.398 
  620200    498.90506   -1896.7295    36.113583    -1860.616 
  620400    525.23569   -1893.5694    38.019544   -1855.5499 
  620600    504.83218   -1895.2398    36.542621   -1858.6972 
  620800    500.00875   -1897.3197    36.193474   -1861.1262 
  621000    519.18857    -1895.984    37.581818   -1858.4022 
  621200     528.3588   -1893.4822    38.245612   -1855.2365 
  621400    510.93882   -1897.0877    36.984655    -1860.103 
  621600    462.65854   -1895.6017    33.489853   -1862.1118 
  621800    552.58629   -1894.1617    39.999335   -1854.1624 
  622000    533.88213   -1896.1296    38.645422   -1857.4842 
  622200    511.47703   -1898.4141    37.023613   -1861.3905 
  622400    547.12065   -1896.6637    39.603701     -1857.06 
  622600    483.52938   -1892.7542    35.000604   -1857.7536 
  622800    530.24836   -1896.0916    38.382389   -1857.7092 
  623000    501.26534   -1895.9069    36.284433   -1859.6224 
  623200    506.01593   -1894.9524    36.628308   -1858.3241 
  623400    532.11849   -1895.9693     38.51776   -1857.4516 
  623600    522.08336   -1896.6947     37.79136   -1858.9033 
  623800    545.70988   -1896.2425    39.501581   -1856.7409 
  624000    522.54183   -1895.8478    37.824547   -1858.0233 
  624200    511.91337   -1898.7159    37.055198   -1861.6607 
  624400    522.46936   -1895.1166      37.8193   -1857.2973 
  624600    557.81695   -1896.6385     40.37796   -1856.2605 
  624800    502.88311   -1897.2993    36.401536   -1860.8978 
  625000    519.81741   -1892.9419    37.627337   -1855.3146 
  625200    516.12426   -1894.7247    37.360006   -1857.3647 
  625400    484.47087   -1896.4446    35.068754   -1861.3758 
  625600    557.27301    -1895.836    40.338586   -1855.4974 
  625800    520.59685   -1894.8737    37.683758   -1857.1899 
  626000    494.32649   -1894.1172     35.78216    -1858.335 
  626200    516.78502   -1893.5271    37.407835   -1856.1193 
  626400    499.82471   -1894.7325    36.180152   -1858.5523 
  626600    507.32532   -1895.3492    36.723089   -1858.6261 
  626800    549.46362   -1897.4519    39.773299   -1857.6786 
  627000    519.09971   -1898.0569    37.575386   -1860.4815 
  627200      495.823   -1894.6341    35.890486   -1858.7436 
  627400     549.5143   -1895.7187    39.776967   -1855.9417 
  627600    499.23702   -1896.8606    36.137612    -1860.723 
  627800    510.70905   -1895.2134    36.968022   -1858.2453 
  628000     537.9084   -1894.6293    38.936866   -1855.6924 
  628200    502.12047   -1896.3512    36.346332   -1860.0049 
  628400    527.73611   -1896.5467    38.200538   -1858.3462 
  628600    522.85539   -1896.7954    37.847244   -1858.9481 
  628800    516.88839    -1895.885    37.415318   -1858.4697 
  629000    510.03588   -1893.7098    36.919295   -1856.7905 
  629200    502.43111   -1895.5476    36.368818   -1859.1788 
  629400    534.54811   -1895.5697    38.693629   -1856.8761 
  629600    520.95048   -1897.2363    37.709356    -1859.527 
  629800    480.08483   -1895.8401    34.751268   -1861.0888 
  630000    557.14604   -1896.2206    40.329396   -1855.8912 
  630200    510.45015   -1897.3225    36.949282   -1860.3733 
  630400    524.14551   -1896.3544     37.94063   -1858.4137 
  630600    534.66821   -1893.4146    38.702322   -1854.7123 
  630800     507.2027   -1898.5704    36.714213   -1861.8562 
  631000    497.58773    -1896.767    36.018227   -1860.7488 
  631200    544.45845   -1894.0804    39.410996   -1854.6694 
  631400    513.79006   -1896.4987    37.191044   -1859.3077 
  631600    523.28115   -1898.7991    37.878062    -1860.921 
  631800    520.10341   -1895.6065    37.648039   -1857.9585 
  632000    551.02984   -1895.1903     39.88667   -1855.3036 
  632200    522.78327    -1898.461    37.842023   -1860.6189 
  632400    504.30475   -1896.9392    36.504443   -1860.4348 
  632600    538.83259   -1892.3232    39.003764   -1853.3195 
  632800    516.93556   -1895.4161    37.418733   -1857.9974 
  633000     501.1514   -1897.5167    36.276185   -1861.2405 
  633200     532.1103   -1893.5401    38.517166   -1855.0229 
  633400    520.46028   -1893.0871    37.673872   -1855.4132 
  633600     489.0703   -1896.0506    35.401687    -1860.649 
  633800    543.13847    -1898.312    39.315448   -1858.9965 
  634000    507.43536   -1894.3681    36.731055   -1857.6371 
  634200     526.3223   -1894.7883    38.098198   -1856.6901 
  634400    502.48717   -1897.1362    36.372876   -1860.7633 
  634600    510.62713   -1895.8919    36.962093   -1858.9298 
  634800    537.38944   -1893.4367    38.899301   -1854.5374 
  635000    508.75815   -1894.6576    36.826806   -1857.8308 
  635200    523.85903   -1897.8663    37.919893   -1859.9464 
  635400    533.61614    -1896.533    38.626168   -1857.9068 
  635600    542.68234    -1895.157    39.282431   -1855.8746 
  635800    529.90901      -1896.9    38.357825   -1858.5422 
  636000    521.93171   -1896.4977    37.780382   -1858.7173 
  636200    554.10868   -1896.1777    40.109535   -1856.0682 
  636400    512.28036   -1895.6475    37.081763   -1858.5657 
  636600    535.49977   -1897.0462    38.762516   -1858.2837 
  636800    548.87196   -1894.7702    39.730471   -1855.0397 
  637000    496.27739   -1895.3479    35.923377   -1859.4246 
  637200    530.16796   -1898.0827    38.376569   -1859.7061 
  637400    522.65651   -1894.6224    37.832847   -1856.7895 
  637600    513.08125   -1894.9124    37.139736   -1857.7726 
  637800     489.2343   -1893.6925    35.413558    -1858.279 
  638000     522.2442   -1895.8994    37.803002   -1858.0963 
  638200     506.5864   -1893.4999    36.669601   -1856.8303 
  638400    519.55157   -1894.5873    37.608095   -1856.9792 
  638600    528.93202   -1898.4541    38.287104    -1860.167 
  638800    536.88206   -1896.8011    38.862574   -1857.9386 
  639000    540.91954   -1896.2908    39.154829    -1857.136 
  639200    528.81514    -1896.132    38.278644   -1857.8534 
  639400     549.8862   -1896.1931    39.803887   -1856.3892 
  639600     527.3464   -1896.8348    38.172329   -1858.6625 
  639800    507.49315    -1894.463    36.735238   -1857.7278 
  640000    509.44444   -1894.2746    36.876483   -1857.3981 
  640200    514.42801   -1893.7424    37.237222   -1856.5052 
  640400    516.51816   -1893.1621    37.388519   -1855.7736 
  640600    525.67998   -1897.7483    38.051703   -1859.6966 
  640800     536.5401   -1896.1357    38.837821   -1857.2979 
  641000    538.56009   -1895.4395    38.984039   -1856.4554 
  641200    515.61399   -1895.4617     37.32307   -1858.1386 
  641400    535.96129   -1894.0901    38.795923   -1855.2942 
  641600    526.55216   -1896.2506    38.114837   -1858.1358 
  641800    503.60132   -1895.7675    36.453525    -1859.314 
  642000    512.82596   -1893.7886    37.121256   -1856.6674 
  642200    523.05633   -1895.3094    37.861789   -1857.4476 
  642400    539.40772   -1896.2099    39.045395   -1857.1646 
  642600    531.54569   -1897.0444    38.476297   -1858.5681 
  642800     520.0819   -1894.6544    37.646483   -1857.0079 
  643000    536.27658   -1895.5024    38.818746   -1856.6837 
  643200    496.25596   -1895.2822    35.921826   -1859.3604 
  643400    525.06167   -1894.3136    38.006946   -1856.3066 
  643600     519.4128   -1895.6482    37.598049   -1858.0501 
  643800    521.03201   -1897.5794    37.715257   -1859.8642 
  644000    569.59752   -1894.8339    41.230704   -1853.6032 
  644200    515.56225   -1895.8999    37.319324   -1858.5805 
  644400    511.24345   -1898.1035    37.006705   -1861.0968 
  644600    545.45304   -1893.9185     39.48299   -1854.4355 
  644800    545.56468   -1894.8286    39.491071   -1855.3375 
  645000     495.2443   -1895.9615    35.848596    -1860.113 
  645200    524.87203   -1895.4744     37.99322   -1857.4812 
  645400    556.64223    -1894.621    40.292927   -1854.3281 
  645600    517.31823   -1895.4226    37.446432   -1857.9762 
  645800    520.34661    -1897.164    37.665644   -1859.4984 
  646000    545.68931    -1894.409    39.500092   -1854.9089 
  646200    519.05175   -1894.7741    37.571915   -1857.2022 
  646400    523.53757    -1896.005    37.896623   -1858.1084 
  646600    528.87377   -1895.9567    38.282888   -1857.6738 
  646800     537.1844   -1896.1774    38.884459   -1857.2929 
  647000    496.54934   -1895.9168    35.943062   -1859.9738 
  647200    554.03774   -1896.6006    40.104399   -1856.4962 
  647400    534.82762   -1895.7274    38.713862   -1857.0136 
  647600    507.51603   -1895.4454    36.736893   -1858.7085 
  647800    549.75751   -1895.7652    39.794572   -1855.9706 
  648000    513.88609   -1893.1828    37.197994   -1855.9848 
  648200    509.74053   -1893.0561    36.897915   -1856.1582 
  648400    555.00031   -1896.6165    40.174076   -1856.4425 
  648600    497.74394    -1896.273    36.029534   -1860.2435 
  648800    539.20658   -1894.3695    39.030836   -1855.3387 
  649000    550.87965   -1894.0882    39.875799   -1854.2124 
  649200    498.57042   -1896.4575     36.08936   -1860.3681 
  649400    525.07275   -1893.6864    38.007749   -1855.6786 
  649600    527.79416   -1892.6488     38.20474   -1854.4441 
  649800    509.63489   -1897.9017    36.890269   -1861.0114 
  650000    535.04822   -1896.6595     38.72983   -1857.9296 
  650200    543.57616   -1893.7352     39.34713   -1854.3881 
  650400    549.32895   -1894.9842     39.76355   -1855.2206 
  650600    510.01206   -1896.6852     36.91757   -1859.7676 
  650800    518.75047   -1895.2553    37.550106   -1857.7052 
  651000    544.42974    -1893.166    39.408918   -1853.7571 
  651200    509.79856   -1894.7415    36.902116   -1857.8394 
  651400    518.07761   -1896.0041      37.5014   -1858.5027 
  651600    537.81077   -1893.4641    38.929799   -1854.5343 
  651800    543.37752   -1895.3515    39.332752   -1856.0187 
  652000    524.66147   -1896.4917    37.977978   -1858.5137 
  652200     540.1651   -1894.9302    39.100219     -1855.83 
  652400    519.55895   -1895.0255    37.608628   -1857.4169 
  652600    542.80725   -1895.8753    39.291473   -1856.5838 
  652800     502.0276   -1893.1658     36.33961   -1856.8261 
  653000      552.157   -1896.5559    39.968261   -1856.5876 
  653200    538.56869   -1894.9546    38.984661     -1855.97 
  653400    528.52065   -1895.9382    38.257327   -1857.6809 
  653600    539.03242   -1895.7818    39.018229   -1856.7636 
  653800    534.02001   -1893.8051    38.655402   -1855.1497 
  654000    523.33048   -1893.5203    37.881633   -1855.6386 
  654200    529.70672   -1895.3372    38.343182    -1856.994 
  654400    518.59052   -1895.8451    37.538528   -1858.3065 
  654600    533.41207   -1895.5428    38.611396   -1856.9314 
  654800    550.36984   -1895.5231    39.838896   -1855.6842 
  655000     487.3285   -1895.3408    35.275605   -1860.0652 
  655200     548.7433   -1896.5684    39.721157   -1856.8472 
  655400    524.34092   -1894.2614    37.954775   -1856.3067 
  655600     512.0006   -1896.7565    37.061512    -1859.695 
  655800    541.68293   -1894.4274    39.210088   -1855.2173 
  656000    510.70169   -1894.2863     36.96749   -1857.3188 
  656200    538.43344   -1897.2709    38.974872   -1858.2961 
  656400    536.66649   -1895.8601    38.846969   -1857.0132 
  656600    533.70172   -1896.3134    38.632363    -1857.681 
  656800    539.15425   -1894.1679    39.027048   -1855.1409 
  657000    514.28654   -1895.5984    37.226982   -1858.3714 
  657200    521.54113   -1895.1382     37.75211   -1857.3861 
  657400    507.51629   -1892.9682    36.736913   -1856.2312 
  657600    517.30497   -1895.7974    37.445473   -1858.3519 
  657800    532.67407   -1895.9025    38.557976   -1857.3445 
  658000    545.35301   -1896.3698    39.475749   -1856.8941 
  658200    547.88247   -1896.6631    39.658846   -1857.0042 
  658400    536.40257   -1895.8606    38.827866   -1857.0328 
  658600    525.50711   -1896.0943     38.03919   -1858.0551 
  658800    506.23938   -1893.9728    36.644482   -1857.3283 
  659000    530.02433   -1891.4998    38.366173   -1853.1337 
  659200    511.91734   -1895.2326    37.055485   -1858.1771 
  659400    529.83486   -1897.2054    38.352457    -1858.853 
  659600    563.33906   -1892.9412    40.777681   -1852.1635 
  659800    504.68786   -1897.0321    36.532175   -1860.4999 
  660000    534.56329   -1897.5662    38.694728   -1858.8715 
  660200    567.13297   -1895.8617    41.052307   -1854.8094 
  660400    519.93097   -1894.0144    37.635558   -1856.3788 
  660600    554.98576   -1896.1887    40.173023   -1856.0157 
  660800    517.15033   -1897.1182    37.434279   -1859.6839 
  661000    544.81571   -1894.7404    39.436856   -1855.3035 
  661200    542.25144   -1893.4562     39.25124    -1854.205 
  661400    513.19362   -1896.3952     37.14787   -1859.2473 
  661600    553.62231    -1896.803    40.074328   -1856.7286 
  661800    536.69142   -1894.6032    38.848774   -1855.7545 
  662000    514.98824   -1897.1792    37.277775   -1859.9014 
  662200    535.43611   -1893.8586    38.757907   -1855.1007 
  662400    537.99161   -1892.0686    38.942889   -1853.1257 
  662600    509.55668   -1895.4839    36.884607   -1858.5993 
  662800     513.2193   -1895.6144    37.149728   -1858.4647 
  663000    541.29465   -1894.3426    39.181982   -1855.1607 
  663200     521.4301   -1891.7192    37.744073   -1853.9752 
  663400    513.95368   -1894.2281    37.202887   -1857.0252 
  663600    540.52977   -1898.2618    39.126616   -1859.1352 
  663800    543.87258    -1893.871    39.368587   -1854.5024 
  664000    559.30379   -1892.9369    40.485586   -1852.4513 
  664200    528.31337   -1895.4586    38.242323   -1857.2163 
  664400    525.02287   -1895.7415    38.004138   -1857.7374 
  664600    536.60714   -1893.9968    38.842673   -1855.1541 
  664800    529.88323   -1894.8389    38.355959    -1856.483 
  665000    496.65568    -1896.199     35.95076   -1860.2483 
  665200    555.68069   -1894.3338    40.223325   -1854.1105 
  665400    526.58985   -1891.6099    38.117565   -1853.4923 
  665600    500.14439   -1894.1281    36.203292   -1857.9248 
  665800    522.32085    -1895.325     37.80855   -1857.5165 
  666000     534.4149    -1892.331    38.683987    -1853.647 
  666200    520.36077   -1893.9274    37.666669   -1856.2607 
  666400    509.84106   -1896.3424    36.905192   -1859.4372 
  666600    539.69597   -1894.0294     39.06626   -1854.9631 
  666800    534.31865   -1894.7227     38.67702   -1856.0457 
  667000    516.86529   -1896.0484    37.413646   -1858.6347 
  667200    550.86512   -1894.4333    39.874747   -1854.5586 
  667400    509.98156   -1894.1231    36.915363   -1857.2077 
  667600    546.38898   -1893.5632    39.550738   -1854.0125 
  667800    541.84496   -1895.1735    39.221817   -1855.9516 
  668000     506.6901   -1896.1495    36.677108   -1859.4724 
  668200    564.09188   -1893.2644    40.832175   -1852.4322 
  668400    536.65261    -1894.554    38.845965    -1855.708 
  668600    504.77719   -1895.3918    36.538641   -1858.8532 
  668800     539.2795   -1892.6131    39.036114   -1853.5769 
  669000    542.23567   -1893.9311    39.250098    -1854.681 
  669200    535.73678    -1896.357    38.779672   -1857.5773 
  669400    542.17851   -1894.6789    39.245961   -1855.4329 
  669600    531.63783    -1893.812    38.482967    -1855.329 
  669800    521.28652   -1895.2769     37.73368   -1857.5433 
  670000    550.19588   -1893.5583    39.826304    -1853.732 
  670200      540.519   -1893.8516    39.125836   -1854.7257 
  670400    535.79034   -1896.4833    38.783549   -1857.6997 
  670600    517.77529   -1892.3808    37.479517   -1854.9012 
  670800    531.16376   -1894.7397    38.448651   -1856.2911 
  671000    494.86727   -1895.1744    35.821304    -1859.353 
  671200    553.92756   -1894.0384    40.096424    -1853.942 
  671400    525.86582   -1895.2229    38.065156   -1857.1577 
  671600    554.92037   -1897.5812    40.168289   -1857.4129 
  671800    542.86138   -1894.4052    39.295391   -1855.1098 
  672000    541.48697   -1894.9012    39.195903   -1855.7053 
  672200     544.9317   -1896.2229    39.445252   -1856.7776 
  672400    556.58867   -1895.3274     40.28905   -1855.0384 
  672600    503.51184     -1894.33    36.447048    -1857.883 
  672800    542.99826   -1895.4101    39.305299   -1856.1048 
  673000     548.1209   -1894.6567    39.676104   -1854.9806 
  673200    527.92668   -1895.9047    38.214332   -1857.6904 
  673400    552.06712   -1895.0117    39.961755   -1855.0499 
  673600    532.08683   -1895.5615    38.515468    -1857.046 
  673800    527.13199   -1895.2291    38.156808   -1857.0723 
  674000    540.87539    -1893.447    39.151633   -1854.2954 
  674200     509.7773   -1892.9632    36.900577   -1856.0626 
  674400    530.62429   -1895.5326    38.409601    -1857.123 
  674600    530.89159   -1892.7515     38.42895   -1854.3225 
  674800    564.69457    -1895.035    40.875801   -1854.1592 
  675000    518.48469   -1896.2116    37.530867   -1858.6808 
  675200    540.13455   -1895.0575    39.098007   -1855.9595 
  675400    531.36314   -1894.1056    38.463083   -1855.6425 
  675600    541.29819   -1893.6831    39.182238   -1854.5008 
  675800    560.14335   -1895.4766    40.546358   -1854.9303 
  676000    542.77312    -1896.866    39.289002    -1857.577 
  676200    535.76725   -1895.3555    38.781877   -1856.5737 
  676400     577.4576   -1895.0506    41.799662   -1853.2509 
  676600    527.82543   -1894.6051    38.207003   -1856.3981 
  676800    516.16883    -1895.068    37.363232   -1857.7048 
  677000    547.00765   -1894.1188    39.595521   -1854.5233 
  677200    533.08958   -1895.0461    38.588052    -1856.458 
  677400    491.28162    -1894.099    35.561755   -1858.5373 
  677600    539.48582   -1893.7917    39.051048   -1854.7407 
  677800    559.10243   -1893.2268     40.47101   -1852.7558 
  678000    532.04747    -1895.722    38.512619   -1857.2094 
  678200    527.10637    -1895.411    38.154954    -1857.256 
  678400    539.01336   -1893.3605     39.01685   -1854.3436 
  678600    544.84677   -1894.3614    39.439104   -1854.9223 
  678800    517.97434   -1894.6937    37.493925   -1857.1997 
  679000    547.97298    -1895.788    39.665397   -1856.1226 
  679200    528.06675   -1893.8291    38.224472   -1855.6046 
  679400    507.20945   -1893.7576    36.714701   -1857.0429 
  679600       534.86   -1894.3721    38.716206   -1855.6559 
  679800    547.38211   -1894.2624    39.622627   -1854.6397 
  680000    509.90439   -1893.9057    36.909776    -1856.996 
  680200    531.55149   -1894.9563    38.476716   -1856.4796 
  680400    549.07033    -1891.807     39.74483   -1852.0621 
  680600    544.21593      -1892.9    39.393441   -1853.5065 
  680800    523.81933   -1897.0022    37.917019   -1859.0852 
  681000    527.10208   -1894.0022    38.154643   -1855.8475 
  681200     543.5408   -1891.1778    39.344571   -1851.8332 
  681400    532.13255   -1893.7803    38.518777   -1855.2616 
  681600    523.28719   -1894.8566    37.878499   -1856.9781 
  681800     551.6575   -1894.1832    39.932104   -1854.2511 
  682000    520.27756   -1892.9258    37.660646   -1855.2652 
  682200    539.96979   -1892.5743    39.086081   -1853.4882 
  682400    537.24061    -1894.208    38.888527   -1855.3195 
  682600    514.76925    -1895.558    37.261923   -1858.2961 
  682800    551.87265   -1891.7716    39.947678   -1851.8239 
  683000    567.05234   -1893.1945     41.04647    -1852.148 
  683200    507.10263   -1895.2686     36.70697   -1858.5616 
  683400    564.26395   -1894.6889     40.84463   -1853.8442 
  683600    565.63849   -1895.0248    40.944127   -1854.0807 
  683800    512.85827   -1895.5535    37.123595   -1858.4299 
  684000    551.28673   -1893.3705    39.905265   -1853.4652 
  684200    518.98352   -1890.4586    37.566976   -1852.8917 
  684400    529.58008   -1894.4712    38.334015   -1856.1372 
  684600    544.98198    -1894.647    39.448892   -1855.1981 
  684800    567.04284   -1893.1182    41.045782   -1852.0724 
  685000    518.12758   -1895.5132    37.505018   -1858.0082 
  685200    555.72982   -1896.1676    40.226882   -1855.9407 
  685400    539.70177   -1891.5309     39.06668   -1852.4642 
  685600    528.93606   -1894.2084    38.287397    -1855.921 
  685800    526.36074   -1894.2874    38.100981   -1856.1864 
  686000    532.10853   -1892.0758    38.517038   -1853.5587 
  686200    555.15884    -1893.968    40.185551   -1853.7825 
  686400    513.68176   -1895.1967    37.183204   -1858.0135 
  686600    551.91825    -1893.791    39.950979     -1853.84 
  686800     575.3402   -1891.0287    41.646392   -1849.3823 
  687000    523.97213    -1896.213    37.928079   -1858.2849 
  687200    531.66524   -1895.3965    38.484951   -1856.9115 
  687400     581.0095   -1890.7132    42.056768   -1848.6564 
  687600    507.59387   -1894.0126    36.742528   -1857.2701 
  687800    524.60034    -1896.098    37.973553   -1858.1244 
  688000    547.24279   -1891.1964    39.612542   -1851.5838 
  688200    516.52494   -1892.3222     37.38901   -1854.9332 
  688400    529.29049   -1895.1047    38.313053   -1856.7916 
  688600    530.43138   -1892.5576    38.395636   -1854.1619 
  688800     574.4956   -1891.5627    41.585255   -1849.9775 
  689000     548.4331   -1895.6492    39.698704   -1855.9505 
  689200     531.0757   -1895.6778    38.442276   -1857.2355 
  689400    542.20762   -1890.4144    39.248068   -1851.1663 
  689600    557.15876   -1893.8892    40.330316   -1853.5589 
  689800    544.25871   -1895.1952    39.396538   -1855.7986 
  690000    551.16264   -1893.6954    39.896283   -1853.7991 
  690200    525.75737   -1892.9419    38.057305   -1854.8846 
  690400    574.65628   -1895.9371    41.596886   -1854.3402 
  690600    525.50703   -1896.1835    38.039184   -1858.1443 
  690800    544.65207   -1894.1243    39.425011   -1854.6993 
  691000    544.33989   -1892.0031    39.402414   -1852.6006 
  691200    517.47573   -1896.3139    37.457833   -1858.8561 
  691400    525.71445   -1892.9912    38.054199    -1854.937 
  691600    571.73131   -1891.0271    41.385161    -1849.642 
  691800    513.92841   -1895.1077    37.201058   -1857.9067 
  692000    509.02813   -1894.4241    36.846348   -1857.5777 
  692200    556.07125   -1891.7441    40.251597   -1851.4925 
  692400    550.49583    -1893.794    39.848016    -1853.946 
  692600     534.3245    -1897.475    38.677443   -1858.7975 
  692800     546.1435   -1894.8581    39.532969   -1855.3251 
  693000    560.24614   -1892.1617    40.553799   -1851.6079 
  693200    535.57655   -1894.4521    38.768073    -1855.684 
  693400    527.52652   -1896.1857    38.185366   -1858.0003 
  693600    574.76645   -1893.8446    41.604861   -1852.2398 
  693800    561.52062   -1894.7283    40.646053   -1854.0823 
  694000    520.42147    -1896.952    37.671063   -1859.2809 
  694200    553.36783   -1894.4135    40.055908   -1854.3576 
  694400    571.28424   -1893.3161    41.352799   -1851.9633 
  694600    524.54132   -1894.9751    37.969281   -1857.0058 
  694800    556.47296   -1895.5691    40.280674   -1855.2884 
  695000    595.03505   -1895.6882    43.072017   -1852.6162 
  695200    542.88197   -1894.3804    39.296881   -1855.0835 
  695400    544.03618   -1894.1572    39.380429   -1854.7768 
  695600    558.76174   -1893.8904    40.446349   -1853.4441 
  695800    537.64205   -1895.0109    38.917586   -1856.0934 
  696000    534.15692   -1891.2884    38.665313   -1852.6231 
  696200    555.04504   -1892.6202    40.177313   -1852.4429 
  696400    534.59174   -1896.6947    38.696788    -1857.998 
  696600     556.8235   -1894.5334    40.306049   -1854.2273 
  696800    539.71952    -1890.574    39.067965    -1851.506 
  697000    533.54535   -1893.3609    38.621044   -1854.7398 
  697200    504.75074    -1892.469    36.536727   -1855.9323 
  697400    535.66483   -1891.2767    38.774464   -1852.5022 
  697600    552.36852   -1894.8119    39.983572   -1854.8283 
  697800    558.54175   -1894.8707    40.430425   -1854.4402 
  698000    569.15595   -1896.0926    41.198741   -1854.8939 
  698200    544.06231   -1893.6637    39.382321   -1854.2814 
  698400    540.41551   -1892.6047    39.118344   -1853.4864 
  698600    552.60573   -1895.2921    40.000742   -1855.2914 
  698800    561.21143   -1895.7827    40.623672    -1855.159 
  699000    542.55426   -1891.8793     39.27316   -1852.6061 
  699200    543.68519   -1893.2194    39.355022   -1853.8644 
  699400     522.4843   -1893.8974    37.820382    -1856.077 
  699600    535.06877   -1893.3371    38.731317   -1854.6057 
  699800    553.91601   -1891.1488    40.095588   -1851.0532 
  700000    539.72977   -1893.1957    39.068707    -1854.127 
  700200    521.99357   -1896.0031     37.78486   -1858.2183 
  700400    544.56355   -1891.6537    39.418603   -1852.2351 
  700600    562.59468   -1892.0206    40.723799   -1851.2968 
  700800    542.95716   -1895.4812    39.302324   -1856.1789 
  701000    530.70248   -1893.3569    38.415261   -1854.9416 
  701200    569.03684   -1892.8934    41.190119   -1851.7032 
  701400    557.00713   -1895.8776    40.319341   -1855.5582 
  701600    555.57858    -1896.373    40.215934   -1856.1571 
  701800    547.11245   -1893.2336    39.603107   -1853.6305 
  702000    555.35404   -1895.2271    40.199681   -1855.0274 
  702200    539.41654   -1894.0854    39.046034   -1855.0393 
  702400    552.25799   -1893.9815    39.975571   -1854.0059 
  702600    559.35322   -1893.6186    40.489164   -1853.1294 
  702800    494.00843   -1891.8437    35.759137   -1856.0846 
  703000    541.97636   -1893.1141    39.231328   -1853.8828 
  703200    552.84547   -1891.9157    40.018096   -1851.8976 
  703400    538.38719   -1893.6604    38.971523   -1854.6889 
  703600    528.87078   -1895.4073    38.282672   -1857.1246 
  703800    566.06856   -1895.4606    40.975258   -1854.4853 
  704000    559.78054   -1892.5971    40.520096    -1852.077 
  704200    550.92466   -1893.8937    39.879057   -1854.0146 
  704400     522.1813   -1892.9262    37.798449   -1855.1277 
  704600    546.92856   -1891.3281    39.589797   -1851.7383 
  704800    556.39357   -1892.9378    40.274928   -1852.6629 
  705000    530.64898   -1894.4796    38.411388   -1856.0682 
  705200    577.05467   -1894.7085    41.770495    -1852.938 
  705400    564.36002   -1895.2679    40.851585   -1854.4163 
  705600    548.99533    -1894.322    39.739401   -1854.5826 
  705800    568.45471   -1893.9774    41.147981   -1852.8294 
  706000    520.78061   -1895.3563    37.697059   -1857.6592 
  706200    550.04148   -1893.9943    39.815127   -1854.1792 
  706400    558.15996   -1891.8686    40.402789   -1851.4658 
  706600     550.9002   -1894.4148    39.877286   -1854.5376 
  706800    550.02866   -1892.6906      39.8142   -1852.8764 
  707000    556.19698   -1892.5689    40.260697   -1852.3082 
  707200    535.41186   -1894.8281    38.756152    -1856.072 
  707400    520.38232   -1892.9846    37.668229   -1855.3163 
  707600    574.32744   -1892.3722    41.573083   -1850.7991 
  707800    535.12004   -1892.7937    38.735028   -1854.0587 
  708000    523.87444   -1893.6745    37.921008   -1855.7535 
  708200    559.51423   -1893.3399    40.500818   -1852.8391 
  708400    542.54934   -1891.2797    39.272804   -1852.0069 
  708600    555.46788   -1894.6286    40.207921   -1854.4207 
  708800    551.83478   -1895.5903    39.944937   -1855.6454 
  709000    541.38417   -1891.9736    39.188462   -1852.7851 
  709200    560.20269    -1893.224    40.550653   -1852.6734 
  709400     547.2488   -1895.3181    39.612977   -1855.7051 
  709600    566.17717   -1892.8801     40.98312    -1851.897 
  709800    558.45732   -1895.9009    40.424314   -1855.4766 
  710000    520.32628   -1895.3379    37.664172   -1857.6738 
  710200    570.25799   -1890.0958    41.278513   -1848.8173 
  710400    559.46967   -1895.3854    40.497593   -1854.8878 
  710600     530.8979   -1896.0792    38.429406   -1857.6498 
  710800     556.5148   -1890.6522    40.283703   -1850.3685 
  711000    540.75997    -1893.967    39.143279   -1854.8238 
  711200    552.94283   -1897.2332    40.025143   -1857.2081 
  711400     574.2562   -1892.0945    41.567926   -1850.5266 
  711600    515.44678   -1891.9473    37.310966   -1854.6364 
  711800    521.02264   -1892.6187    37.714579   -1854.9041 
  712000    591.89535    -1893.555    42.844748   -1850.7103 
  712200    540.64164   -1890.2448    39.134713   -1851.1101 
  712400    530.27628   -1896.4001     38.38441   -1858.0157 
  712600    563.71378   -1895.2815    40.804806   -1854.4767 
  712800    569.94807   -1892.3714     41.25608   -1851.1153 
  713000    532.47623   -1893.3567    38.543655   -1854.8131 
  713200    540.95421   -1894.9707    39.157339   -1855.8134 
  713400    565.13894   -1894.3635    40.907967   -1853.4555 
  713600    535.99045     -1892.49    38.798034    -1853.692 
  713800    546.74493   -1895.7036    39.576504   -1856.1271 
  714000    571.35681   -1894.9686    41.358052   -1853.6106 
  714200     565.4427   -1893.5943    40.929955   -1852.6643 
  714400    535.11353   -1894.3721    38.734557   -1855.6375 
  714600    529.14312   -1892.3944    38.302385    -1854.092 
  714800     580.6931   -1893.6256    42.033866   -1851.5917 
  715000    559.65567   -1893.6989    40.511057   -1853.1878 
  715200    537.63514   -1895.3693    38.917086   -1856.4523 
  715400     576.4752   -1894.7507     41.72855   -1853.0221 
  715600    554.94844    -1893.813    40.170321   -1853.6427 
  715800    524.97824   -1893.3228    38.000908   -1855.3219 
  716000     576.4561   -1894.2285    41.727168   -1852.5013 
  716200    535.77592   -1894.9542    38.782505   -1856.1717 
  716400    522.54795   -1893.1972    37.824989   -1855.3722 
  716600    588.32609   -1892.7811    42.586385   -1850.1947 
  716800     538.8889   -1894.7992     39.00784   -1855.7913 
  717000    552.78057   -1895.2871    40.013398   -1855.2737 
  717200    547.08264   -1891.8843     39.60095   -1852.2833 
  717400    544.80386   -1892.8941    39.435999   -1853.4581 
  717600    549.40669   -1892.7354    39.769177   -1852.9662 
  717800    529.36518   -1894.6269    38.318459   -1856.3084 
  718000    554.68787   -1893.0154    40.151459   -1852.8639 
  718200    567.37952   -1893.1146    41.070153   -1852.0445 
  718400    519.78129   -1895.1032    37.624723   -1857.4785 
  718600    544.31957    -1892.282    39.400943    -1852.881 
  718800    573.36091   -1893.2633     41.50312   -1851.7602 
  719000    519.50582   -1894.8069    37.604783   -1857.2021 
  719200    596.27425   -1896.7337    43.161717    -1853.572 
  719400    568.52103   -1893.7359    41.152782   -1852.5831 
  719600    562.88352   -1892.9527    40.744707    -1852.208 
  719800    527.89991   -1892.4464    38.212395    -1854.234 
  720000     534.9533     -1893.71    38.722959   -1854.9871 
  720200    564.21461   -1893.2365    40.841059   -1852.3954 
  720400    562.96321   -1895.9087    40.750475   -1855.1582 
  720600    553.71167   -1893.9267    40.080796   -1853.8459 
  720800    575.83715   -1894.0665    41.682364   -1852.3842 
  721000    524.54748   -1895.9578    37.969726   -1857.9881 
  721200    571.47837   -1894.0317    41.366851   -1852.6648 
  721400    549.90939   -1893.0426    39.805566    -1853.237 
  721600    540.27228   -1893.7434    39.107977   -1854.6355 
  721800    557.49163   -1894.6405    40.354412   -1854.2861 
  722000    569.98936   -1896.1403    41.259068   -1854.8813 
  722200    577.38642   -1892.5537     41.79451   -1850.7592 
  722400    535.27499   -1894.7645    38.746245   -1856.0183 
  722600    541.74199   -1894.9434    39.214363    -1855.729 
  722800    571.57804   -1891.0336    41.374066   -1849.6595 
  723000    520.84963   -1893.9039    37.702055   -1856.2019 
  723200    558.33897   -1894.0486    40.415746   -1853.6328 
  723400     539.2321   -1891.6283    39.032683   -1852.5957 
  723600    557.13392   -1895.9192    40.328518   -1855.5907 
  723800    567.06827   -1893.6474    41.047623   -1852.5998 
  724000    564.69683   -1893.9777    40.875965   -1853.1018 
  724200    560.43826   -1895.1244    40.567706   -1854.5567 
  724400    571.36516   -1895.2978    41.358656   -1853.9392 
  724600    532.66079    -1892.894    38.557014    -1854.337 
  724800    534.43413   -1892.1402    38.685378   -1853.4548 
  725000    560.74937    -1892.411    40.590225   -1851.8207 
  725200    527.27246   -1892.5126    38.166976   -1854.3456 
  725400    531.62554   -1893.2367    38.482077   -1854.7546 
  725600    548.07139   -1892.3781    39.672521   -1852.7056 
  725800    537.13429   -1891.9031    38.880831   -1853.0222 
  726000    534.51385   -1894.1136    38.691149   -1855.4225 
  726200    556.26186    -1893.632    40.265394   -1853.3666 
  726400    569.06082   -1894.1362    41.191855   -1852.9444 
  726600    564.66095   -1896.1022    40.873367   -1855.2288 
  726800    560.91793   -1896.0767    40.602426   -1855.4742 
  727000    575.18277   -1892.6988    41.634996   -1851.0639 
  727200     557.2909   -1891.9943    40.339881   -1851.6545 
  727400    536.64484   -1894.2008    38.845402   -1855.3554 
  727600      557.353   -1893.9719    40.344377   -1853.6275 
  727800    550.08447   -1891.3342    39.818239    -1851.516 
  728000    545.54981   -1892.8418    39.489995   -1853.3518 
  728200     556.0016   -1895.7592    40.246554   -1855.5127 
  728400    578.91391   -1893.8817    41.905078   -1851.9766 
  728600    562.72543   -1891.3256    40.733263   -1850.5923 
  728800    558.23635   -1893.2264    40.408318    -1852.818 
  729000    535.92746    -1894.665    38.793474   -1855.8716 
  729200    549.15034   -1892.4901    39.750622   -1852.7394 
  729400    585.82598   -1891.5583    42.405413   -1849.1528 
  729600    541.76256   -1894.8841    39.215852   -1855.6683 
  729800    544.57801   -1894.0819     39.41965   -1854.6623 
  730000    555.42865   -1891.5399    40.205081   -1851.3348 
  730200    551.48445   -1892.6636    39.919578    -1852.744 
  730400    577.16112   -1895.4102    41.778201    -1853.632 
  730600     545.4755    -1891.755    39.484615   -1852.2704 
  730800     561.2892   -1893.0357    40.629301   -1852.4064 
  731000    539.78664   -1894.3545    39.072824   -1855.2816 
  731200    536.54526   -1892.9986    38.838194   -1854.1604 
  731400    582.68937   -1892.6588    42.178367   -1850.4804 
  731600    516.88388   -1892.9738    37.414992   -1855.5588 
  731800    535.29812   -1894.6051    38.747919   -1855.8572 
  732000       564.89   -1891.2436    40.889948   -1850.3536 
  732200    527.89835   -1891.3011    38.212282   -1853.0888 
  732400    544.00974   -1894.2103    39.378516   -1854.8318 
  732600     545.1873   -1892.7738    39.463754     -1853.31 
  732800    556.15499   -1892.1669    40.257658   -1851.9093 
  733000    530.21298   -1892.8238    38.379828    -1854.444 
  733200    540.92123   -1891.7453    39.154952   -1852.5904 
  733400    539.46726   -1890.4932    39.049705   -1851.4435 
  733600    557.97776   -1895.3761      40.3896   -1854.9865 
  733800    569.44476   -1895.0041    41.219647   -1853.7845 
  734000     553.5122     -1894.21    40.066358   -1854.1437 
  734200    570.88373   -1894.7943    41.323807   -1853.4705 
  734400    548.96789   -1893.8456    39.737414   -1854.1082 
  734600      537.875   -1892.0837    38.934448   -1853.1493 
  734800     577.0728   -1893.4124    41.771807   -1851.6406 
  735000    558.91353   -1894.9766    40.457337   -1854.5193 
  735200    564.36598   -1896.6071    40.852016   -1855.7551 
  735400    572.11605   -1894.0288     41.41301   -1852.6157 
  735600    526.04379   -1891.7127    38.078038   -1853.6347 
  735800    565.82169   -1893.5057    40.957389   -1852.5483 
  736000    560.78193   -1894.7697    40.592582   -1854.1771 
  736200    546.08334   -1894.8046    39.528614    -1855.276 
  736400    583.58972   -1893.7761    42.243539   -1851.5326 
  736600    540.63602   -1892.8702    39.134307   -1853.7359 
  736800    543.06173   -1892.1418    39.309893   -1852.8319 
  737000    555.87538   -1891.6854    40.237418   -1851.4479 
  737200    537.94821   -1894.1786    38.939747   -1855.2389 
  737400    576.14344   -1894.6695    41.704535    -1852.965 
  737600    556.65829   -1892.4033    40.294089   -1852.1093 
  737800    549.16111   -1893.0552    39.751401   -1853.3038 
  738000    536.54216   -1893.2962     38.83797   -1854.4583 
  738200    561.34349   -1894.1787    40.633231   -1853.5454 
  738400    591.20903   -1893.5393    42.795068   -1850.7442 
  738600     570.3513    -1895.406    41.285267   -1854.1207 
  738800    547.22449   -1895.8278    39.611218   -1856.2166 
  739000    564.12626   -1892.2231    40.834664   -1851.3884 
  739200    562.24142   -1893.9882    40.698228     -1853.29 
  739400    532.14725   -1895.8142    38.519841   -1857.2944 
  739600    583.68352   -1893.7671    42.250329   -1851.5167 
  739800    583.02303   -1892.7758     42.20252   -1850.5733 
  740000    520.95067   -1894.0976    37.709369   -1856.3882 
  740200    550.58212   -1894.3317    39.854262   -1854.4775 
  740400    597.78826   -1894.7162    43.271311   -1851.4449 
  740600    553.03706   -1893.2117    40.031964   -1853.1797 
  740800     528.3765   -1892.6986    38.246893   -1854.4518 
  741000    566.64697   -1892.4174    41.017127   -1851.4002 
  741200    571.29897   -1891.2034    41.353865   -1849.8495 
  741400    547.34464   -1896.0197    39.619914   -1856.3997 
  741600    538.68977   -1893.4604    38.993426    -1854.467 
  741800    604.85017   -1891.1651    43.782492   -1847.3826 
  742000    553.30806   -1895.5297    40.051581   -1855.4781 
  742200    512.98519   -1894.4771    37.132782   -1857.3443 
  742400    561.07749   -1892.8167    40.613976   -1852.2027 
  742600    571.56812    -1892.323    41.373347   -1850.9496 
  742800    560.02128   -1893.4915    40.537522    -1852.954 
  743000    576.14981    -1894.875    41.704997     -1853.17 
  743200    565.81577   -1892.7079     40.95696    -1851.751 
  743400    552.78162   -1892.9351    40.013474   -1852.9216 
  743600    531.62905    -1894.434    38.482331   -1855.9517 
  743800    581.18465   -1893.4498    42.069447   -1851.3804 
  744000    559.07662   -1891.4534    40.469142   -1850.9843 
  744200    541.51386   -1893.0583    39.197849   -1853.8604 
  744400    557.49295   -1893.5741    40.354507   -1853.2196 
  744600    567.63693   -1893.4567    41.088786    -1852.368 
  744800    560.70021   -1894.7808    40.586667   -1854.1942 
  745000    565.27001   -1893.5116    40.917455   -1852.5941 
  745200    557.79631   -1893.0593    40.376466   -1852.6828 
  745400    557.63337   -1893.3252    40.364671   -1852.9605 
  745600    595.85586    -1894.442    43.131432   -1851.3106 
  745800    542.56505   -1893.8926    39.273941   -1854.6187 
  746000    585.56046   -1892.4259    42.386193   -1850.0397 
  746200    566.60044   -1891.2876    41.013759   -1850.2739 
  746400    507.93653   -1893.4405    36.767332   -1856.6732 
  746600    579.48791   -1892.1036    41.946627   -1850.1569 
  746800    550.30085   -1891.9859    39.833902    -1852.152 
  747000    523.21421    -1893.063    37.873217   -1855.1898 
  747200    601.73683   -1891.5134     43.55713   -1847.9563 
  747400    540.08609   -1894.3174      39.0945   -1855.2229 
  747600    540.68177   -1893.8654    39.137619   -1854.7278 
  747800    585.12424   -1891.1434    42.354617   -1848.7888 
  748000    537.53283   -1893.9488     38.90968   -1855.0392 
  748200    581.64768   -1895.8769    42.102964    -1853.774 
  748400    571.98122   -1891.5065     41.40325   -1850.1033 
  748600    565.16486    -1894.668    40.909843   -1853.7582 
  748800    561.64698   -1893.8456    40.655199   -1853.1904 
  749000    566.98063   -1891.9366    41.041279   -1850.8954 
  749200    562.41145     -1892.63    40.710536   -1851.9195 
  749400    543.52824   -1892.6784    39.343662   -1853.3347 
  749600     576.2703   -1891.6514    41.713718   -1849.9377 
  749800    554.60126   -1890.4328     40.14519   -1850.2876 
  750000    537.44967   -1894.1736     38.90366   -1855.2699 
  750200    543.24237   -1892.9413    39.322969   -1853.6183 
  750400    583.72253   -1889.5332    42.253153     -1847.28 
  750600    549.54125   -1893.1696    39.778918   -1853.3907 
  750800    543.09216   -1895.4847    39.312096   -1856.1726 
  751000    578.83647   -1892.6918    41.899472   -1850.7923 
  751200    563.90427   -1891.1383    40.818595   -1850.3197 
  751400    586.57146   -1895.3183    42.459374    -1852.859 
  751600    548.59352   -1894.9214    39.710315   -1855.2111 
  751800    624.74465   -1894.0949    45.222567   -1848.8723 
  752000    556.98754   -1892.2592    40.317922   -1851.9412 
  752200    533.96961   -1895.0736    38.651754   -1856.4219 
  752400    583.96954    -1892.054    42.271033    -1849.783 
  752600     587.8772   -1894.2898    42.553892   -1851.7359 
  752800    555.89859   -1894.1727    40.239098   -1853.9336 
  753000    592.95981    -1894.184    42.921799   -1851.2622 
  753200    565.52883   -1892.9735     40.93619   -1852.0374 
  753400    564.39244   -1892.5543    40.853932   -1851.7004 
  753600    567.70727   -1895.6119    41.093877    -1854.518 
  753800     539.9668   -1892.9261    39.085865   -1853.8403 
  754000    579.12982   -1891.8936    41.920706   -1849.9729 
  754200    531.24802   -1891.7714     38.45475   -1853.3167 
  754400    541.90835   -1893.0775    39.226405   -1853.8511 
  754600    563.17024   -1892.2332    40.765461   -1851.4678 
  754800     577.9332   -1894.2057    41.834088   -1852.3716 
  755000    555.89553   -1895.8223    40.238876   -1855.5834 
  755200    557.52089   -1893.8258    40.356529   -1853.4693 
  755400    583.19403   -1890.6413    42.214897   -1848.4264 
  755600     532.9271   -1894.7944    38.576291   -1856.2181 
  755800    536.90648   -1893.1265    38.864341   -1854.2621 
  756000    610.04252   -1892.6799    44.158344   -1848.5215 
  756200    555.30025   -1893.2418    40.195787    -1853.046 
  756400      572.767   -1894.7421    41.460129   -1853.2819 
  756600    567.31602   -1892.6908    41.065556   -1851.6252 
  756800     547.5619   -1891.8125    39.635641   -1852.1769 
  757000    582.48613   -1895.0277    42.163655    -1852.864 
  757200    549.61083   -1895.7764    39.783954   -1855.9925 
  757400    583.00029    -1891.967    42.200873   -1849.7661 
  757600    562.39577   -1892.7424    40.709401    -1852.033 
  757800    527.33964     -1895.95    38.171839   -1857.7782 
  758000    597.71766   -1894.0174      43.2662   -1850.7512 
  758200    585.92623   -1893.6986    42.412669   -1851.2859 
  758400    559.10631   -1896.6629    40.471291   -1856.1916 
  758600    599.50825   -1895.2217    43.395813   -1851.8259 
  758800     553.4159   -1890.8021    40.059387   -1850.7427 
  759000    572.66472   -1893.8552    41.452726   -1852.4025 
  759200    564.66647   -1893.5209    40.873767   -1852.6471 
  759400    571.53974   -1894.9253    41.371294    -1853.554 
  759600    573.93476   -1893.9515    41.544658   -1852.4069 
  759800    602.18143   -1895.5247    43.589313   -1851.9353 
  760000    569.76619   -1895.0904    41.242914   -1853.8475 
  760200     576.5135   -1892.9296    41.731322   -1851.1983 
  760400    575.36743   -1893.7078    41.648363   -1852.0594 
  760600    557.98697   -1894.2625    40.390267   -1853.8722 
  760800    567.48165   -1891.1983    41.077546   -1850.1208 
  761000    573.15488   -1894.3976    41.488206   -1852.9094 
  761200    564.19853   -1896.7676    40.839895   -1855.9277 
  761400    584.36145   -1893.4608    42.299402   -1851.1614 
  761600    593.28585   -1893.5653      42.9454   -1850.6199 
  761800    548.61075   -1896.3995    39.711563   -1856.6879 
  762000    570.18842   -1893.9519    41.273477   -1852.6784 
  762200    562.64129   -1892.9596    40.727173   -1852.2324 
  762400    559.12416   -1893.3363    40.472583   -1852.8637 
  762600    572.53701   -1896.2656    41.443482   -1854.8221 
  762800    567.82506   -1895.2716    41.102404   -1854.1692 
  763000    621.74481   -1894.4031    45.005422   -1849.3976 
  763200    550.69194   -1894.0381    39.862211   -1854.1759 
  763400    541.18639   -1891.6702    39.174146    -1852.496 
  763600    567.33751   -1892.2888    41.067112   -1851.2217 
  763800    537.05911   -1892.3221     38.87539   -1853.4467 
  764000    580.41229   -1892.6018    42.013539   -1850.5882 
  764200    525.22499   -1891.4986    38.018769   -1853.4799 
  764400    586.46191   -1892.5507    42.451445   -1850.0993 
  764600    560.21785   -1891.4153    40.551751   -1850.8636 
  764800    552.72142   -1894.7496    40.009116   -1854.7405 
  765000    606.78646   -1893.4059    43.922651   -1849.4832 
  765200    571.16158   -1890.6112     41.34392   -1849.2673 
  765400     522.0273   -1892.4202    37.787302   -1854.6329 
  765600    570.21091   -1892.4691    41.275105   -1851.1939 
  765800    564.94688   -1891.8857    40.894065   -1850.9916 
  766000    526.37363   -1893.1606    38.101914   -1855.0587 
  766200    578.21982   -1895.4699    41.854835   -1853.6151 
  766400    611.16369   -1894.1889      44.2395   -1849.9494 
  766600    548.62703   -1889.6821    39.712741   -1849.9694 
  766800    544.47899    -1893.836    39.412483   -1854.4235 
  767000     544.0628   -1892.9701    39.382356   -1853.5877 
  767200    569.17029   -1891.0069    41.199779   -1849.8071 
  767400    567.84956    -1891.376    41.104177   -1850.2719 
  767600    552.15435   -1893.5994    39.968069   -1853.6314 
  767800    573.20425   -1893.9675     41.49178   -1852.4758 
  768000    585.40499    -1893.048    42.374939   -1850.6731 
  768200    551.64454   -1893.5514    39.931166   -1853.6203 
  768400    571.31436   -1893.0877    41.354979   -1851.7328 
  768600    572.56599   -1894.2235    41.445579   -1852.7779 
  768800    560.00632   -1891.7201    40.536439   -1851.1837 
  769000    576.80792    -1894.091    41.752634   -1852.3384 
  769200    564.12905   -1896.2883    40.834865   -1855.4534 
  769400    588.09829   -1893.2506    42.569895   -1850.6807 
  769600    581.92992   -1894.3677    42.123394   -1852.2443 
  769800    567.35393    -1895.962    41.068301   -1854.8937 
  770000    575.24263   -1892.0712     41.63933   -1850.4319 
  770200    582.82231   -1893.9977     42.18799   -1851.8097 
  770400    567.95709   -1895.8937    41.111961   -1854.7818 
  770600     560.8766   -1892.6062    40.599434   -1852.0068 
  770800    567.44631   -1891.9882    41.074988   -1850.9133 
  771000    565.98834   -1893.1501    40.969452   -1852.1806 
  771200    545.39814   -1893.5567    39.479016   -1854.0777 
  771400    573.19574   -1893.4794    41.491164   -1851.9882 
  771600    577.83863   -1891.3842    41.827243   -1849.5569 
  771800    549.30356    -1891.025    39.761712   -1851.2633 
  772000    584.05207   -1892.8329    42.277007   -1850.5559 
  772200    546.42276   -1892.6143    39.553184   -1853.0611 
  772400    565.68854   -1893.8772    40.947751   -1852.9295 
  772600    597.72953    -1892.202    43.267059   -1848.9349 
  772800    546.00282   -1892.5219    39.522786   -1852.9991 
  773000    581.33758   -1894.0606    42.080517   -1851.9801 
  773200    576.14702   -1892.0508    41.704795    -1850.346 
  773400    562.28614   -1894.1339    40.701465   -1853.4324 
  773600    593.49725   -1894.9598    42.960703   -1851.9991 
  773800    599.63634   -1894.6271    43.405085    -1851.222 
  774000    581.77337   -1893.4631    42.112062    -1851.351 
  774200    587.04576   -1893.6226    42.493708   -1851.1288 
  774400    562.92188   -1893.6382    40.747483   -1852.8907 
  774600    592.37081   -1894.2869    42.879164   -1851.4077 
  774800     604.8539   -1894.3804    43.782762   -1850.5976 
  775000    566.02407   -1894.0344    40.972038   -1853.0623 
  775200    588.88437   -1893.5091    42.626796   -1850.8823 
  775400    572.96484   -1893.6074     41.47445   -1852.1329 
  775600    552.16672    -1894.045    39.968964    -1854.076 
  775800     603.6791   -1893.7709    43.697723   -1850.0731 
  776000    560.82578   -1893.5826    40.595756   -1852.9868 
  776200    577.28058   -1894.1269    41.786848     -1852.34 
  776400    589.84138   -1894.8089     42.69607   -1852.1128 
  776600    554.70953   -1893.0441    40.153028    -1852.891 
  776800    578.77815   -1892.9511    41.895251   -1851.0558 
  777000    562.46044   -1893.8316    40.714082   -1853.1175 
  777200    545.59306   -1891.9787    39.493125   -1852.4856 
  777400    586.76932   -1893.2652    42.473697   -1850.7916 
  777600    553.11499   -1894.5924    40.037605   -1854.5547 
  777800    573.50742   -1892.0458    41.513725    -1850.532 
  778000    576.02041   -1892.4353     41.69563   -1850.7396 
  778200     584.5653   -1896.7203    42.314157   -1854.4062 
  778400    577.15225   -1891.1167    41.777559   -1849.3391 
  778600    561.83076   -1892.0592    40.668502   -1851.3907 
  778800    575.54531   -1894.0297    41.661239   -1852.3684 
  779000    571.80784   -1891.8797      41.3907    -1850.489 
  779200    568.23891   -1893.8254     41.13236    -1852.693 
  779400    578.49446   -1894.4041    41.874715   -1852.5294 
  779600     575.3423   -1891.3957    41.646544   -1849.7492 
  779800    562.62492   -1892.5917    40.725988   -1851.8657 
  780000    570.78461   -1894.0889    41.316633   -1852.7723 
  780200    554.69284   -1892.6305    40.151819   -1852.4787 
  780400    594.15088   -1893.1166    43.008016   -1850.1085 
  780600    566.01875   -1894.2997    40.971652   -1853.3281 
  780800    552.83741   -1893.6501    40.017512   -1853.6326 
  781000    561.91977   -1888.3948    40.674946   -1847.7199 
  781200    563.40757   -1890.7853    40.782641   -1850.0026 
  781400    573.80948   -1895.1917     41.53559   -1853.6561 
  781600    585.25497   -1894.7151    42.364079    -1852.351 
  781800    584.74473   -1891.7858    42.327146   -1849.4587 
  782000    565.62802   -1894.0902    40.943369   -1853.1469 
  782200    552.21496   -1894.3211    39.972456   -1854.3487 
  782400    573.81873   -1889.2332     41.53626   -1847.6969 
  782600     586.0025   -1891.9667     42.41819   -1849.5485 
  782800    541.06393   -1897.1244    39.165281   -1857.9591 
  783000    569.53739   -1892.2745    41.226352   -1851.0481 
  783200    610.61303    -1890.763     44.19964   -1846.5633 
  783400    501.12396   -1891.7453    36.274199   -1855.4711 
  783600    566.43393   -1891.6315    41.001706   -1850.6298 
  783800    588.90061   -1892.8498    42.627972   -1850.2218 
  784000    558.25991   -1894.8583    40.410024   -1854.4483 
  784200    598.24711   -1894.1555    43.304524   -1850.8509 
  784400    563.56762   -1892.2444    40.794226   -1851.4501 
  784600    571.26855   -1893.1951    41.351663   -1851.8434 
  784800    572.97899   -1892.0664    41.475474   -1850.5909 
  785000    575.97613   -1894.3346    41.692425   -1852.6421 
  785200    623.16465   -1893.1543    45.108197   -1848.0461 
  785400    555.78606   -1890.5884    40.230953   -1850.3575 
  785600    579.44834   -1895.7123    41.943763   -1853.7686 
  785800    580.02643   -1892.3167    41.985608   -1850.3311 
  786000    539.93656   -1889.2261    39.083675   -1850.1424 
  786200    574.38153   -1893.1275    41.576998   -1851.5505 
  786400    549.27135   -1890.2272    39.759381   -1850.4678 
  786600    570.16431   -1891.0977    41.271732    -1849.826 
  786800    566.63441   -1891.9192    41.016218    -1850.903 
  787000    571.60987   -1889.9619     41.37637   -1848.5855 
  787200    572.25863   -1889.2636    41.423331   -1847.8402 
  787400    574.50589    -1893.845       41.586    -1852.259 
  787600    545.87519   -1890.4565    39.513547    -1850.943 
  787800    603.28179   -1892.0345    43.668963   -1848.3655 
  788000    586.26196   -1894.3199    42.436971   -1851.8829 
  788200    557.30164   -1893.0423    40.340659   -1852.7016 
  788400    541.67328   -1890.9116    39.209389   -1851.7022 
  788600    599.36329   -1891.8615     43.38532   -1848.4762 
  788800    592.77615   -1894.6728    42.908505   -1851.7643 
  789000    528.64802   -1894.1831    38.266547   -1855.9165 
  789200    596.81047   -1889.3938    43.200533   -1846.1932 
  789400      563.075   -1890.2401    40.758568   -1849.4815 
  789600    556.84166   -1895.8099    40.307363   -1855.5025 
  789800    597.04603   -1894.3956    43.217584    -1851.178 
  790000    566.35816   -1891.4565    40.996222   -1850.4602 
  790200     578.6695   -1892.2081    41.887386   -1850.3207 
  790400     559.6142   -1891.5559    40.508055   -1851.0478 
  790600    573.52501   -1896.3013    41.514999   -1854.7863 
  790800    577.10786   -1891.2935    41.774345   -1849.5192 
  791000    596.61263   -1892.4107    43.186211   -1849.2245 
  791200    555.86594   -1893.6311    40.236735   -1853.3944 
  791400    591.08688   -1894.4251    42.786227   -1851.6389 
  791600    562.49358   -1892.3599    40.716481   -1851.6434 
  791800    584.17233   -1892.9837    42.285712    -1850.698 
  792000      571.368   -1893.7133    41.358862   -1852.3544 
  792200    592.48852   -1894.6942    42.887685   -1851.8065 
  792400    624.50879   -1893.0454    45.205494   -1847.8399 
  792600    584.45668   -1895.9174    42.306295   -1853.6111 
  792800    571.82107    -1893.853    41.391658   -1852.4614 
  793000    600.86438   -1891.1196    43.493977   -1847.6256 
  793200    576.98406   -1893.5575    41.765384   -1851.7921 
  793400    552.41539   -1892.5356    39.986964   -1852.5486 
  793600    563.19833   -1891.3365    40.767495    -1850.569 
  793800     571.1085   -1892.9136    41.340077   -1851.5736 
  794000    610.38642   -1895.0512    44.183237    -1850.868 
  794200     571.6692   -1893.3044    41.380665   -1851.9238 
  794400     586.7994    -1893.368    42.475874   -1850.8922 
  794600    599.30871     -1893.99    43.381369   -1850.6087 
  794800    572.07326   -1894.1282    41.409913   -1852.7183 
  795000    587.25898   -1893.0462    42.509142    -1850.537 
  795200    588.05113   -1890.9702    42.566481   -1848.4037 
  795400    610.55575   -1893.5089    44.195494   -1849.3134 
  795600     579.1924    -1894.435    41.925237   -1852.5097 
  795800    562.54216   -1891.6727    40.719998   -1850.9527 
  796000    622.82615    -1893.309    45.083695   -1848.2253 
  796200    574.30717   -1895.1197    41.571615   -1853.5481 
  796400    601.86382   -1895.0998    43.566322   -1851.5334 
  796600    588.04878   -1891.9213    42.566311    -1849.355 
  796800    566.71931   -1894.1404    41.022363   -1853.1181 
  797000    580.70381   -1894.0356    42.034641   -1852.0009 
  797200    581.59009   -1893.5935    42.098795   -1851.4947 
  797400    584.34584   -1895.1282    42.298271     -1852.83 
  797600    575.16638   -1895.2774     41.63381   -1853.6436 
  797800    553.21621   -1893.6259    40.044932    -1853.581 
  798000    621.42939   -1892.0519     44.98259   -1847.0693 
  798200    557.46799   -1893.5735      40.3527   -1853.2208 
  798400    564.28129    -1895.974    40.845885   -1855.1281 
  798600    608.40621   -1891.3549    44.039898    -1847.315 
  798800    556.34834    -1895.124    40.271653   -1854.8524 
  799000    574.44505   -1894.3256    41.581596    -1852.744 
  799200    624.81378   -1894.4805    45.227571    -1849.253 
  799400    550.25801   -1894.0908    39.830801     -1854.26 
  799600    602.82695   -1893.9285     43.63604   -1850.2925 
  799800    592.32748   -1893.5651    42.876028   -1850.6891 
  800000    574.77266   -1896.5504     41.60531   -1854.9451 
  800200    574.93101    -1893.004    41.616772   -1851.3873 
  800400    579.75738   -1893.5791    41.966133   -1851.6129 
  800600    570.47409   -1894.6066    41.294156   -1853.3125 
  800800    573.37515   -1893.2271    41.504151    -1851.723 
  801000    585.97707   -1895.8336    42.416349   -1853.4173 
  801200    613.56326   -1895.5381    44.413194   -1851.1249 
  801400    601.13158   -1894.5991    43.513319   -1851.0858 
  801600    560.78489    -1895.228    40.592796   -1854.6352 
  801800    590.02527   -1893.6413    42.709381   -1850.9319 
  802000    590.62406   -1894.4705    42.752725   -1851.7177 
  802200    583.13062    -1895.731    42.210307   -1853.5206 
  802400     583.1574   -1895.1942    42.212246    -1852.982 
  802600    606.32898    -1894.474    43.889537   -1850.5844 
  802800    610.51013   -1894.9985    44.192192   -1850.8064 
  803000    553.77167   -1897.0169     40.08514   -1856.9318 
  803200    604.44475   -1895.1296    43.753145   -1851.3765 
  803400    582.53493    -1890.866    42.167187   -1848.6988 
  803600    546.97556   -1896.2127    39.593199   -1856.6195 
  803800    600.67507   -1896.1008    43.480274   -1852.6205 
  804000    609.84454   -1893.1543    44.144012   -1849.0103 
  804200    550.74477   -1895.3907    39.866035   -1855.5247 
  804400    547.92845   -1892.3444    39.662174   -1852.6822 
  804600    601.82606   -1893.2825     43.56359   -1849.7189 
  804800    570.39042   -1894.2983    41.288099   -1853.0102 
  805000    571.33451   -1897.1247    41.356438   -1855.7683 
  805200    585.97956   -1894.5911     42.41653   -1852.1745 
  805400    626.92237   -1892.3569    45.380203   -1846.9766 
  805600    573.40052   -1897.7249    41.505987   -1856.2189 
  805800    548.48589   -1894.2807    39.702524   -1854.5782 
  806000    622.84868   -1893.3674    45.085326   -1848.2821 
  806200    577.76522   -1896.6408    41.821929   -1854.8189 
  806400    554.30511   -1893.3109    40.123753   -1853.1872 
  806600    595.83265   -1893.8627    43.129752   -1850.7329 
  806800    549.23604    -1893.666    39.756825   -1853.9092 
  807000    581.15607   -1895.9636    42.067378   -1853.8962 
  807200    589.16128   -1896.4146     42.64684   -1853.7678 
  807400    577.08372   -1892.3914    41.772598   -1850.6188 
  807600    595.85772    -1895.255    43.131567   -1852.1235 
  807800    564.71876   -1896.9934    40.877552   -1856.1159 
  808000    581.38328   -1892.8514    42.083825   -1850.7675 
  808200    603.72091   -1893.0135    43.700749   -1849.3128 
  808400    556.35985   -1895.1998    40.272487   -1854.9273 
  808600     566.4183   -1894.9534    41.000575   -1853.9528 
  808800    597.17773   -1893.1164    43.227117   -1849.8892 
  809000    614.28275   -1896.7043    44.465275    -1852.239 
  809200    594.15143    -1897.349    43.008056    -1854.341 
  809400     570.3337   -1892.0131    41.283994   -1850.7291 
  809600    606.07475   -1892.4882    43.871134   -1848.6171 
  809800    584.08021   -1896.5715    42.279044   -1854.2925 
  810000     583.7087   -1895.0668    42.252152   -1852.8146 
  810200     583.9234   -1892.8351    42.267693   -1850.5674 
  810400    594.70908   -1896.1434    43.048422   -1853.0949 
  810600    590.64971   -1898.5099    42.754582   -1855.7554 
  810800    568.61672   -1893.9391    41.159709   -1852.7794 
  811000    590.58005   -1893.6303    42.749539   -1850.8807 
  811200    564.37983   -1895.8824    40.853018   -1855.0294 
  811400    567.76985   -1894.3599    41.098407   -1853.2615 
  811600    621.57311   -1893.4934    44.992993   -1848.5004 
  811800    577.40464   -1897.1127    41.795828   -1855.3169 
  812000    558.79467   -1894.2588    40.448733   -1853.8101 
  812200     606.8903   -1893.2624    43.930168   -1849.3322 
  812400    566.43865    -1893.481    41.002048    -1852.479 
  812600    590.58879    -1897.049    42.750172   -1854.2988 
  812800    614.94839   -1894.5059    44.513458   -1849.9925 
  813000    594.86143   -1891.4665     43.05945   -1848.4071 
  813200    564.22477   -1894.8846    40.841794   -1854.0429 
  813400    569.21188   -1895.5302    41.202789   -1854.3274 
  813600    610.59113   -1893.9061    44.198055   -1849.7081 
  813800    628.76322   -1899.0574    45.513454   -1853.5439 
  814000    557.75222   -1895.4871    40.373274   -1855.1138 
  814200    611.93583   -1893.5172    44.295392   -1849.2218 
  814400    557.72986   -1893.3329    40.371656   -1852.9613 
  814600    606.51657   -1898.0199    43.903115   -1854.1168 
  814800    596.98975    -1896.625     43.21351   -1853.4115 
  815000     619.1117   -1894.2871    44.814822   -1849.4723 
  815200    627.80107   -1894.3281    45.443808   -1848.8843 
  815400    570.00343   -1896.1708    41.260087   -1854.9107 
  815600    607.16257   -1893.9716    43.949876   -1850.0217 
  815800    589.31846   -1891.9893    42.658218   -1849.3311 
  816000     576.1029   -1897.3858    41.701601   -1855.6842 
  816200    564.69973   -1893.5567    40.876175   -1852.6805 
  816400    595.46652   -1892.7433     43.10325     -1849.64 
  816600    549.62463   -1894.9279    39.784953   -1855.1429 
  816800    579.75615   -1895.5142    41.966044   -1853.5482 
  817000    575.18728   -1891.2965    41.635323   -1849.6612 
  817200     593.3609   -1892.9086    42.950833   -1849.9578 
  817400    571.64996   -1894.4963    41.379271    -1853.117 
  817600    591.52813   -1894.7977    42.818167   -1851.9796 
  817800    620.17191   -1894.7306    44.891566    -1849.839 
  818000    566.45119   -1895.1301    41.002955   -1854.1271 
  818200    589.08618   -1895.5227    42.641404   -1852.8813 
  818400    586.03502   -1893.5669    42.420544   -1851.1464 
  818600    586.04936   -1896.2512    42.421582   -1853.8296 
  818800    584.94856   -1895.0921      42.3419   -1852.7502 
  819000     617.9061   -1896.1099    44.727554   -1851.3824 
  819200    560.07589   -1894.7788    40.541475   -1854.2374 
  819400    577.59913    -1895.055    41.809907   -1853.2451 
  819600    606.38161   -1893.6977    43.893346   -1849.8043 
  819800      578.816    -1894.494    41.897991    -1852.596 
  820000    566.50672    -1896.176    41.006975   -1855.1691 
  820200    605.43294   -1895.2504    43.824676   -1851.4257 
  820400    623.81099    -1895.112    45.154983    -1849.957 
  820600    583.24804   -1897.5648    42.218807    -1855.346 
  820800    612.95557   -1897.4669    44.369206   -1853.0977 
  821000    612.18266   -1894.5545    44.313259   -1850.2412 
  821200    571.58515   -1896.5967     41.37458   -1855.2221 
  821400    599.23629   -1896.1258    43.376127   -1852.7497 
  821600    625.43681   -1894.5452    45.272669   -1849.2725 
  821800     563.7579   -1894.3957       40.808   -1853.5877 
  822000    600.50128    -1897.061    43.467694   -1853.5933 
  822200    617.83311   -1894.2219    44.722271   -1849.4996 
  822400    549.01458   -1892.0799    39.740794   -1852.3391 
  822600     597.5076   -1896.6785    43.250995   -1853.4275 
  822800    596.01165   -1894.3191    43.142709   -1851.1764 
  823000    582.62541   -1893.8199    42.173737   -1851.6462 
  823200    584.08369   -1894.6803    42.279296    -1852.401 
  823400    585.11805   -1893.8398    42.354169   -1851.4856 
  823600    593.51865   -1894.8871    42.962252   -1851.9248 
  823800    584.06092   -1894.3662    42.277647   -1852.0886 
  824000    545.55144   -1893.3479    39.490113   -1853.8577 
  824200    574.61462   -1892.8942    41.593871   -1851.3004 
  824400    599.51109   -1893.9124    43.396019   -1850.5164 
  824600    564.01696   -1895.2732    40.826752   -1854.4465 
  824800    589.34474   -1896.5448     42.66012   -1853.8847 
  825000    567.08243   -1893.3694    41.048648   -1852.3208 
  825200    599.34536   -1893.9986    43.384022   -1850.6146 
  825400     609.2146   -1896.8648    44.098414   -1852.7664 
  825600     556.1247   -1892.1066    40.255465   -1851.8511 
  825800    605.78806   -1894.0772    43.850381   -1850.2268 
  826000    571.90973   -1894.7218    41.398075   -1853.3237 
  826200    594.83924   -1895.1916    43.057844   -1852.1337 
  826400    610.56014   -1897.3852    44.195812   -1853.1894 
  826600    605.06299   -1897.4387    43.797897   -1853.6408 
  826800    613.22965   -1895.3915    44.389046   -1851.0024 
  827000    567.65029   -1895.5842    41.089753   -1854.4945 
  827200    553.52096   -1894.2567    40.066992   -1854.1897 
  827400    605.42896   -1893.0828    43.824388   -1849.2584 
  827600    585.36584   -1895.1496    42.372105   -1852.7775 
  827800    567.96387   -1895.0044    41.112452   -1853.8919 
  828000    565.63982   -1894.0859    40.944224   -1853.1416 
  828200    575.88351   -1893.9729     41.68572   -1852.2872 
  828400    603.63225    -1896.578    43.694332   -1852.8837 
  828600    593.06673   -1899.3141    42.929539   -1856.3846 
  828800    599.60898   -1895.5281    43.403104    -1852.125 
  829000     618.8435   -1894.5873    44.795408   -1849.7919 
  829200    534.13723    -1894.599    38.663887   -1855.9351 
  829400    577.97303    -1895.373    41.836972   -1853.5361 
  829600    603.09898   -1895.2535     43.65573   -1851.5978 
  829800    597.03848    -1897.018    43.217037    -1853.801 
  830000    587.50911   -1897.6291    42.527247   -1855.1018 
  830200    593.28403   -1895.1443    42.945269    -1852.199 
  830400    614.49258   -1895.5193    44.480464   -1851.0388 
  830600     576.1742   -1898.6057    41.706762   -1856.8989 
  830800    575.16331    -1895.468    41.633588   -1853.8344 
  831000    613.42333   -1896.0072    44.403066   -1851.6041 
  831200    577.37855   -1896.6899     41.79394    -1854.896 
  831400    588.12412    -1897.315    42.571765   -1854.7433 
  831600    618.16651   -1897.0386    44.746404   -1852.2922 
  831800    573.74604   -1893.5972    41.530998   -1852.0662 
  832000    576.50318   -1895.0236    41.730576    -1853.293 
  832200    573.42883    -1897.036    41.508036    -1855.528 
  832400    612.56622   -1896.1469    44.341023   -1851.8059 
  832600    585.80425   -1896.0448     42.40384   -1853.6409 
  832800    568.80008   -1898.0847    41.172981   -1856.9118 
  833000    614.82262   -1896.2096    44.504354   -1851.7052 
  833200    595.21941   -1896.0116    43.085363   -1852.9263 
  833400    586.63855   -1899.6931    42.464231   -1857.2289 
  833600    591.65622   -1894.2788    42.827439   -1851.4514 
  833800    633.40829   -1895.5833    45.849691   -1849.7336 
  834000    550.93853   -1898.6342    39.880061   -1858.7541 
  834200    579.71385   -1896.2742    41.962982   -1854.3112 
  834400    607.14379   -1892.6394    43.948516   -1848.6909 
  834600    542.75227   -1894.8694    39.287493   -1855.5819 
  834800    603.39249   -1896.9667    43.676976   -1853.2897 
  835000    617.29306   -1895.7392    44.683179    -1851.056 
  835200    615.35297   -1898.8706    44.542744   -1854.3279 
  835400    574.96406   -1898.2061    41.619165    -1856.587 
  835600    587.71169   -1895.4488    42.541911   -1852.9069 
  835800    605.69228   -1895.3097    43.843448   -1851.4663 
  836000    602.63086   -1898.7349    43.621845    -1855.113 
  836200    580.82463   -1899.1404    42.043386    -1857.097 
  836400    596.11022   -1895.6645    43.149845   -1852.5146 
  836600    622.88793   -1893.3585    45.088167   -1848.2704 
  836800     569.1669   -1899.1548    41.199533   -1857.9553 
  837000    545.03976   -1897.9345    39.453074   -1858.4814 
  837200    608.27344   -1891.3407    44.030288   -1847.3105 
  837400    608.53278   -1895.1969     44.04906   -1851.1479 
  837600    565.38613   -1899.3299    40.925861   -1858.4041 
  837800    611.71595   -1896.7242    44.279476   -1852.4447 
  838000    620.72798   -1893.7323    44.931818   -1848.8005 
  838200    588.15058   -1898.0658     42.57368   -1855.4921 
  838400    587.19358   -1899.3616    42.504407   -1856.8572 
  838600    620.89346    -1896.693    44.943796   -1851.7492 
  838800    600.36556    -1897.337     43.45787   -1853.8791 
  839000    582.34422   -1899.4507    42.153383   -1857.2973 
  839200    594.03338   -1895.2512    42.999511   -1852.2517 
  839400    622.15175   -1896.3871    45.034878   -1851.3522 
  839600    574.59269   -1898.4815    41.592283   -1856.8892 
  839800    564.02453   -1897.0267      40.8273   -1856.1994 
  840000    633.96973   -1894.7066     45.89033   -1848.8163 
  840200    588.87176   -1898.1509    42.625884    -1855.525 
  840400    570.76519   -1896.9108    41.315227   -1855.5956 
  840600    611.75326   -1892.6675    44.282176   -1848.3853 
  840800    579.69445   -1894.3093    41.961578   -1852.3477 
  841000    580.93439   -1895.4443    42.051332   -1853.3929 
  841200    592.44943   -1893.3382    42.884856   -1850.4534 
  841400    592.06117   -1896.6638    42.856751   -1853.8071 
  841600    584.30188   -1897.4003    42.295089   -1855.1052 
  841800    625.23653   -1895.4696    45.258172   -1850.2115 
  842000    587.78616   -1896.8407    42.547302   -1854.2934 
  842200    593.99875   -1900.0887    42.997004   -1857.0916 
  842400    597.46212   -1894.0348    43.247703   -1850.7871 
  842600    607.14952   -1895.5073    43.948931   -1851.5584 
  842800    574.70065   -1898.6431    41.600098    -1857.043 
  843000    605.34342    -1895.901    43.818196   -1852.0828 
  843200    615.62385   -1894.5264    44.562352   -1849.9641 
  843400    579.22291   -1898.1716    41.927445   -1856.2441 
  843600    550.08812   -1894.6753    39.818503   -1854.8568 
  843800    603.92577   -1892.1457    43.715579   -1848.4301 
  844000    597.79624   -1896.5674    43.271888   -1853.2956 
  844200    573.21816   -1896.6077    41.492787   -1855.1149 
  844400    591.47336   -1895.8153    42.814202   -1853.0011 
  844600    545.72155   -1892.4015    39.502426   -1852.8991 
  844800    607.65412   -1893.1399    43.985458   -1849.1544 
  845000    591.25677   -1897.7414    42.798524   -1854.9428 
  845200    579.74224   -1897.9027    41.965037   -1855.9377 
  845400    598.98254   -1893.9578    43.357759      -1850.6 
  845600    599.86558   -1896.9128    43.421679   -1853.4911 
  845800     578.0445   -1896.6083    41.842145   -1854.7661 
  846000    611.59654   -1896.3784    44.270832   -1852.1076 
  846200     587.4074   -1897.9975    42.519885   -1855.4776 
  846400    632.67582   -1897.8488     45.79667   -1852.0521 
  846600    580.71542   -1897.2831    42.035481   -1855.2476 
  846800    590.21078   -1898.3251     42.72281   -1855.6023 
  847000    637.53141   -1897.1593    46.148145   -1851.0111 
  847200      589.263   -1897.6518    42.654204   -1854.9976 
  847400    607.84233   -1898.3677    43.999081   -1854.3687 
  847600    601.90184   -1896.9793    43.569074   -1853.4102 
  847800    569.73505   -1896.5129    41.240659   -1855.2722 
  848000     625.1809   -1898.3289    45.254145   -1853.0748 
  848200    591.72535   -1895.5777    42.832443   -1852.7453 
  848400    597.54186   -1897.9725    43.253475    -1854.719 
  848600    611.10306   -1898.8669    44.235112   -1854.6318 
  848800    631.36504   -1898.2129    45.701789   -1852.5111 
  849000    611.56093   -1896.1136    44.268254   -1851.8453 
  849200    555.12589   -1894.9513    40.183166   -1854.7682 
  849400    590.34443   -1898.3591    42.732484   -1855.6267 
  849600    603.08458   -1898.0908    43.654688   -1854.4361 
  849800    641.24225   -1898.9221    46.416757   -1852.5053 
  850000    628.30493   -1901.9549    45.480281   -1856.4746 
  850200     612.1523   -1898.5027    44.311061   -1854.1916 
  850400    622.02397   -1895.0843    45.025629   -1850.0587 
  850600     583.4706   -1898.4195    42.234917   -1856.1845 
  850800     584.4378   -1897.5601    42.304929   -1855.2551 
  851000    618.08894   -1897.0957    44.740789   -1852.3549 
  851200    583.32022   -1895.5011    42.224032   -1853.2771 
  851400    595.74034   -1898.6468     43.12307   -1855.5237 
  851600    606.13627   -1898.5782    43.875587   -1854.7026 
  851800    635.15704   -1895.3599    45.976275   -1849.3837 
  852000    556.78659   -1896.0436    40.303377   -1855.7403 
  852200    595.07485   -1899.5365    43.074898   -1856.4616 
  852400    619.96028   -1896.1089    44.876247   -1851.2327 
  852600    602.76159   -1896.7798    43.631308   -1853.1485 
  852800    611.92574   -1899.8664    44.294662   -1855.5717 
  853000     600.0161   -1896.8116    43.432574    -1853.379 
  853200    600.53685    -1893.738    43.470269   -1850.2677 
  853400    587.35482   -1897.9595    42.516079   -1855.4434 
  853600    605.89409    -1900.475    43.858056    -1856.617 
  853800    622.91834   -1895.5885    45.090368   -1850.4982 
  854000    622.20468   -1897.5007     45.03871    -1852.462 
  854200    559.90554   -1897.8027    40.529144   -1857.2735 
  854400    629.82029   -1897.3384    45.589971   -1851.7484 
  854600    601.20647   -1897.1942     43.51874   -1853.6755 
  854800    585.48107   -1899.2926    42.380446   -1856.9122 
  855000    608.84814   -1895.8993    44.071887   -1851.8274 
  855200    617.98433   -1896.7488    44.733217   -1852.0156 
  855400    597.49097    -1899.788    43.249791   -1856.5382 
  855600    610.03307    -1898.647    44.157659   -1854.4894 
  855800    614.85242   -1894.3331    44.506511   -1849.8265 
  856000    570.31328   -1896.0407    41.282516   -1854.7582 
  856200    563.19804   -1898.3029    40.767474   -1857.5355 
  856400    659.02456   -1897.7916    47.703942   -1850.0877 
  856600    611.75169    -1895.558    44.282063    -1851.276 
  856800    547.99747   -1897.0441     39.66717   -1857.3769 
  857000    581.83142   -1896.8713    42.116264   -1854.7551 
  857200    631.48114   -1895.8439    45.710193   -1850.1337 
  857400    616.07055   -1898.7079    44.594687   -1854.1132 
  857600    600.01571   -1898.8632    43.432546   -1855.4307 
  857800    620.66203   -1895.7004    44.927044   -1850.7733 
  858000     549.8697   -1894.9687    39.802693    -1855.166 
  858200    595.58493   -1896.7555    43.111821   -1853.6437 
  858400    594.38601   -1894.3981    43.025036   -1851.3731 
  858600    597.36465    -1895.119    43.240647   -1851.8783 
  858800    605.15791   -1896.8543    43.804768   -1853.0495 
  859000    595.82799   -1897.6589    43.129415   -1854.5295 
  859200    601.83513   -1893.8898    43.564246   -1850.3256 
  859400    630.15482   -1897.5042    45.614186     -1851.89 
  859600    592.75797    -1896.987    42.907189   -1854.0798 
  859800    590.27354   -1893.4871    42.727352   -1850.7598 
  860000    588.26453   -1896.9343    42.581929   -1854.3524 
  860200    590.27055    -1897.242    42.727136   -1854.5148 
  860400    601.11767   -1895.8607    43.512312   -1852.3484 
  860600    598.06261   -1896.6276    43.291169   -1853.3364 
  860800    624.39107   -1898.2154    45.196973   -1853.0185 
  861000    591.89235   -1896.4861    42.844531   -1853.6416 
  861200    584.29216   -1898.5026    42.294386   -1856.2082 
  861400    626.00781   -1895.6752    45.314001   -1850.3612 
  861600    627.56845   -1898.4079     45.42697    -1852.981 
  861800    564.82056     -1898.49    40.884921   -1857.6051 
  862000    603.53289   -1894.2054    43.687139   -1850.5183 
  862200    605.07935   -1898.5227    43.799081   -1854.7236 
  862400     582.0769   -1899.4451    42.134033   -1857.3111 
  862600    641.73386   -1893.9121    46.452343   -1847.4598 
  862800    605.77205   -1895.7494    43.849223   -1851.9002 
  863000    571.84902   -1898.0013    41.393681   -1856.6077 
  863200    632.33508   -1895.7636    45.772005   -1849.9916 
  863400    589.33215   -1895.8317    42.659209   -1853.1725 
  863600    600.64072   -1896.2283    43.477787   -1852.7505 
  863800    635.93306   -1896.3809    46.032448   -1850.3484 
  864000    560.07795    -1897.695    40.541624   -1857.1533 
  864200    605.45302   -1896.0879    43.826129   -1852.2618 
  864400    610.09695   -1895.9831    44.162283   -1851.8208 
  864600    585.08514   -1897.1372    42.351786   -1854.7854 
  864800      613.088   -1894.8706    44.378792   -1850.4919 
  865000    608.70653   -1894.6202    44.061637   -1850.5586 
  865200    580.47566   -1896.8872    42.018126   -1854.8691 
  865400    591.14876   -1895.2271    42.790706   -1852.4364 
  865600    624.57039   -1894.9625    45.209953   -1849.7525 
  865800    583.44697   -1897.8026    42.233206   -1855.5694 
  866000    608.54715   -1896.1459      44.0501   -1852.0958 
  866200    590.36739   -1895.4678    42.734146   -1852.7337 
  866400    582.05742   -1897.6166    42.132623   -1855.4839 
  866600    648.15637   -1897.7835    46.917241   -1850.8663 
  866800     595.9671   -1896.3853    43.139485   -1853.2458 
  867000    584.05423   -1896.5962    42.277163   -1854.3191 
  867200    622.37443   -1896.7348    45.050997   -1851.6838 
  867400    602.55879    -1896.574    43.616628   -1852.9574 
  867600    617.34708   -1895.4934    44.687089   -1850.8063 
  867800    608.01988   -1895.8568    44.011933   -1851.8448 
  868000    567.66742   -1895.0061    41.090993   -1853.9151 
  868200    597.26258   -1893.7456    43.233258   -1850.5124 
  868400     594.5078   -1895.1534    43.033852   -1852.1195 
  868600    588.28658    -1896.489    42.583525   -1853.9055 
  868800    631.81715   -1895.4083    45.734515   -1849.6738 
  869000    593.31128   -1897.5514    42.947241   -1854.6042 
  869200    579.89241    -1896.906    41.975907   -1854.9301 
  869400    630.50761   -1895.7236    45.639723   -1850.0839 
  869600     579.6576   -1895.1544     41.95891   -1853.1955 
  869800    616.24204   -1895.6913      44.6071   -1851.0842 
  870000     581.7034   -1894.4462    42.106997   -1852.3392 
  870200    606.22458   -1896.3634    43.881979   -1852.4814 
  870400    609.08744   -1895.7725    44.089209   -1851.6833 
  870600    604.93451   -1895.3318    43.788596   -1851.5432 
  870800    617.61912   -1896.2032    44.706781   -1851.4964 
  871000    572.12856   -1895.0347    41.413916   -1853.6208 
  871200    624.78274   -1896.1584    45.225324   -1850.9331 
  871400    615.49624   -1894.5682    44.553115   -1850.0151 
  871600    574.05193   -1893.9821     41.55314    -1852.429 
  871800    612.02154    -1895.972    44.301596   -1851.6704 
  872000    593.29269   -1894.8626    42.945896   -1851.9167 
  872200    631.09996   -1899.3025      45.6826   -1853.6199 
  872400    590.92998   -1897.6483    42.774869   -1854.8734 
  872600    613.57084   -1896.2213    44.413743   -1851.8076 
  872800    639.98302   -1898.5855    46.325607   -1852.2599 
  873000    573.53906   -1897.9649    41.516016   -1856.4489 
  873200    597.21914   -1895.9224    43.230114   -1852.6922 
  873400     650.6465   -1897.1503     47.09749   -1850.0529 
  873600    560.74326   -1897.3252    40.589783   -1856.7354 
  873800    605.31164   -1898.6907    43.815895   -1854.8748 
  874000     637.7797   -1896.7452    46.166118   -1850.5791 
  874200    602.92467   -1898.2984    43.643113   -1854.6553 
  874400    586.20717   -1898.4529    42.433005   -1856.0199 
  874600    621.06327   -1895.1095    44.956088   -1850.1534 
  874800    602.42164   -1898.6955    43.606701   -1855.0888 
  875000    574.89862   -1897.5869    41.614428   -1855.9725 
  875200    631.02691   -1896.6278    45.677313   -1850.9505 
  875400    618.23277   -1898.3809      44.7512   -1853.6297 
  875600    613.99183   -1898.7319    44.444217   -1854.2877 
  875800    599.89582   -1897.4129    43.423868    -1853.989 
  876000    619.45597   -1897.1741    44.839742   -1852.3344 
  876200    605.79862   -1896.7117    43.851146   -1852.8606 
  876400    593.34166   -1896.2254     42.94944   -1853.2759 
  876600    612.20792   -1897.1103    44.315087   -1852.7952 
  876800    589.28048   -1896.7778    42.655469   -1854.1223 
  877000    598.30606   -1896.1732    43.308792   -1852.8644 
  877200    634.69302   -1898.9262    45.942687   -1852.9835 
  877400    607.54833   -1899.2085    43.977799   -1855.2307 
  877600    609.88692   -1894.1571     44.14708     -1850.01 
  877800    609.95005   -1896.0192     44.15165   -1851.8675 
  878000    585.92688   -1897.2851    42.412716   -1854.8724 
  878200    677.45575   -1897.5529    49.038096   -1848.5148 
  878400    585.86323     -1895.23    42.408109   -1852.8219 
  878600    601.32381   -1897.9565    43.527233   -1854.4293 
  878800    609.70786   -1896.9313    44.134119   -1852.7972 
  879000    628.74913   -1897.5218    45.512434   -1852.0094 
  879200    589.38777   -1895.9317    42.663235   -1853.2684 
  879400    580.77054   -1895.0823    42.039471   -1853.0429 
  879600    576.57086     -1895.24    41.735474   -1853.5045 
  879800    597.16989   -1897.6414    43.226549   -1854.4149 
  880000    628.73048   -1898.0032    45.511084   -1852.4922 
  880200    570.00564   -1895.3513    41.260246   -1854.0911 
  880400    614.05738   -1897.4326    44.448962   -1852.9836 
  880600    587.33736   -1897.8988    42.514815    -1855.384 
  880800    597.88535   -1896.4277    43.278338   -1853.1494 
  881000    622.71525   -1898.6082    45.075668   -1853.5325 
  881200    626.49943   -1900.7414    45.349588   -1855.3918 
  881400    609.44831   -1899.9335    44.115331   -1855.8181 
  881600    624.38458   -1897.3836    45.196503   -1852.1871 
  881800    614.42443   -1897.6597    44.475531   -1853.1842 
  882000    609.01944   -1900.9451    44.084287   -1856.8609 
  882200    603.59937   -1898.5827    43.691952   -1854.8908 
  882400    606.89178   -1898.0868    43.930275   -1854.1565 
  882600    645.06979   -1899.6296    46.693816   -1852.9358 
  882800     627.5202   -1902.4348    45.423477   -1857.0113 
  883000    566.89963   -1900.2751    41.035416   -1859.2397 
  883200    641.47356   -1897.1256      46.4335   -1850.6921 
  883400    609.75631   -1899.5745    44.137626   -1855.4369 
  883600    583.47902   -1900.5403    42.235526   -1858.3048 
  883800     650.7031   -1898.9381    47.101587   -1851.8365 
  884000    610.83209   -1899.2205    44.215497    -1855.005 
  884200    593.94758   -1898.9082      42.9933   -1855.9149 
  884400    627.97082   -1897.6001    45.456096    -1852.144 
  884600    597.15738   -1899.1734    43.225644   -1855.9478 
  884800    614.78207   -1901.8871    44.501419   -1857.3857 
  885000    640.83064    -1899.301    46.386963   -1852.9141 
  885200    619.27952   -1899.4199     44.82697   -1854.5929 
  885400    603.37669   -1901.9405    43.675832   -1858.2647 
  885600    612.27763   -1902.3831    44.320133    -1858.063 
  885800    615.85729   -1897.5177    44.579249   -1852.9384 
  886000    598.70228   -1897.6555    43.337473   -1854.3181 
  886200    574.12306   -1901.2026    41.558289   -1859.6443 
  886400    618.66055   -1897.8813    44.782166   -1853.0992 
  886600    620.40817   -1897.0253    44.908668   -1852.1166 
  886800    560.11525   -1902.0593    40.544324    -1861.515 
  887000     616.9621   -1898.7657    44.659222   -1854.1065 
  887200    612.75555   -1894.9527    44.354728   -1850.5979 
  887400    580.94688   -1900.1202    42.052236    -1858.068 
  887600    585.02218   -1900.4928    42.347229   -1858.1456 
  887800    625.18661   -1898.2452    45.254558   -1852.9906 
  888000    609.56591   -1899.9939    44.123844     -1855.87 
  888200    573.12072   -1901.6262    41.485733   -1860.1405 
  888400    640.13842   -1900.2807    46.336855   -1853.9438 
  888600    641.00512   -1900.6842    46.399592   -1854.2846 
  888800    587.61539   -1901.5877     42.53494   -1859.0528 
  889000    613.75672   -1899.8271    44.427198   -1855.3999 
  889200    642.57507   -1901.2533    46.513234     -1854.74 
  889400    614.35435   -1903.6269    44.470458   -1859.1564 
  889600    619.36775   -1899.9356    44.833357   -1855.1022 
  889800    619.08391   -1901.1189    44.812811   -1856.3061 
  890000    599.26775   -1901.4928    43.378404   -1858.1144 
  890200    640.48463   -1899.3473    46.361917   -1852.9854 
  890400    630.00178    -1901.356    45.603108   -1855.7529 
  890600    594.21539   -1902.2875    43.012685   -1859.2748 
  890800    629.83027   -1901.5149    45.590693   -1855.9242 
  891000    634.02853   -1901.3372    45.894587   -1855.4426 
  891200    608.39078   -1902.2443    44.038781   -1858.2055 
  891400    577.21304   -1899.2045    41.781959   -1857.4226 
  891600    659.26713   -1900.0025      47.7215    -1852.281 
  891800    606.48189   -1902.1878    43.900605   -1858.2872 
  892000    630.81386   -1903.3021    45.661891   -1857.6403 
  892200    591.44046   -1899.8105    42.811821   -1856.9987 
  892400    633.08774   -1902.3249    45.826487   -1856.4984 
  892600    621.35337   -1901.2666    44.977087   -1856.2895 
  892800    576.77152   -1899.4915    41.749999   -1857.7415 
  893000    596.28976   -1898.4583     43.16284   -1855.2955 
  893200    600.19566   -1897.1398    43.445571   -1853.6942 
  893400    595.99092   -1901.1223    43.141209   -1857.9811 
  893600    604.74679   -1899.8184    43.775008   -1856.0434 
  893800    638.41049        -1902    46.211778   -1855.7882 
  894000    582.26951   -1902.3074    42.147975   -1860.1594 
  894200    631.43371    -1900.379    45.706759   -1854.6723 
  894400    645.12743   -1901.0015    46.697988   -1854.3035 
  894600    629.14892   -1902.0609    45.541373   -1856.5195 
  894800    629.11939   -1902.9413    45.539236    -1857.402 
  895000    603.86179   -1902.2016    43.710947   -1858.4906 
  895200    651.06109   -1899.3729      47.1275   -1852.2454 
  895400    615.44137   -1901.0189    44.549143   -1856.4698 
  895600    581.17675   -1901.5069    42.068875    -1859.438 
  895800    606.93388   -1896.4619    43.933323   -1852.5285 
  896000    610.33526   -1901.4997    44.179533   -1857.3201 
  896200    569.70604   -1901.1041     41.23856   -1859.8655 
  896400    655.94162    -1899.091    47.480781   -1851.6102 
  896600    592.49858   -1901.8008    42.888413   -1858.9124 
  896800    615.86972   -1904.7188     44.58015   -1860.1387 
  897000    643.32092   -1900.1879    46.567223   -1853.6207 
  897200    617.52256   -1903.0026    44.699791   -1858.3028 
  897400    629.69924   -1902.0556    45.581209   -1856.4744 
  897600    617.00378   -1902.4187    44.662239   -1857.7565 
  897800    618.72459   -1900.5776    44.786801   -1855.7908 
  898000    642.37606   -1899.7279    46.498829    -1853.229 
  898200     574.8958   -1903.2017    41.614224   -1861.5875 
  898400     631.5082   -1900.7248    45.712151   -1855.0126 
  898600     627.1152   -1899.4852    45.394161   -1854.0911 
  898800    594.39343   -1901.2508    43.025573   -1858.2253 
  899000     642.3107   -1900.0086    46.494098   -1853.5145 
  899200    597.87333   -1899.3902    43.277468   -1856.1127 
  899400    618.15882    -1900.109    44.745847   -1855.3631 
  899600    644.32859   -1900.4802    46.640164     -1853.84 
  899800     577.5998   -1901.8944    41.809955   -1860.0845 
  900000    635.82345    -1897.514    46.024513   -1851.4895 
  900200    635.42931   -1899.5737    45.995983   -1853.5778 
  900400     584.4903   -1902.3971    42.308728   -1860.0883 
  900600    645.95134   -1901.5999    46.757628   -1854.8422 
  900800    637.04405     -1900.22    46.112868   -1854.1072 
  901000    598.10968    -1901.347    43.294577   -1858.0524 
  901200    632.64666   -1900.2883    45.794559   -1854.4938 
  901400    609.91951   -1900.3275    44.149439   -1856.1781 
  901600    606.96027   -1899.5434    43.935233   -1855.6082 
  901800     633.3692   -1900.0932    45.846861   -1854.2464 
  902000     613.9662   -1904.3399    44.442362   -1859.8975 
  902200    614.29814   -1900.8875     44.46639   -1856.4211 
  902400    605.27281   -1896.7137    43.813085   -1852.9007 
  902600    585.61188   -1901.8173    42.389915   -1859.4274 
  902800    632.02161   -1902.3183    45.749315    -1856.569 
  903000    642.54209   -1902.1417    46.510847   -1855.6308 
  903200    588.95426   -1903.1473    42.631855   -1860.5154 
  903400    623.17398   -1901.7217    45.108873   -1856.6129 
  903600    626.59315   -1900.1994    45.356372   -1854.8431 
  903800    589.64815   -1901.9413    42.682083   -1859.2592 
  904000    624.14317   -1904.7314    45.179028   -1859.5524 
  904200    614.10768   -1901.3479    44.452603   -1856.8953 
  904400    646.15508   -1900.8076    46.772376   -1854.0352 
  904600     582.1514   -1902.9665    42.139426   -1860.8271 
  904800    622.79382   -1904.0853    45.081355   -1859.0039 
  905000    646.35825   -1899.7027    46.787082   -1852.9157 
  905200    608.54951   -1902.7493    44.050271    -1858.699 
  905400     611.1684   -1905.0452    44.239841   -1860.8054 
  905600    615.04278   -1898.8383    44.520291    -1854.318 
  905800    643.44824   -1900.8156    46.576439   -1854.2392 
  906000    596.02963   -1903.1762    43.144011   -1860.0322 
  906200     643.3104   -1901.9542    46.566461   -1855.3877 
  906400    610.74574   -1899.2602    44.209246   -1855.0509 
  906600    600.60066   -1900.8134    43.474888   -1857.3385 
  906800    632.18914   -1902.4412    45.761441   -1856.6798 
  907000    623.04976   -1901.7292    45.099881   -1856.6294 
  907200    602.37029    -1901.395    43.602983    -1857.792 
  907400    648.65325   -1901.7932    46.953208     -1854.84 
  907600    629.13194   -1901.3735    45.540144   -1855.8333 
  907800    630.42134   -1904.4013    45.633478   -1858.7679 
  908000    629.84954   -1902.0986    45.592088   -1856.5065 
  908200    601.66279   -1899.3251    43.551771   -1855.7733 
  908400    607.08775   -1900.9987    43.944461   -1857.0543 
  908600    628.79991   -1902.7673     45.51611   -1857.2511 
  908800     595.5484   -1900.9488    43.109177   -1857.8396 
  909000    608.57811   -1900.7394    44.052341   -1856.6871 
  909200    633.05736   -1903.9489    45.824288   -1858.1246 
  909400    612.27994   -1903.8174      44.3203   -1859.4971 
  909600    639.76004   -1901.0143    46.309466   -1854.7049 
  909800    620.42655   -1901.0475    44.909998   -1856.1375 
  910000    606.42876   -1903.1892    43.896759   -1859.2924 
  910200    623.37382   -1900.6773    45.123338   -1855.5539 
  910400    612.00863   -1900.4239    44.300662   -1856.1232 
  910600    605.66701   -1900.7471    43.841619   -1856.9055 
  910800    597.37731   -1900.7529    43.241563   -1857.5113 
  911000    602.93335   -1901.5132    43.643741   -1857.8694 
  911200    633.11218   -1898.8268    45.828257   -1852.9985 
  911400    609.28446    -1898.191    44.103471   -1854.0875 
  911600    578.47432   -1903.6107    41.873258   -1861.7374 
  911800    655.00952   -1902.3926    47.413311   -1854.9793 
  912000    634.06688   -1897.8509    45.897363   -1851.9535 
  912200    601.14773    -1904.834    43.514488   -1861.3195 
  912400    609.69022   -1901.3744    44.132842   -1857.2416 
  912600    648.69333   -1900.2126    46.956108   -1853.2565 
  912800    592.39171   -1902.3114    42.880677   -1859.4307 
  913000    663.20572   -1901.9788    48.006598   -1853.9722 
  913200    643.47211   -1901.9399    46.578167   -1855.3617 
  913400    621.48956   -1902.4272    44.986945   -1857.4403 
  913600    600.96117   -1899.7264    43.500984   -1856.2254 
  913800    580.16522   -1900.9542    41.995655   -1858.9585 
  914000    648.81156    -1902.108    46.964667   -1855.1433 
  914200    639.62706   -1903.2972     46.29984   -1856.9973 
  914400    593.25348    -1902.423    42.943058     -1859.48 
  914600    603.66692   -1898.3298    43.696841    -1854.633 
  914800    628.46096   -1900.7315    45.491575   -1855.2399 
  915000    584.21952   -1899.8022    42.289128    -1857.513 
  915200    655.99939   -1901.7528    47.484963   -1854.2678 
  915400    604.44075   -1901.9281    43.752855   -1858.1752 
  915600    610.17664   -1901.9629    44.168052   -1857.7949 
  915800    651.33266   -1902.0092    47.147158   -1854.8621 
  916000    585.93742   -1902.6379    42.413479   -1860.2244 
  916200    637.43375   -1900.2556    46.141077   -1854.1145 
  916400    629.53657   -1900.6583    45.569434   -1855.0889 
  916600    600.53158   -1903.9842    43.469888   -1860.5143 
  916800    650.61197   -1902.1658    47.094991   -1855.0708 
  917000    608.12875   -1899.0137    44.019814   -1854.9939 
  917200    615.08136   -1902.1479    44.523083   -1857.6249 
  917400    651.16616   -1904.4563    47.135106   -1857.3212 
  917600    622.67002   -1900.0596    45.072394   -1854.9872 
  917800    644.18859   -1901.0007     46.63003   -1854.3707 
  918000    593.39753   -1900.9489    42.953484   -1857.9954 
  918200    612.82206   -1900.6205    44.359542    -1856.261 
  918400    640.25661   -1897.6493    46.345411   -1851.3038 
  918600    553.44962   -1899.8028    40.061828    -1859.741 
  918800    603.99499   -1901.9499    43.720589   -1858.2293 
  919000     658.4736    -1898.194     47.66406   -1850.5299 
  919200    583.08105    -1899.657    42.206719   -1857.4503 
  919400    630.86137   -1901.4377     45.66533   -1855.7723 
  919600    635.56987   -1898.9483    46.006158   -1852.9421 
  919800    599.53295   -1900.6938    43.397601   -1857.2962 
  920000    629.25061   -1900.9888    45.548734   -1855.4401 
  920200    623.22557   -1901.0913    45.112608   -1855.9787 
  920400    646.99523   -1901.2088     46.83319   -1854.3756 
  920600    616.83339   -1899.5537    44.649905   -1854.9038 
  920800    607.07364   -1900.0925    43.943439   -1856.1491 
  921000    620.20445   -1900.0969    44.893921   -1855.2029 
  921200    619.94736    -1899.409    44.875312   -1854.5337 
  921400    625.73257   -1901.6406    45.294078   -1856.3465 
  921600    603.74988   -1900.1667    43.702846   -1856.4638 
  921800    636.96486   -1899.6687    46.107135   -1853.5615 
  922000    638.72577   -1902.4215      46.2346   -1856.1869 
  922200    589.80266   -1901.6771    42.693267   -1858.9838 
  922400     612.1945   -1896.3607    44.314116   -1852.0466 
  922600     639.0333   -1902.0144    46.256861   -1855.7575 
  922800    584.68473   -1904.4681    42.322803   -1862.1453 
  923000    672.55008   -1900.7639    48.682996   -1852.0809 
  923200    595.97268   -1899.5538    43.139888    -1856.414 
  923400    594.54952   -1903.4973    43.036872   -1860.4604 
  923600    646.91291   -1902.3599    46.827232   -1855.5326 
  923800     606.3001     -1899.81    43.887446   -1855.9225 
  924000     643.3614   -1901.8278    46.570154   -1855.2577 
  924200    596.57059   -1902.6306    43.183169   -1859.4474 
  924400    596.18179   -1900.4481    43.155025   -1857.2931 
  924600    692.34754   -1901.4052    50.116049   -1851.2892 
  924800     594.6549   -1900.7095      43.0445    -1857.665 
  925000    615.92401    -1901.339    44.584079    -1856.755 
  925200    627.55569   -1898.0235    45.426046   -1852.5974 
  925400    598.84622   -1899.1616    43.347892   -1855.8137 
  925600    626.24272   -1901.0808    45.331006   -1855.7498 
  925800    629.83332   -1899.2125    45.590914   -1853.6216 
  926000      599.654   -1897.9591    43.406363   -1854.5527 
  926200    646.55047   -1900.0098    46.800996   -1853.2088 
  926400    628.02198   -1902.5327    45.459799   -1857.0729 
  926600    619.50591   -1903.3259    44.843357   -1858.4825 
  926800    648.66698   -1899.1169    46.954201   -1852.1627 
  927000    624.47688   -1899.4374    45.203184   -1854.2342 
  927200    614.05272   -1901.7617    44.448624    -1857.313 
  927400    594.56193   -1900.9931     43.03777   -1857.9554 
  927600    642.91377   -1898.7062    46.537751   -1852.1684 
  927800    639.94492   -1900.3205    46.322849   -1853.9976 
  928000    575.93824   -1902.6027    41.689682    -1860.913 
  928200    653.35661   -1901.3134    47.293663   -1854.0197 
  928400     668.2904   -1901.0975    48.374656   -1852.7229 
  928600    592.91203   -1903.5886    42.918341   -1860.6703 
  928800    640.94993   -1901.1212    46.395597   -1854.7256 
  929000    658.41269   -1900.6339    47.659651   -1852.9742 
  929200    607.00757   -1902.6221    43.938656   -1858.6835 
  929400    625.78327   -1902.1363    45.297749   -1856.8385 
  929600    644.79149   -1898.6935    46.673671   -1852.0198 
  929800    654.64159   -1898.7029    47.386678   -1851.3162 
  930000    605.57879   -1902.9384    43.835233   -1859.1031 
  930200    627.94554   -1899.0083    45.454265    -1853.554 
  930400    637.71961   -1898.5525    46.161768   -1852.3907 
  930600    561.25201   -1900.1415    40.626609   -1859.5149 
  930800    618.06509   -1900.0328    44.739062   -1855.2937 
  931000    623.95308   -1896.8955    45.165269   -1851.7303 
  931200    607.79991   -1900.6406    43.996011   -1856.6445 
  931400    629.92487    -1900.593    45.597541   -1854.9955 
  931600     628.1262   -1899.4525    45.467343   -1853.9852 
  931800    645.26558   -1902.3375    46.707988   -1855.6295 
  932000    635.23465    -1902.821    45.981893   -1856.8391 
  932200    646.95036   -1902.6998    46.829942   -1855.8699 
  932400    619.88563   -1901.3388    44.870844    -1856.468 
  932600    613.81381   -1900.9333    44.431331   -1856.5019 
  932800    633.16833   -1901.0579    45.832321   -1855.2255 
  933000    608.14108   -1900.2583    44.020706   -1856.2376 
  933200    604.58634   -1902.1875    43.763394   -1858.4241 
  933400    649.22154   -1900.1625    46.994343   -1853.1682 
  933600    597.82965   -1899.5147    43.274306   -1856.2404 
  933800    612.03889   -1900.6963    44.302852   -1856.3935 
  934000    662.82886   -1903.2564    47.979319   -1855.2771 
  934200    577.23667   -1899.8124    41.783669   -1858.0288 
  934400    633.64417   -1901.0879    45.866765   -1855.2211 
  934600    641.79832   -1903.6985    46.457009   -1857.2414 
  934800    614.12289   -1903.0577    44.453704    -1858.604 
  935000    663.17228   -1900.9507    48.004177   -1852.9465 
  935200    599.17915   -1903.8573    43.371991   -1860.4853 
  935400    635.66802   -1901.7092    46.013263   -1855.6959 
  935600    649.85172   -1901.2855    47.039959   -1854.2455 
  935800    591.74557   -1903.7541    42.833906   -1860.9201 
  936000    682.00443   -1900.8671    49.367355   -1851.4998 
  936200    614.74073   -1899.6815    44.498427    -1855.183 
  936400     583.1181   -1902.7801    42.209401   -1860.5707 
  936600    661.84888   -1898.7052    47.908382   -1850.7969 
  936800    638.61997   -1900.4145    46.226941   -1854.1876 
  937000    609.22019   -1902.4706    44.098819   -1858.3717 
  937200     626.0337    -1897.962    45.315876   -1852.6461 
  937400    643.91975   -1898.4924    46.610569   -1851.8818 
  937600    591.98555    -1899.655    42.851277   -1856.8037 
  937800    637.12547   -1901.6269    46.118761   -1855.5082 
  938000    629.42752   -1899.0991     45.56154   -1853.5375 
  938200    650.96004   -1899.5045    47.120186   -1852.3843 
  938400    654.38772   -1902.2955    47.368301   -1854.9272 
  938600    641.59802   -1901.7433     46.44251   -1855.3008 
  938800    669.49797   -1900.2953    48.462067   -1851.8333 
  939000    630.59257   -1901.7237    45.645872   -1856.0778 
  939200    596.34635   -1899.8323    43.166937   -1856.6653 
  939400    644.96733   -1896.6028      46.6864   -1849.9164 
  939600    628.38073    -1899.561    45.485767   -1854.0752 
  939800    608.12213   -1901.6194    44.019335   -1857.6001 
  940000    658.71617    -1899.897    47.681618   -1852.2153 
  940200    601.61311   -1899.7035    43.548175   -1856.1553 
  940400    616.19207   -1899.7196    44.603483   -1855.1161 
  940600    632.99481   -1897.9764     45.81976   -1852.1566 
  940800    604.45188   -1899.8469    43.753661   -1856.0932 
  941000    622.62827   -1898.9482    45.069372   -1853.8788 
  941200    643.28717   -1900.6886     46.56478   -1854.1239 
  941400    578.78487   -1900.6474    41.895737   -1858.7517 
  941600    639.41476   -1897.6112    46.284473   -1851.3267 
  941800    638.71751   -1899.5292    46.234002   -1853.2952 
  942000    599.59143   -1903.6616    43.401834   -1860.2597 
  942200    644.57876   -1897.6617    46.658273   -1851.0034 
  942400    628.20452   -1898.1865    45.473012   -1852.7135 
  942600     583.6227   -1902.9227    42.245927   -1860.6768 
  942800    658.95901   -1899.3858    47.699197   -1851.6866 
  943000    616.97708    -1897.383    44.660306   -1852.7227 
  943200     598.3344   -1903.7872    43.310843   -1860.4763 
  943400    645.14292    -1901.017     46.69911   -1854.3179 
  943600    661.99681   -1901.4952     47.91909   -1853.5761 
  943800    616.78795   -1902.3183    44.646616   -1857.6717 
  944000    634.69082   -1901.3163    45.942527   -1855.3738 
  944200    640.89064   -1898.6877    46.391305   -1852.2964 
  944400    630.43567   -1898.6276    45.634515    -1852.993 
  944600    631.28838   -1900.9878    45.696239   -1855.2916 
  944800    622.91614   -1900.9372    45.090209    -1855.847 
  945000    647.50702   -1898.9036    46.870237   -1852.0334 
  945200    615.25511    -1900.836     44.53566   -1856.3003 
  945400    637.28959   -1901.5132    46.130641   -1855.3826 
  945600     618.8373   -1896.9574     44.79496   -1852.1625 
  945800    637.63948   -1900.2139    46.155968   -1854.0579 
  946000    587.19314   -1899.6302    42.504376   -1857.1258 
  946200    644.39236   -1900.1489     46.64478   -1853.5041 
  946400    648.69014   -1900.1829    46.955877   -1853.2271 
  946600    627.27918   -1900.1927    45.406031   -1854.7867 
  946800    608.98416   -1900.3814    44.081733   -1856.2997 
  947000    653.23717   -1900.5492    47.285018   -1853.2642 
  947200     644.6062   -1900.6719    46.660259   -1854.0116 
  947400    627.35457   -1904.3342    45.411488   -1858.9228 
  947600    618.87722   -1899.4769    44.797849   -1854.6791 
  947800    659.55446   -1900.5008    47.742299   -1852.7585 
  948000    615.71362   -1899.9323     44.56885   -1855.3635 
  948200    658.53993   -1902.6124    47.668861   -1854.9435 
  948400    623.30434   -1899.7903    45.118309    -1854.672 
  948600    662.67551    -1901.205    47.968218   -1853.2367 
  948800    594.53176   -1899.2618    43.035586   -1856.2262 
  949000     665.5474   -1901.6437    48.176102   -1853.4676 
  949200    632.79021   -1900.4479    45.804951   -1854.6429 
  949400    621.91953   -1899.9453    45.018069   -1854.9272 
  949600    649.24984   -1900.2828    46.996392   -1853.2864 
  949800    626.77933   -1899.3451    45.369849   -1853.9753 
  950000    631.52374   -1901.3322    45.713276   -1855.6189 
  950200    642.68553   -1900.5036     46.52123   -1853.9824 
  950400    655.75271   -1901.9767    47.467107   -1854.5096 
  950600    624.47173   -1902.0485    45.202812   -1856.8457 
  950800    637.28775   -1899.8613    46.130508   -1853.7308 
  951000    641.63268   -1901.0518    46.445019   -1854.6068 
  951200    616.36593    -1901.218    44.616067   -1856.6019 
  951400    643.92707   -1900.1097    46.611099   -1853.4986 
  951600    641.26315   -1900.3567     46.41827   -1853.9385 
  951800    631.74884   -1901.0335     45.72957   -1855.3039 
  952000    648.29859    -1900.228    46.927535   -1853.3005 
  952200    633.01475   -1902.1606    45.821204   -1856.3394 
  952400    618.19919   -1900.5184    44.748769   -1855.7696 
  952600    654.29803   -1900.9453    47.361808   -1853.5835 
  952800    649.93718   -1902.4721    47.046145    -1855.426 
  953000    623.12803   -1898.0295    45.105547    -1852.924 
  953200    623.54913     -1899.78    45.136029    -1854.644 
  953400    589.92339   -1900.2286    42.702006   -1857.5266 
  953600    660.65892   -1900.5713    47.822246   -1852.7491 
  953800     623.7392   -1900.8259    45.149787   -1855.6761 
  954000    632.30835   -1902.8171    45.770071    -1857.047 
  954200     657.8438   -1898.5904    47.618472   -1850.9719 
  954400    662.62859   -1901.0822    47.964822   -1853.1174 
  954600    641.57568   -1902.5013    46.440892   -1856.0604 
  954800     643.2016   -1899.3373    46.558586   -1852.7787 
  955000    636.15728    -1899.046    46.048678   -1852.9973 
  955200    617.02575   -1899.1481    44.663829   -1854.4843 
  955400    627.66059   -1900.1875     45.43364   -1854.7539 
  955600    638.54157   -1900.6168    46.221267   -1854.3955 
  955800    652.71462   -1900.0669    47.247192   -1852.8197 
  956000    615.41642   -1898.1933    44.547337   -1853.6459 
  956200    613.06674   -1900.1298    44.377253   -1855.7525 
  956400    628.55304   -1899.6433     45.49824   -1854.1451 
  956600    662.04998   -1898.2951    47.922939   -1850.3722 
  956800    661.19072   -1903.1019    47.860741   -1855.2412 
  957000    642.47576   -1901.0581    46.506046    -1854.552 
  957200    668.81468   -1899.5123    48.412607   -1851.0997 
  957400     617.9042   -1899.8096    44.727417   -1855.0822 
  957600    634.39071   -1899.3567    45.920804   -1853.4359 
  957800    615.36031   -1898.3018    44.543275   -1853.7586 
  958000    660.51286   -1903.2283    47.811673   -1855.4166 
  958200    648.23308   -1901.2437    46.922793   -1854.3209 
  958400    656.46052   -1901.6934    47.518342   -1854.1751 
  958600    668.58693   -1902.8399    48.396121   -1854.4438 
  958800     630.8995   -1903.5596     45.66809   -1857.8916 
  959000    618.12379   -1897.7017    44.743312   -1852.9584 
  959200    651.70011    -1898.575    47.173756   -1851.4012 
  959400    581.51134   -1900.3136    42.093095   -1858.2205 
  959600    622.62613   -1898.0141    45.069217   -1852.9448 
  959800     654.3304     -1897.91    47.364152   -1850.5458 
  960000    610.57168   -1899.0277    44.196647   -1854.8311 
  960200    631.51907   -1900.0998    45.712938   -1854.3868 
  960400    626.40147   -1899.4983    45.342497   -1854.1558 
  960600    621.43087   -1898.0968    44.982697   -1853.1141 
  960800    632.11127   -1898.1971    45.755805   -1852.4413 
  961000    616.34166   -1899.1931    44.614311   -1854.5788 
  961200    672.16012   -1900.8143    48.654768   -1852.1595 
  961400    616.02648   -1900.2354    44.591497   -1855.6439 
  961600    644.60518   -1901.4921    46.660185   -1854.8319 
  961800    665.24508   -1897.3299    48.154218   -1849.1757 
  962000    621.84162    -1898.259    45.012429   -1853.2465 
  962200    616.25305   -1901.1738    44.607897   -1856.5659 
  962400    655.26997   -1900.3776    47.432163   -1852.9454 
  962600    598.83176   -1895.6502    43.346845   -1852.3034 
  962800     640.2534   -1898.9534    46.345178   -1852.6082 
  963000     655.1092   -1901.3751    47.420525   -1853.9546 
  963200    624.04963   -1900.4128    45.172258   -1855.2405 
  963400    659.95195   -1900.1806    47.771072   -1852.4095 
  963600    633.26147   -1900.0828    45.839063   -1854.2437 
  963800    624.96134   -1899.9908    45.238253   -1854.7526 
  964000    665.55999   -1899.4378    48.177013   -1851.2608 
  964200    647.70532   -1899.7441    46.884591   -1852.8595 
  964400    631.20116   -1898.8726    45.689926   -1853.1827 
  964600     630.3517   -1901.4448    45.628437   -1855.8164 
  964800    628.83236   -1901.2492    45.518458   -1855.7307 
  965000    680.68076   -1896.4332    49.271541   -1847.1616 
  965200    619.70001   -1901.5523    44.857407   -1856.6949 
  965400    590.50857   -1900.9606    42.744365   -1858.2162 
  965600    678.28863   -1895.9706    49.098384   -1846.8722 
  965800    608.73781   -1900.9257    44.063901   -1856.8618 
  966000    616.54549   -1901.7043    44.629065   -1857.0753 
  966200    658.49922   -1896.6106    47.665915   -1848.9447 
  966400     620.1159   -1899.1412    44.887512   -1854.2537 
  966600    626.14256   -1901.4968    45.323755    -1856.173 
  966800    665.58972   -1896.6935    48.179165   -1848.5143 
  967000    646.83147   -1900.7906    46.821336   -1853.9692 
  967200    601.02331   -1901.5396    43.505481   -1858.0341 
  967400    659.15435   -1897.2217    47.713337   -1849.5084 
  967600    670.05287   -1897.4225    48.502234   -1848.9202 
  967800    617.27166   -1901.3639     44.68163   -1856.6822 
  968000    648.63752   -1900.0378    46.952069   -1853.0857 
  968200    677.11039   -1898.6872    49.013097   -1849.6741 
  968400    615.14396   -1901.9781    44.527614   -1857.4505 
  968600    623.59049   -1900.9604    45.139022   -1855.8213 
  968800    690.40847   -1897.4587    49.975688    -1847.483 
  969000    619.21927   -1899.1298    44.822609   -1854.3072 
  969200    597.32892   -1901.8362    43.238061   -1858.5981 
  969400    648.34445   -1897.6311    46.930855   -1850.7002 
  969600    643.82955   -1897.1715    46.604041   -1850.5674 
  969800    648.42053   -1903.9353    46.936362    -1856.999 
  970000    640.46335   -1901.0401    46.360376   -1854.6797 
  970200    634.67415   -1896.6679    45.941321   -1850.7266 
  970400    624.78256    -1899.174    45.225311   -1853.9487 
  970600    604.22608   -1899.2347    43.737316   -1855.4974 
  970800    654.35028   -1900.2372    47.365591   -1852.8716 
  971000    652.54047   -1897.7575    47.234587   -1850.5229 
  971200    610.49863   -1900.7068    44.191359   -1856.5155 
  971400    637.95483   -1899.6808    46.178795    -1853.502 
  971600    662.00132   -1897.7284    47.919416    -1849.809 
  971800    627.93785   -1900.4982    45.453709   -1855.0445 
  972000    640.17599   -1903.6082    46.339575   -1857.2686 
  972200     668.3459   -1898.6507    48.378674   -1850.2721 
  972400      621.808   -1898.2366    45.009996   -1853.2266 
  972600    643.07507   -1900.8912    46.549427   -1854.3417 
  972800     639.8005   -1896.8404    46.312395    -1850.528 
  973000    632.90703   -1897.3711    45.813406   -1851.5577 
  973200     603.1995   -1897.7292    43.663006   -1854.0661 
  973400    618.31434   -1898.5318    44.757105   -1853.7747 
  973600    637.79267   -1897.5692    46.167057   -1851.4021 
  973800    640.13529    -1899.089    46.336629   -1852.7524 
  974000    676.11658   -1899.8739     48.94116   -1850.9327 
  974200    657.90501   -1898.8676    47.622902   -1851.2447 
  974400     632.2057   -1900.1552     45.76264   -1854.3925 
  974600    615.41491   -1897.6578    44.547227   -1853.1106 
  974800    679.83154   -1900.2148    49.210069   -1851.0047 
  975000    613.86946   -1899.3773    44.435359    -1854.942 
  975200    646.09499   -1899.1653    46.768026   -1852.3973 
  975400    665.28815   -1897.9165    48.157336   -1849.7591 
  975600     592.8811   -1899.0465    42.916102   -1856.1304 
  975800    650.02122   -1899.0447    47.052229   -1851.9924 
  976000      649.582   -1898.7082    47.020436   -1851.6878 
  976200    624.87519   -1900.5414    45.232017   -1855.3094 
  976400    637.96422   -1896.9887    46.179475   -1850.8093 
  976600    637.88986   -1897.7698    46.174092   -1851.5957 
  976800    636.56226   -1900.1698    46.077992   -1854.0918 
  977000    638.64239   -1898.5368    46.228564   -1852.3083 
  977200    678.17839   -1899.7129    49.090404   -1850.6225 
  977400    652.87136    -1900.088    47.258538   -1852.8294 
  977600    635.81864   -1898.5372    46.024165    -1852.513 
  977800    641.57566   -1895.4923    46.440891   -1849.0514 
  978000     639.9113    -1899.489    46.320415   -1853.1686 
  978200    644.78503   -1900.0408    46.673203   -1853.3676 
  978400     679.2834   -1897.1404    49.170392     -1847.97 
  978600    651.62916   -1898.5098     47.16862   -1851.3412 
  978800    595.00905   -1899.1227    43.070136   -1856.0526 
  979000     635.2262    -1898.626    45.981281   -1852.6447 
  979200    650.84603   -1896.6874    47.111934   -1849.5755 
  979400    629.54933   -1899.5199    45.570357   -1853.9496 
  979600    644.11565   -1899.7346     46.62475   -1853.1099 
  979800    665.25471   -1898.4303    48.154916   -1850.2753 
  980000    630.14044   -1897.6762    45.613145    -1852.063 
  980200    629.29432   -1898.8317    45.551898   -1853.2798 
  980400    640.88238   -1898.3338    46.390707   -1851.9431 
  980600    638.14245   -1899.4924    46.192376   -1853.3001 
  980800    675.38585   -1898.5736    48.888265   -1849.6853 
  981000    633.46104   -1898.3158    45.853509   -1852.4622 
  981200    581.63817   -1900.0441    42.102275   -1857.9418 
  981400    693.60278   -1897.9414     50.20691   -1847.7345 
  981600    652.30213   -1898.3981    47.217334   -1851.1808 
  981800    595.28546   -1902.1679    43.090144   -1859.0778 
  982000    656.94051   -1895.9377    47.553086   -1848.3846 
  982200    643.67172   -1895.8016    46.592616    -1849.209 
  982400     603.0791   -1902.9004    43.654291   -1859.2461 
  982600    679.48586     -1901.26    49.185047    -1852.075 
  982800     696.2257   -1897.6523    50.396771   -1847.2555 
  983000    676.68596   -1900.3688    48.982374   -1851.3864 
  983200    638.89958   -1900.3342    46.247181    -1854.087 
  983400    632.37401   -1897.3093    45.774823   -1851.5345 
  983600    679.99744   -1895.7134    49.222078   -1846.4913 
  983800    611.05754   -1899.7643    44.231817   -1855.5325 
  984000    643.85817   -1902.0315    46.606112   -1855.4254 
  984200    654.12327    -1894.886    47.349159   -1847.5368 
  984400     625.0311   -1896.4547    45.243302   -1851.2114 
  984600    619.53623    -1900.403    44.845552   -1855.5575 
  984800    700.13383   -1900.0539    50.679665   -1849.3742 
  985000    652.44585   -1896.9978    47.227737   -1849.7701 
  985200    632.12667    -1899.229    45.756919    -1853.472 
  985400    653.11626   -1900.5127    47.276266   -1853.2365 
  985600      661.859   -1897.3885    47.909114   -1849.4793 
  985800    660.74483   -1898.4757    47.828465   -1850.6472 
  986000     600.9017   -1900.1431    43.496679   -1856.6464 
  986200    659.14624   -1897.5757     47.71275   -1849.8629 
  986400     669.1655   -1896.2263       48.438   -1847.7883 
  986600    604.20109   -1900.2329    43.735507   -1856.4974 
  986800    628.88417   -1896.4338    45.522209   -1850.9116 
  987000     673.0738   -1895.2191    48.720906   -1846.4982 
  987200    619.35136   -1898.8614     44.83217   -1854.0293 
  987400    625.69634   -1900.1056    45.291456   -1854.8142 
  987600    645.62486   -1898.0062    46.733996   -1851.2722 
  987800    650.55346   -1899.5549    47.090755   -1852.4642 
  988000     659.2004   -1899.2669     47.71667   -1851.5503 
  988200     657.2933   -1899.1291    47.578624   -1851.5505 
  988400    636.92244   -1899.2444    46.104065   -1853.1404 
  988600    658.81169   -1901.0244    47.688533   -1853.3359 
  988800    644.88522   -1896.9551    46.680456   -1850.2747 
  989000    663.26748   -1899.2318    48.011068   -1851.2208 
  989200    614.32383   -1899.9616    44.468249   -1855.4934 
  989400    640.54737   -1897.5225    46.366458   -1851.1561 
  989600    678.59478   -1897.9468    49.120546   -1848.8262 
  989800    633.67819   -1900.1761    45.869228   -1854.3069 
  990000    622.11921   -1898.7492    45.032523   -1853.7167 
  990200    671.56167   -1898.3456    48.611449   -1849.7341 
  990400    645.79573   -1901.2961    46.746364   -1854.5497 
  990600    626.82994    -1902.108    45.373512   -1856.7345 
  990800    683.54486    -1899.882    49.478861   -1850.4031 
  991000    641.25891   -1899.5609    46.417963    -1853.143 
  991200     614.5833   -1901.7023    44.487031   -1857.2153 
  991400    651.08756   -1900.1539    47.129417   -1853.0245 
  991600    642.43692   -1897.8314    46.503234   -1851.3282 
  991800    624.23498   -1901.1399    45.185674   -1855.9543 
  992000    629.91031   -1901.3195    45.596487    -1855.723 
  992200    674.93426   -1899.4255    48.855576   -1850.5699 
  992400    640.34667   -1899.4172     46.35193   -1853.0652 
  992600    639.83882   -1900.9838    46.315169   -1854.6686 
  992800    651.84584   -1898.4542    47.184305   -1851.2699 
  993000    624.68198   -1899.6494    45.218031   -1854.4314 
  993200    641.37272   -1902.4651    46.426202   -1856.0389 
  993400    659.31781   -1903.4562    47.725169    -1855.731 
  993600     669.2103   -1900.9267    48.441243   -1852.4855 
  993800    653.39565   -1899.0973    47.296489   -1851.8008 
  994000    678.29453   -1903.7957    49.098812   -1854.6969 
  994200    647.72826   -1901.6134    46.886251   -1854.7272 
  994400     670.9779   -1900.3262    48.569192    -1851.757 
  994600    638.24379   -1902.1291    46.199712   -1855.9294 
  994800    630.92719   -1901.2239    45.670095   -1855.5538 
  995000     663.9119    -1898.698    48.057715   -1850.6403 
  995200    673.54138   -1901.5559    48.754752   -1852.8012 
  995400    611.73288   -1903.0346    44.280701   -1858.7539 
  995600    653.48489   -1901.2138    47.302949   -1853.9108 
  995800    681.20202   -1901.1692    49.309272     -1851.86 
  996000    638.43799   -1902.1186    46.213769   -1855.9048 
  996200    687.25098   -1902.8046     49.74713   -1853.0575 
  996400     641.0364   -1903.6058    46.401856    -1857.204 
  996600      653.607   -1900.4922    47.311788   -1853.1804 
  996800    668.16549   -1899.7602    48.365614   -1851.3945 
  997000    619.30625   -1902.6441    44.828905   -1857.8152 
  997200    618.79012   -1900.1116    44.791544     -1855.32 
  997400    683.65116   -1899.0767    49.486555   -1849.5901 
  997600     650.5508    -1903.628    47.090563   -1856.5374 
  997800    640.79779   -1902.9725    46.384585   -1856.5879 
  998000    659.44786   -1900.1087    47.734582   -1852.3741 
  998200    645.69825   -1902.2352    46.739308   -1855.4959 
  998400    649.95459   -1906.5686    47.047406   -1859.5212 
  998600    665.73916   -1903.7721    48.189983   -1855.5821 
  998800    652.64422   -1900.9572    47.242097   -1853.7151 
  999000    663.59108   -1903.8987    48.034492   -1855.8642 
  999200    623.85599    -1904.315    45.158241   -1859.1567 
  999400    642.46371   -1902.2157    46.505173   -1855.7106 
  999600    653.39809    -1902.685    47.296666   -1855.3883 
  999800    647.28025   -1901.5906    46.853822   -1854.7367 
 1000000    671.84926   -1903.2773    48.632266    -1854.645 
 1000200    635.01323   -1904.3722    45.965865   -1858.4063 
 1000400    678.34521   -1905.4451     49.10248   -1856.3426 
 1000600    656.27469   -1902.1642    47.504891   -1854.6593 
 1000800    653.31653   -1901.5885    47.290762   -1854.2977 
 1001000    659.68429   -1904.9994    47.751697   -1857.2477 
 1001200    666.05672   -1902.9861     48.21297   -1854.7731 
 1001400    658.28936    -1901.023    47.650723   -1853.3722 
 1001600    649.20952   -1903.3629    46.993473   -1856.3694 
 1001800    666.72666   -1901.7998    48.261464   -1853.5383 
 1002000    643.83249   -1901.6032    46.604253    -1854.999 
 1002200     597.0874   -1903.5461    43.220578   -1860.3255 
 1002400    662.36278   -1899.8592    47.945581   -1851.9137 
 1002600    640.77136    -1899.212    46.382671   -1852.8294 
 1002800    643.06053   -1903.4217    46.548374   -1856.8733 
 1003000    616.97596   -1902.4739    44.660225   -1857.8137 
 1003200    645.13866   -1901.9977    46.698801   -1855.2989 
 1003400    691.96542   -1905.0382    50.088388   -1854.9498 
 1003600    632.85394   -1902.7712    45.809563   -1856.9616 
 1003800    634.59136   -1901.6144    45.935328    -1855.679 
 1004000    668.05145   -1901.6995    48.357359   -1853.3421 
 1004200    628.74518   -1902.9965    45.512148   -1857.4844 
 1004400    668.94469   -1904.1451    48.422017   -1855.7231 
 1004600    669.59743   -1902.3868    48.469266   -1853.9175 
 1004800    641.43869   -1899.9767    46.430977   -1853.5457 
 1005000    656.69437   -1905.1201    47.535269   -1857.5848 
 1005200     604.1471   -1902.2393    43.731599   -1858.5077 
 1005400    679.29891    -1900.326    49.171514   -1851.1545 
 1005600    638.58953   -1901.6857    46.224738    -1855.461 
 1005800     617.9333    -1902.067    44.729523   -1857.3374 
 1006000    680.48666   -1902.2661    49.257491   -1853.0086 
 1006200    630.93948   -1900.5195    45.670984   -1854.8485 
 1006400    672.31751    -1903.762    48.666161   -1855.0958 
 1006600    635.25611   -1905.4918    45.983446   -1859.5083 
 1006800    661.93776   -1903.0232    47.914816   -1855.1084 
 1007000    662.56747   -1905.2658    47.960398   -1857.3054 
 1007200    652.84549   -1907.4765    47.256666   -1860.2199 
 1007400     654.9738   -1903.5123    47.410725   -1856.1016 
 1007600    631.45415   -1900.7014    45.708239   -1854.9932 
 1007800    658.80208   -1903.7182    47.687837   -1856.0303 
 1008000    659.44246   -1906.1834    47.734192   -1858.4492 
 1008200    647.66329   -1903.5637    46.881548   -1856.6821 
 1008400    682.76893   -1904.8448    49.422694   -1855.4222 
 1008600    640.08971   -1905.8593     46.33333    -1859.526 
 1008800    635.47378   -1905.8739    45.999203   -1859.8747 
 1009000    657.25468   -1901.7385    47.575827   -1854.1627 
 1009200    673.87882   -1905.8258    48.779177   -1857.0466 
 1009400     645.3034   -1907.3233    46.710726   -1860.6126 
 1009600    655.92089   -1901.6809     47.47928   -1854.2017 
 1009800    681.52026   -1901.4625    49.332308   -1852.1302 
 1010000    611.49567    -1903.168     44.26353   -1858.9045 
 1010200    633.35634   -1903.3528     45.84593   -1857.5069 
 1010400    688.15916   -1902.6946     49.81287   -1852.8817 
 1010600     658.5939   -1904.9934    47.672768   -1857.3206 
 1010800     679.8835   -1908.3753     49.21383   -1859.1614 
 1011000     640.3225   -1905.2736    46.350181   -1858.9234 
 1011200     694.0213   -1905.7122    50.237204    -1855.475 
 1011400    667.26094    -1906.828    48.300138   -1858.5278 
 1011600    653.14641   -1904.4634    47.278448   -1857.1849 
 1011800    703.87247   -1902.6756    50.950288   -1851.7253 
 1012000    639.23369   -1905.1009    46.271366   -1858.8296 
 1012200    652.66771   -1906.7368    47.243797    -1859.493 
 1012400    697.39999   -1903.7953    50.481773   -1853.3135 
 1012600    638.80156   -1904.6999    46.240086   -1858.4598 
 1012800    628.94985   -1906.1063    45.526963   -1860.5794 
 1013000    675.29371   -1904.9471    48.881595   -1856.0655 
 1013200    666.32432   -1902.9542    48.232339   -1854.7219 
 1013400    634.84836   -1907.5426    45.953931   -1861.5887 
 1013600    638.71656   -1905.4396    46.233934   -1859.2056 
 1013800    645.13785   -1901.3238    46.698743   -1854.6251 
 1014000    613.37146   -1904.1846    44.399311   -1859.7853 
 1014200    688.59751   -1908.8985      49.8446   -1859.0539 
 1014400     640.1979   -1902.8437    46.341161   -1856.5026 
 1014600    659.59008   -1903.1891    47.744877   -1855.4442 
 1014800    644.63932   -1905.6521    46.662656   -1858.9894 
 1015000    613.49164    -1904.266     44.40801    -1859.858 
 1015200    669.28005   -1903.1193    48.446292    -1854.673 
 1015400    667.71897   -1903.0513    48.333293    -1854.718 
 1015600    635.64095    -1906.397    46.011303   -1860.3857 
 1015800    631.74233   -1904.8163    45.729099   -1859.0872 
 1016000    691.13597   -1904.6617    50.028348   -1854.6334 
 1016200    615.81821    -1903.085    44.576421   -1858.5086 
 1016400    658.80802   -1908.5405    47.688268   -1860.8523 
 1016600     669.0119   -1904.2674    48.426882   -1855.8405 
 1016800    665.13336   -1904.3314    48.146132   -1856.1853 
 1017000    644.20221   -1907.5178    46.631016   -1860.8868 
 1017200    615.05792   -1902.7493    44.521387   -1858.2279 
 1017400    659.97381   -1903.9284    47.772654   -1856.1557 
 1017600    649.86757   -1906.3701    47.041107    -1859.329 
 1017800    666.67628   -1904.8388    48.257817    -1856.581 
 1018000    676.71351   -1904.8803    48.984369   -1855.8959 
 1018200    639.14061   -1905.0756    46.264629    -1858.811 
 1018400    654.42897   -1906.8399    47.371287   -1859.4686 
 1018600    671.73678   -1904.5988    48.624125   -1855.9746 
 1018800    642.79672   -1903.1015    46.529279   -1856.5722 
 1019000    630.79571   -1907.0148    45.660577   -1861.3542 
 1019200     649.5546   -1902.9468    47.018452   -1855.9284 
 1019400    673.48408   -1903.0902    48.750604   -1854.3396 
 1019600    632.62446   -1906.4625    45.792953   -1860.6696 
 1019800    662.69184    -1904.582      47.9694   -1856.6126 
 1020000    691.55198   -1903.6887    50.058462   -1853.6302 
 1020200     663.9755   -1906.0972    48.062319   -1858.0349 
 1020400    670.75754   -1905.3679    48.553241   -1856.8147 
 1020600    641.83603   -1902.1048    46.459738    -1855.645 
 1020800    646.20694   -1902.2439    46.776129   -1855.4677 
 1021000    682.86079    -1903.522    49.429344   -1854.0926 
 1021200    655.24272   -1903.8458    47.430191   -1856.4156 
 1021400     657.7823   -1904.0519     47.61402   -1856.4379 
 1021600    677.84851   -1904.5696    49.066526   -1855.5031 
 1021800    636.46744   -1906.4596    46.071129   -1860.3884 
 1022000    665.28847   -1903.8413    48.157359   -1855.6839 
 1022200    634.71587    -1901.266    45.944341   -1855.3217 
 1022400    681.94051   -1907.0228    49.362729   -1857.6601 
 1022600    671.96548   -1902.4339    48.640679   -1853.7933 
 1022800    638.64122   -1904.4299     46.22848   -1858.2015 
 1023000    653.19279   -1903.9336    47.281805   -1856.6518 
 1023200    697.29834   -1903.7889    50.474415   -1853.3145 
 1023400    632.58944   -1903.5703    45.790418   -1857.7799 
 1023600    658.46156   -1901.8039    47.663188   -1854.1407 
 1023800    666.88089   -1901.6602    48.272627   -1853.3876 
 1024000    673.84428   -1907.1839    48.776678   -1858.4072 
 1024200     649.0938   -1900.9982    46.985097   -1854.0131 
 1024400    670.21206    -1901.558    48.513756   -1853.0443 
 1024600     642.6092   -1902.5399    46.515705   -1856.0242 
 1024800    655.59037   -1900.8727    47.455356   -1853.4174 
 1025000    645.78398   -1900.5028    46.745513   -1853.7573 
 1025200    663.40665   -1904.0469    48.021142   -1856.0258 
 1025400    630.82004    -1903.457    45.662338   -1857.7946 
 1025600    649.07464    -1903.685     46.98371   -1856.7013 
 1025800    674.08981   -1903.6663     48.79445   -1854.8718 
 1026000    646.50072   -1904.7412    46.797395   -1857.9438 
 1026200    630.01719   -1905.8942    45.604223   -1860.2899 
 1026400    669.71939   -1902.1702    48.478094   -1853.6921 
 1026600    664.66969    -1904.803    48.112569   -1856.6904 
 1026800    608.54071   -1906.5912    44.049634   -1862.5415 
 1027000    664.04306   -1904.5318    48.067209   -1856.4646 
 1027200    660.87449   -1904.6947     47.83785   -1856.8569 
 1027400    629.70845   -1906.2962    45.581875   -1860.7143 
 1027600    703.04564   -1905.3223    50.890437   -1854.4319 
 1027800    633.64504   -1905.6908    45.866828    -1859.824 
 1028000    653.98912   -1908.3206    47.339448   -1860.9812 
 1028200    683.66955   -1903.6007    49.487886   -1854.1128 
 1028400    668.52851   -1907.7734    48.391892   -1859.3815 
 1028600    664.22049   -1910.1074    48.080053   -1862.0274 
 1028800    658.87656   -1903.5615    47.693229   -1855.8683 
 1029000    666.65875   -1903.6818    48.256548   -1855.4252 
 1029200    657.15942   -1906.1501    47.568932   -1858.5812 
 1029400    678.21478   -1905.1258    49.093039   -1856.0327 
 1029600    651.16889   -1905.2208    47.135303   -1858.0855 
 1029800    657.99239   -1905.9799    47.629227   -1858.3507 
 1030000    670.67755   -1904.4158    48.547452   -1855.8683 
 1030200    644.53101   -1905.3305    46.654816   -1858.6757 
 1030400    653.72916   -1903.3145     47.32063   -1855.9939 
 1030600    650.49488   -1904.5352    47.086515   -1857.4487 
 1030800    622.07527   -1903.8561    45.029342   -1858.8268 
 1031000    690.22141   -1902.0225    49.962147   -1852.0603 
 1031200    647.41001   -1903.3434    46.863215   -1856.4802 
 1031400    611.05208   -1904.4929    44.231421   -1860.2615 
 1031600     658.2096    -1902.774     47.64495    -1855.129 
 1031800    707.63827   -1906.0287    51.222878   -1854.8058 
 1032000    650.69835   -1906.2711    47.101243   -1859.1698 
 1032200    684.04939   -1907.4093    49.515381   -1857.8939 
 1032400    666.00698   -1903.6556    48.209369   -1855.4462 
 1032600    632.36554   -1905.4188     45.77421   -1859.6446 
 1032800    639.18097   -1902.3732     46.26755   -1856.1056 
 1033000    691.09763   -1905.8735    50.025573   -1855.8479 
 1033200    654.90537   -1908.1743    47.405772   -1860.7685 
 1033400    656.68793   -1903.5279    47.534803   -1855.9931 
 1033600    663.34874   -1905.2114     48.01695   -1857.1945 
 1033800    651.19583   -1909.1282    47.137253    -1861.991 
 1034000    675.56755   -1906.6507    48.901417   -1857.7493 
 1034200    663.69735   -1903.7861    48.042185   -1855.7439 
 1034400    682.27047   -1907.2399    49.386612   -1857.8533 
 1034600    680.47729   -1907.7275    49.256812   -1858.4707 
 1034800    675.71706   -1906.4428     48.91224   -1857.5305 
 1035000    671.52706   -1904.8228    48.608944   -1856.2139 
 1035200    660.68447   -1906.2681    47.824095   -1858.4441 
 1035400    628.85508   -1904.8426    45.520104   -1859.3225 
 1035600    678.22952   -1904.9646    49.094106   -1855.8705 
 1035800    631.68222   -1901.3261    45.724748   -1855.6013 
 1036000    641.21475   -1905.4417    46.414766   -1859.0269 
 1036200    681.21085    -1905.165    49.309912   -1855.8551 
 1036400    659.79515   -1904.8112    47.759722   -1857.0515 
 1036600    649.88105   -1905.3724    47.042083   -1858.3303 
 1036800    695.39977   -1906.7975    50.336986   -1856.4605 
 1037000    645.67072   -1901.1842    46.737315   -1854.4469 
 1037200    663.37029   -1906.3494     48.01851   -1858.3308 
 1037400     641.1993   -1906.7296    46.413648    -1860.316 
 1037600    679.62235   -1904.9098    49.194927   -1855.7149 
 1037800    653.67238   -1902.9953     47.31652   -1855.6788 
 1038000    648.14768   -1902.9718    46.916611   -1856.0552 
 1038200    648.14713   -1904.0879    46.916571   -1857.1713 
 1038400    631.12372   -1904.3358    45.684321   -1858.6515 
 1038600    677.34182   -1903.6739    49.029849    -1854.644 
 1038800     688.2375   -1907.7848     49.81854   -1857.9662 
 1039000     642.0499   -1905.9182     46.47522    -1859.443 
 1039200    694.22097   -1902.4323    50.251658   -1852.1806 
 1039400    619.79674   -1900.2712    44.864409   -1855.4068 
 1039600    636.75986    -1903.683    46.092296   -1857.5907 
 1039800     686.5034   -1905.4905    49.693016   -1855.7975 
 1040000    670.45372   -1906.9478    48.531249   -1858.4165 
 1040200    662.43324   -1906.2999    47.950681   -1858.3492 
 1040400    682.47304   -1905.5652    49.401276   -1856.1639 
 1040600    634.83367   -1901.4868    45.952867    -1855.534 
 1040800     672.9716   -1905.5582    48.713508   -1856.8446 
 1041000    663.75213   -1906.2293     48.04615   -1858.1832 
 1041200    649.03829   -1904.9669    46.981078   -1857.9858 
 1041400     684.4416   -1906.6527    49.543772   -1857.1089 
 1041600    667.68815   -1904.6645    48.331062   -1856.3335 
 1041800    652.52195    -1905.399    47.233246   -1858.1657 
 1042000    652.53853   -1903.3308    47.234446   -1856.0963 
 1042200    689.55652   -1904.7845    49.914018   -1854.8705 
 1042400    650.74275   -1906.7392    47.104457   -1859.6348 
 1042600    651.32038   -1905.5087    47.146269   -1858.3624 
 1042800    660.49194   -1903.8379    47.810159   -1856.0277 
 1043000    650.63124   -1902.2027    47.096386   -1855.1063 
 1043200    653.25663   -1901.9888    47.286426   -1854.7023 
 1043400    655.61608   -1906.6052    47.457217   -1859.1479 
 1043600    642.45407     -1906.64    46.504476   -1860.1355 
 1043800    679.52432   -1900.2989    49.187831   -1851.1111 
 1044000    698.68581   -1906.3238    50.574848    -1855.749 
 1044200    627.71246   -1907.3725    45.437394   -1861.9351 
 1044400    688.74825   -1905.5988    49.855511   -1855.7433 
 1044600    696.24801   -1905.2469    50.398386   -1854.8485 
 1044800    650.68074    -1904.231    47.099969   -1857.1311 
 1045000    660.34429   -1906.3975    47.799471    -1858.598 
 1045200    659.26085   -1904.2324    47.721046   -1856.5113 
 1045400    688.36711   -1903.6342    49.827922   -1853.8062 
 1045600    620.16933   -1904.5303    44.891379   -1859.6389 
 1045800     645.4928   -1903.8893    46.724436   -1857.1649 
 1046000    699.72338   -1903.6979    50.649953    -1853.048 
 1046200    678.17184   -1906.2458     49.08993   -1857.1559 
 1046400    653.58058   -1906.6617    47.309876   -1859.3518 
 1046600    697.57242   -1904.1519    50.494255   -1853.6576 
 1046800     625.7234   -1902.2896    45.293415   -1856.9962 
 1047000    641.68425   -1904.8245    46.448751   -1858.3757 
 1047200    667.56375   -1903.1235    48.322057   -1854.8015 
 1047400    672.94298   -1905.2662    48.711436   -1856.5548 
 1047600    670.86755   -1905.8403    48.561205   -1857.2791 
 1047800    669.34789   -1905.3297    48.451203   -1856.8785 
 1048000    647.65695   -1902.2086    46.881089   -1855.3275 
 1048200    685.80268   -1902.1757    49.642294   -1852.5334 
 1048400    660.74803   -1906.9397    47.828696    -1859.111 
 1048600    644.83945   -1906.5253    46.677143   -1859.8482 
 1048800    696.39358    -1903.704    50.408924   -1853.2951 
 1049000    672.32042   -1904.6567    48.666372   -1855.9903 
 1049200    625.75117   -1905.7036    45.295425   -1860.4082 
 1049400    691.67199   -1905.1903    50.067148   -1855.1231 
 1049600    683.90744    -1905.896    49.505106   -1856.3908 
 1049800    648.79817   -1904.4386    46.963697   -1857.4749 
 1050000    689.77198   -1904.7498    49.929615   -1854.8202 
 1050200    672.53404   -1905.0597    48.681835   -1856.3779 
 1050400    666.92091   -1902.8707    48.275524   -1854.5952 
 1050600    704.64453   -1908.0301    51.006174    -1857.024 
 1050800    646.37531   -1906.7549    46.788317   -1859.9666 
 1051000    705.87693   -1902.9606    51.095383   -1851.8652 
 1051200    666.70165   -1905.6268    48.259653   -1857.3672 
 1051400    624.09531   -1906.5057    45.175564   -1861.3301 
 1051600     697.9166   -1903.4656    50.519168   -1852.9465 
 1051800    684.28791   -1906.5535    49.532646   -1857.0209 
 1052000    692.49565   -1908.5664    50.126769   -1858.4396 
 1052200    678.74853   -1905.7575    49.131675   -1856.6258 
 1052400    674.67196   -1905.7664    48.836589   -1856.9298 
 1052600    682.59322   -1906.8436    49.409975   -1857.4336 
 1052800    664.78847   -1906.0448    48.121166   -1857.9236 
 1053000    669.41643   -1904.4081    48.456164   -1855.9519 
 1053200    660.44251   -1904.9807    47.806581   -1857.1741 
 1053400    681.99058   -1905.4287    49.366353   -1856.0624 
 1053600    661.46619   -1902.0815    47.880681   -1854.2008 
 1053800    690.89604   -1903.8618    50.010981   -1853.8508 
 1054000    664.56164   -1905.8843    48.104747   -1857.7796 
 1054200    637.76215   -1904.3383    46.164848   -1858.1734 
 1054400    699.05271   -1904.1404    50.601407    -1853.539 
 1054600    682.48723   -1904.4059    49.402303   -1855.0036 
 1054800    689.09738   -1906.0021    49.880783   -1856.1213 
 1055000    678.97343   -1904.0051    49.147955   -1854.8571 
 1055200    690.58985   -1904.0437    49.988817   -1854.0549 
 1055400    677.26834   -1905.8942     49.02453   -1856.8697 
 1055600    694.35393   -1905.5669    50.261283   -1855.3056 
 1055800    696.82059   -1907.5867    50.439833   -1857.1469 
 1056000    633.74365   -1903.8869    45.873966   -1858.0129 
 1056200    687.71124   -1903.5449    49.780446   -1853.7644 
 1056400     677.5741   -1906.0983    49.046663   -1857.0516 
 1056600    648.24686   -1908.4576    46.923791   -1861.5338 
 1056800    684.97594   -1905.5102     49.58245   -1855.9277 
 1057000    688.32793   -1904.3284    49.825086   -1854.5033 
 1057200    689.40146   -1909.5436    49.902794   -1859.6408 
 1057400    657.75918   -1909.1909    47.612346   -1861.5785 
 1057600    680.74906   -1904.3549    49.276484   -1855.0784 
 1057800    665.58279   -1905.4887    48.178664   -1857.3101 
 1058000    657.03518   -1909.5121    47.559939   -1861.9521 
 1058200    683.25127    -1906.616    49.457609   -1857.1584 
 1058400    691.42092   -1906.6271    50.048974   -1856.5781 
 1058600     656.4308   -1906.6537    47.516191   -1859.1375 
 1058800    678.01388   -1906.8504    49.078496   -1857.7719 
 1059000    682.75086   -1905.9492    49.421386   -1856.5278 
 1059200    667.10415   -1907.9226    48.288788   -1859.6338 
 1059400    722.36282    -1908.707    52.288725   -1856.4182 
 1059600    668.19131   -1906.3208    48.367483   -1857.9533 
 1059800    682.67756   -1910.4298     49.41608   -1861.0138 
 1060000    672.28144   -1907.3049     48.66355   -1858.6413 
 1060200    676.24964   -1907.0474    48.950791   -1858.0966 
 1060400    640.64053   -1907.3754    46.373201   -1861.0022 
 1060600    660.76086   -1908.2497    47.829625   -1860.4201 
 1060800    679.37435   -1907.7822    49.176975   -1858.6052 
 1061000    691.15775   -1908.5131    50.029924   -1858.4832 
 1061200    686.51808   -1908.6225    49.694079   -1858.9284 
 1061400    678.54565   -1908.9397    49.116989   -1859.8227 
 1061600     643.1879   -1905.1871    46.557594   -1858.6295 
 1061800     704.3451   -1903.2424      50.9845   -1852.2579 
 1062000    654.10513   -1907.3295    47.347845   -1859.9817 
 1062200    646.91257   -1908.3167    46.827207   -1861.4895 
 1062400     700.1477   -1907.5342    50.680668   -1856.8535 
 1062600    685.48066   -1909.1183    49.618984   -1859.4993 
 1062800    664.97976   -1907.2832    48.135013   -1859.1482 
 1063000    682.15038   -1908.5657     49.37792   -1859.1877 
 1063200    644.32438   -1904.4061    46.639859   -1857.7662 
 1063400     703.6534   -1909.1665    50.934431    -1858.232 
 1063600    625.63188   -1909.4406     45.28679   -1864.1538 
 1063800    674.93243   -1907.2064    48.855443   -1858.3509 
 1064000    687.24674   -1903.4259    49.746823   -1853.6791 
 1064200    624.21715   -1908.3708    45.184383   -1863.1864 
 1064400    659.50013   -1907.1592    47.738366   -1859.4208 
 1064600    690.69781   -1905.2625    49.996631   -1855.2659 
 1064800    647.36715   -1909.3767    46.860112   -1862.5165 
 1065000    646.28468   -1907.8841    46.781757   -1861.1023 
 1065200    653.66144    -1906.451    47.315729   -1859.1353 
 1065400    678.17378    -1908.635    49.090071   -1859.5449 
 1065600    661.80212   -1907.2587    47.904997   -1859.3537 
 1065800    658.40908   -1909.4784     47.65939    -1861.819 
 1066000    701.93312   -1906.8817    50.809907   -1856.0718 
 1066200    656.17574   -1905.0384    47.497728   -1857.5407 
 1066400      637.211   -1911.3099    46.124952   -1865.1849 
 1066600    678.88973    -1907.173    49.141896   -1858.0311 
 1066800    705.25798   -1904.6833    51.050579   -1853.6327 
 1067000    644.17986   -1910.2037    46.629398   -1863.5743 
 1067200    686.33667   -1910.9136    49.680947   -1861.2327 
 1067400    734.32717   -1907.0584    53.154773   -1853.9037 
 1067600    686.07544   -1908.3068    49.662038   -1858.6447 
 1067800    625.87853    -1906.614    45.304643   -1861.3094 
 1068000    708.24507   -1908.9435    51.266802   -1857.6767 
 1068200    689.83465   -1907.3329    49.934151   -1857.3988 
 1068400    653.59301   -1907.3413    47.310775   -1860.0305 
 1068600     696.7179     -1909.53      50.4324   -1859.0976 
 1068800    685.49061   -1906.9648    49.619705   -1857.3451 
 1069000    679.33658    -1903.938    49.174241   -1854.7637 
 1069200    611.40642   -1905.0098     44.25707   -1860.7527 
 1069400    661.18888   -1905.9116    47.860608    -1858.051 
 1069600     678.5262   -1904.8716    49.115581    -1855.756 
 1069800    660.89929   -1908.3921    47.839645   -1860.5524 
 1070000    661.49637   -1903.9429    47.882866     -1856.06 
 1070200    691.62466    -1902.711    50.063722   -1852.6473 
 1070400    646.79246   -1907.1369    46.818513   -1860.3184 
 1070600    658.00781    -1908.712    47.630343   -1861.0816 
 1070800    705.81444   -1907.2427    51.090859   -1856.1518 
 1071000    689.28044   -1908.4241    49.894034   -1858.5301 
 1071200    652.20559   -1907.5146    47.210346   -1860.3043 
 1071400    657.16511   -1905.9277    47.569344   -1858.3583 
 1071600    686.61328   -1906.9602     49.70097   -1857.2592 
 1071800    671.98454   -1909.5574    48.642059   -1860.9153 
 1072000    708.83454   -1910.9325    51.309471    -1859.623 
 1072200    726.63503   -1909.7551    52.597971   -1857.1571 
 1072400    666.78083   -1907.4658    48.265384   -1859.2004 
 1072600    673.70586   -1909.4127    48.766657    -1860.646 
 1072800     698.3709   -1904.7918    50.552053   -1854.2397 
 1073000    671.94676   -1906.2141    48.639324   -1857.5748 
 1073200    616.26042    -1907.809    44.608431   -1863.2006 
 1073400    722.97864   -1908.9026    52.333301   -1856.5693 
 1073600    686.61662   -1907.0789    49.701212   -1857.3777 
 1073800    671.05928   -1911.5367    48.575083   -1862.9616 
 1074000    639.84019   -1907.8045    46.315268   -1861.4892 
 1074200    701.06808   -1905.0948     50.74729   -1854.3475 
 1074400    672.97814   -1907.9687    48.713981   -1859.2547 
 1074600    637.30017   -1909.9709    46.131407   -1863.8394 
 1074800    686.76452   -1905.0347    49.711918   -1855.3228 
 1075000    703.35289   -1905.9529    50.912678   -1855.0402 
 1075200    671.89259   -1909.0571    48.635403   -1860.4217 
 1075400    711.95728    -1908.389    51.535513   -1856.8535 
 1075600    666.80826   -1905.6336     48.26737   -1857.3663 
 1075800    668.20157   -1909.7397    48.368226   -1861.3715 
 1076000    698.33342   -1910.3253     50.54934    -1859.776 
 1076200    677.17696   -1906.0583    49.017916   -1857.0403 
 1076400    680.22958   -1906.8369    49.238881    -1857.598 
 1076600    685.73444   -1910.3517    49.637355   -1860.7143 
 1076800    645.65555   -1906.3184    46.736217   -1859.5822 
 1077000    687.78183   -1906.0521    49.785556   -1856.2665 
 1077200    652.41263   -1905.0695    47.225333   -1857.8442 
 1077400    661.19041   -1906.3806    47.860718   -1858.5198 
 1077600    688.03537   -1908.1523    49.803909   -1858.3484 
 1077800    675.71392   -1907.1557    48.912012   -1858.2437 
 1078000    683.55486   -1903.8789    49.479584   -1854.3993 
 1078200    691.96997   -1909.6548    50.088717   -1859.5661 
 1078400    656.21902   -1908.7177    47.500861   -1861.2169 
 1078600    686.00931   -1903.4724    49.657251   -1853.8152 
 1078800    671.33983   -1906.1724    48.595391    -1857.577 
 1079000    684.73198   -1911.2383    49.564791   -1861.6736 
 1079200    731.74688   -1910.1713    52.967997   -1857.2033 
 1079400    673.08092   -1906.6522    48.721421   -1857.9307 
 1079600    712.91759   -1910.1936    51.605025   -1858.5886 
 1079800    686.70862   -1907.1071    49.707871   -1857.3992 
 1080000     650.6147   -1902.9253    47.095189   -1855.8301 
 1080200    700.80419   -1906.2249    50.728188   -1855.4967 
 1080400    662.12322   -1908.1809     47.92824   -1860.2526 
 1080600    631.72693   -1907.3404    45.727984   -1861.6124 
 1080800     699.9867   -1904.9047    50.669014   -1854.2357 
 1081000    682.25259    -1907.337    49.385319   -1857.9517 
 1081200    664.11401   -1911.5657    48.072345   -1863.4933 
 1081400    670.63191   -1905.4744    48.544147   -1856.9302 
 1081600    696.17482   -1904.0811    50.393089    -1853.688 
 1081800    629.67999   -1906.3243    45.579815   -1860.7445 
 1082000    669.05325   -1908.5066    48.429875   -1860.0767 
 1082200    699.47437   -1905.9774    50.631928   -1855.3455 
 1082400    706.74892     -1910.82    51.158502   -1859.6615 
 1082600    661.52291   -1906.9433    47.884786   -1859.0585 
 1082800    680.39829   -1905.2661    49.251094    -1856.015 
 1083000    684.92251   -1906.8613    49.578582   -1857.2828 
 1083200    673.72306    -1908.312    48.767903   -1859.5441 
 1083400    666.62298   -1907.8062    48.253958   -1859.5522 
 1083600    725.31168   -1909.4782     52.50218    -1856.976 
 1083800    702.89604   -1909.4094    50.879608   -1858.5298 
 1084000    683.97312   -1908.9787     49.50986   -1859.4688 
 1084200    693.48181   -1908.1595    50.198153   -1857.9614 
 1084400    698.86827    -1908.642    50.588056    -1858.054 
 1084600    691.63508   -1905.6595    50.064476    -1855.595 
 1084800    658.44305   -1900.8604    47.661849   -1853.1985 
 1085000    674.84304   -1907.6343    48.848973   -1858.7854 
 1085200    654.76536   -1906.5148    47.395637   -1859.1191 
 1085400    681.76461   -1903.3731    49.349995   -1854.0231 
 1085600    690.04497   -1905.9394    49.949375     -1855.99 
 1085800    696.12272   -1907.6996    50.389317   -1857.3103 
 1086000    694.33932   -1905.1394    50.260225   -1854.8792 
 1086200    686.06077   -1905.7504    49.660976   -1856.0894 
 1086400    687.42831   -1905.4826    49.759967   -1855.7226 
 1086600    655.34213   -1907.2989    47.437386   -1859.8615 
 1086800    673.92274   -1905.5978    48.782356   -1856.8154 
 1087000    693.92133   -1903.4094    50.229968   -1853.1795 
 1087200    638.06102   -1905.7536    46.186482   -1859.5671 
 1087400    686.40784   -1905.7235    49.686099   -1856.0374 
 1087600    664.18867   -1906.1549    48.077749   -1858.0772 
 1087800    662.35476   -1907.3332       47.945   -1859.3882 
 1088000    686.65104   -1903.4796    49.703703   -1853.7759 
 1088200    675.78622   -1909.7501    48.917246   -1860.8329 
 1088400    668.50294   -1906.7532     48.39004   -1858.3631 
 1088600    731.17029   -1904.6364     52.92626   -1851.7101 
 1088800    620.22554   -1906.1886    44.895449   -1861.2931 
 1089000    664.04219   -1905.4683    48.067146   -1857.4011 
 1089200    712.82352    -1907.154    51.598216   -1855.5557 
 1089400    672.78505   -1910.0485    48.700004   -1861.3485 
 1089600    693.37758   -1909.0175    50.190609   -1858.8269 
 1089800    675.86019   -1906.2784      48.9226   -1857.3558 
 1090000    692.55787   -1909.4269    50.131273   -1859.2957 
 1090200    684.50648   -1906.4773    49.548468   -1856.9289 
 1090400    694.71484    -1907.812    50.287407   -1857.5246 
 1090600    701.67176   -1907.3078    50.790988   -1856.5168 
 1090800    661.31155   -1908.0392    47.869487   -1860.1697 
 1091000    680.07915   -1908.4327    49.227993   -1859.2047 
 1091200    681.02568   -1904.6533    49.296507   -1855.3568 
 1091400    700.32617   -1908.2281    50.693587   -1857.5346 
 1091600    665.55177   -1906.1743    48.176419   -1857.9979 
 1091800     694.1778   -1904.6866    50.248533   -1854.4381 
 1092000     686.9117   -1908.4321    49.722571   -1858.7095 
 1092200    652.27645    -1909.432    47.215475   -1862.2166 
 1092400    680.60538   -1904.7714    49.266084   -1855.5053 
 1092600    679.40074   -1903.2745    49.178886   -1854.0956 
 1092800    652.75622   -1907.8727    47.250204   -1860.6225 
 1093000    665.20121   -1906.8781    48.151043   -1858.7271 
 1093200    722.73754   -1904.1848    52.315849    -1851.869 
 1093400    729.67317   -1911.4302    52.817889   -1858.6124 
 1093600    642.25682   -1907.0798    46.490197   -1860.5896 
 1093800    736.18738   -1903.7573    53.289425   -1850.4679 
 1094000    683.00194   -1905.7896    49.439561   -1856.3501 
 1094200     647.4089   -1908.9652    46.863135    -1862.102 
 1094400    685.88284   -1903.5055    49.648097   -1853.8574 
 1094600    690.74013   -1905.1841    49.999695   -1855.1844 
 1094800     658.8174   -1907.3869    47.688946   -1859.6979 
 1095000     686.1074    -1906.866    49.664352   -1857.2016 
 1095200    697.47677   -1905.5306    50.487331   -1855.0432 
 1095400    688.67508   -1905.5441    49.850215   -1855.6939 
 1095600    661.26324   -1907.9339     47.86599   -1860.0679 
 1095800    652.97884   -1905.6751    47.266318   -1858.4088 
 1096000    704.21307   -1902.2252    50.974943   -1851.2503 
 1096200    642.78385   -1906.5763    46.528347   -1860.0479 
 1096400    677.05668   -1908.0497    49.009209   -1859.0404 
 1096600    732.51122   -1905.4896    53.023323   -1852.4663 
 1096800    647.83324   -1906.1289     46.89385    -1859.235 
 1097000    691.55159   -1906.8431    50.058433   -1856.7847 
 1097200    727.95152   -1906.6787    52.693267   -1853.9854 
 1097400     651.4135   -1904.6904     47.15301   -1857.5374 
 1097600    697.49147    -1904.155    50.488395   -1853.6666 
 1097800    685.67848   -1905.7912    49.633304   -1856.1579 
 1098000    680.08991   -1906.1305    49.228772   -1856.9018 
 1098200    707.25294   -1906.4845    51.194986   -1855.2895 
 1098400     668.2652   -1907.8294    48.372832   -1859.4566 
 1098600    667.18959   -1904.6887    48.294973   -1856.3937 
 1098800     733.6948   -1907.2228    53.108998   -1854.1138 
 1099000     668.6067   -1908.4465    48.397551   -1860.0489 
 1099200     709.0169   -1906.4313    51.322671   -1855.1087 
 1099400    695.31049   -1905.5691    50.330523   -1855.2386 
 1099600    657.09476   -1908.6214    47.564251   -1861.0571 
 1099800    677.58776   -1906.3012    49.047651   -1857.2536 
 1100000    648.00122   -1905.9933    46.906009   -1859.0873 
 1100200    668.46292   -1908.1414    48.387144   -1859.7543 
 1100400    723.30561   -1908.2519    52.356969    -1855.895 
 1100600     672.7035   -1909.5332    48.694101   -1860.8391 
 1100800    695.76875   -1908.5244    50.363695   -1858.1607 
 1101000    712.68459   -1907.4151     51.58816   -1855.8269 
 1101200    669.34412    -1908.357     48.45093    -1859.906 
 1101400    696.63805    -1908.376     50.42662   -1857.9493 
 1101600    696.35249   -1909.8662    50.405949   -1859.4603 
 1101800    697.69509   -1909.9513    50.503134   -1859.4481 
 1102000    712.86996   -1908.8188    51.601578   -1857.2172 
 1102200    688.58072   -1908.8411    49.843385   -1858.9977 
 1102400    715.58072   -1907.2829    51.797798   -1855.4851 
 1102600    665.80184   -1907.7878    48.194519   -1859.5932 
 1102800    683.82559   -1908.0004    49.499181   -1858.5012 
 1103000    716.12718   -1905.5494    51.837353    -1853.712 
 1103200    697.77475   -1908.0035      50.5089   -1857.4946 
 1103400    697.63362   -1907.5291    50.498685   -1857.0304 
 1103600    700.52588   -1907.0082    50.708043   -1856.3002 
 1103800    661.51463   -1907.3764    47.884187   -1859.4923 
 1104000    717.54825   -1909.9273    51.940219   -1857.9871 
 1104200    677.20916   -1905.8523    49.020246    -1856.832 
 1104400    692.12744   -1907.7942    50.100116   -1857.6941 
 1104600    647.35087   -1906.1419    46.858934    -1859.283 
 1104800    684.79235   -1906.4692    49.569161   -1856.9001 
 1105000    668.38276    -1907.718    48.381342   -1859.3367 
 1105200    669.41606    -1906.384    48.456138   -1857.9279 
 1105400    696.21897   -1906.8286    50.396284   -1856.4323 
 1105600    701.60476   -1910.4214    50.786138   -1859.6352 
 1105800    743.57345   -1910.4541    53.824071   -1856.6301 
 1106000    686.35471   -1904.9763    49.682253    -1855.294 
 1106200    694.15277   -1910.8263    50.246721   -1860.5796 
 1106400    666.26964   -1907.5004    48.228382    -1859.272 
 1106600    733.49314   -1907.1972    53.094401   -1854.1028 
 1106800    650.81521   -1907.3647    47.109702    -1860.255 
 1107000    678.52242   -1906.1998    49.115307   -1857.0845 
 1107200    727.88596   -1905.0268    52.688521   -1852.3383 
 1107400    622.92797   -1907.8446    45.091065   -1862.7535 
 1107600    699.48994   -1908.2811    50.633056    -1857.648 
 1107800    753.31496   -1905.5164    54.529217   -1850.9872 
 1108000    645.82553   -1908.2865    46.748521    -1861.538 
 1108200    674.32693   -1908.6672    48.811614   -1859.8556 
 1108400     691.0403   -1904.2734    50.021423    -1854.252 
 1108600    661.70385   -1905.6393    47.897884   -1857.7414 
 1108800    652.12935   -1907.5796    47.204827   -1860.3748 
 1109000    704.26279   -1908.3267    50.978542   -1857.3482 
 1109200    696.88141   -1906.6038    50.444236   -1856.1596 
 1109400    669.97781   -1909.2224      48.4968   -1860.7256 
 1109600    668.51139   -1907.2443    48.390652   -1858.8537 
 1109800    725.13296   -1904.5705    52.489243   -1852.0812 
 1110000    717.07186   -1909.7477    51.905735    -1857.842 
 1110200    650.78209    -1910.681    47.107305   -1863.5737 
 1110400    728.48028   -1906.4615    52.731541     -1853.73 
 1110600    682.58011   -1909.8543    49.409026   -1860.4452 
 1110800    639.74809   -1911.5509    46.308601   -1865.2423 
 1111000      738.528   -1906.7192    53.458852   -1853.2604 
 1111200    691.39967   -1908.5657    50.047436   -1858.5182 
 1111400    659.06549   -1913.2628    47.706904   -1865.5559 
 1111600    690.31716   -1907.4275    49.969078   -1857.4584 
 1111800    703.56071   -1905.0287    50.927721   -1854.1009 
 1112000    664.85545   -1909.3973    48.126014   -1861.2712 
 1112200    714.18827    -1911.213    51.697004    -1859.516 
 1112400    702.81342   -1905.6158    50.873628   -1854.7421 
 1112600    672.58033   -1907.4254    48.685185   -1858.7402 
 1112800    670.21201   -1909.2645    48.513753   -1860.7507 
 1113000    695.14782   -1905.7518    50.318749   -1855.4331 
 1113200    700.45258   -1905.9861    50.702737   -1855.2833 
 1113400    677.28593   -1908.3313    49.025803   -1859.3055 
 1113600    687.49676   -1907.3866    49.764922   -1857.6217 
 1113800    710.49404   -1907.3695    51.429595   -1855.9399 
 1114000    668.67676   -1906.5824    48.402623   -1858.1798 
 1114200    681.44402   -1907.8898    49.326789    -1858.563 
 1114400    687.03547   -1905.9582    49.731531   -1856.2266 
 1114600    683.22104   -1907.5724     49.45542    -1858.117 
 1114800    673.18548   -1905.8347    48.728989   -1857.1057 
 1115000    682.00656   -1906.1025    49.367509    -1856.735 
 1115200    651.85613   -1905.3664     47.18505   -1858.1814 
 1115400    711.47688   -1904.1737    51.500738    -1852.673 
 1115600     634.4349   -1908.0592    45.924003   -1862.1352 
 1115800     652.9259   -1906.9748    47.262486   -1859.7123 
 1116000     756.6117   -1904.5727    54.767853   -1849.8048 
 1116200    682.91944   -1909.6555    49.433589    -1860.222 
 1116400    680.18628   -1910.4539    49.235747   -1861.2182 
 1116600    759.87581   -1906.6757    55.004128   -1851.6716 
 1116800    680.27957   -1909.1299      49.2425   -1859.8874 
 1117000    669.16742   -1908.8951    48.438139    -1860.457 
 1117200    677.85933   -1903.2483    49.067309    -1854.181 
 1117400    676.14074   -1907.0742    48.942908   -1858.1312 
 1117600    692.84632   -1908.7399    50.152153   -1858.5878 
 1117800    673.92225   -1905.9887    48.782321   -1857.2063 
 1118000    715.18621   -1908.4903    51.769241   -1856.7211 
 1118200    687.00691   -1905.8748    49.729463   -1856.1453 
 1118400    658.99581   -1907.9693    47.701861   -1860.2675 
 1118600    693.69587   -1905.3306    50.213648    -1855.117 
 1118800    745.10959   -1904.8193    53.935266    -1850.884 
 1119000    612.64786   -1908.2302    44.346932   -1863.8832 
 1119200    664.56573   -1906.9794    48.105043   -1858.8744 
 1119400    764.56278   -1902.5222    55.343398   -1847.1788 
 1119600    683.72363   -1907.8247      49.4918   -1858.3329 
 1119800    675.63027   -1909.2923    48.905958   -1860.3863 
 1120000    742.61627   -1905.7208    53.754784    -1851.966 
 1120200    668.92404   -1905.5452    48.420522   -1857.1247 
 1120400    672.06709   -1907.7359    48.648034   -1859.0879 
 1120600    724.17983   -1902.9939     52.42025   -1850.5736 
 1120800    667.78751   -1906.1909    48.338254   -1857.8527 
 1121000    661.42072   -1908.7073    47.877389   -1860.8299 
 1121200    725.84873   -1902.9843    52.541054   -1850.4432 
 1121400    701.76128   -1907.2464    50.797468   -1856.4489 
 1121600     684.9026   -1910.7135    49.577141   -1861.1363 
 1121800    712.50611   -1903.6973     51.57524    -1852.122 
 1122000    729.30006   -1905.7349    52.790881    -1852.944 
 1122200    683.81558   -1907.4889    49.498456   -1857.9904 
 1122400    660.85244   -1905.3515    47.836254   -1857.5152 
 1122600    642.31288   -1902.8811    46.494255   -1856.3869 
 1122800    755.61517   -1908.9241    54.695719   -1854.2284 
 1123000    677.47711   -1910.0545    49.039642   -1861.0148 
 1123200    693.12723    -1909.004    50.172487   -1858.8315 
 1123400    742.88394   -1907.4983     53.77416   -1853.7241 
 1123600    660.41587   -1908.6789    47.804653   -1860.8742 
 1123800    659.22977   -1908.8486    47.718796   -1861.1298 
 1124000    756.99477   -1908.4896    54.795582    -1853.694 
 1124200    655.84327   -1907.7184    47.473662   -1860.2447 
 1124400    671.19025   -1909.7214    48.584563   -1861.1369 
 1124600    708.36611   -1906.3762    51.275563   -1855.1006 
 1124800    676.03518   -1907.6142    48.935267   -1858.6789 
 1125000    699.29704   -1910.4891    50.619093     -1859.87 
 1125200    683.39586   -1906.7214    49.468075   -1857.2533 
 1125400    699.54299   -1905.5827    50.636896   -1854.9458 
 1125600    711.83569   -1909.5048    51.526711   -1857.9781 
 1125800    678.84989   -1908.1145    49.139012   -1858.9754 
 1126000    721.11161   -1906.8942    52.198155   -1854.6961 
 1126200    711.05529   -1908.7957    51.470221   -1857.3254 
 1126400     684.4397   -1907.2823    49.543634   -1857.7387 
 1126600    742.21009   -1909.2364    53.725383   -1855.5111 
 1126800    660.80589    -1905.107    47.832885   -1857.2741 
 1127000     692.9599   -1908.2745    50.160374   -1858.1142 
 1127200    711.11144   -1906.5737    51.474286   -1855.0995 
 1127400    705.38254   -1905.6111    51.059595   -1854.5515 
 1127600    684.12649   -1906.8011    49.520962   -1857.2802 
 1127800    699.15808   -1908.8142    50.609034   -1858.2051 
 1128000    697.26429   -1906.5863    50.471951   -1856.1143 
 1128200    658.00099   -1905.1527     47.62985   -1857.5228 
 1128400    731.28808   -1906.1391    52.934786   -1853.2043 
 1128600    700.95296   -1908.2013    50.738958   -1857.4624 
 1128800    687.92603   -1909.8028    49.795994   -1860.0068 
 1129000    702.75048   -1905.7084    50.869072   -1854.8393 
 1129200    661.48369   -1906.8569    47.881947   -1858.9749 
 1129400    671.83063   -1907.9867    48.630917   -1859.3557 
 1129600    739.40329   -1907.4969    53.522211   -1853.9747 
 1129800    682.54433   -1907.0358    49.406436   -1857.6294 
 1130000    692.34928   -1907.2454    50.116174   -1857.1292 
 1130200    728.26591   -1906.0904    52.716024   -1853.3744 
 1130400    685.99576   -1907.5844    49.656271   -1857.9281 
 1130600    689.29129   -1908.6807    49.894819   -1858.7859 
 1130800    725.69347   -1907.5812    52.529816   -1855.0514 
 1131000    672.97988   -1905.4296    48.714107   -1856.7155 
 1131200    684.63774   -1907.0189    49.557969    -1857.461 
 1131400    700.42658   -1909.5689    50.700855   -1858.8681 
 1131600     729.5701   -1907.0537    52.810428   -1854.2433 
 1131800    715.11964   -1907.5837    51.764423   -1855.8193 
 1132000    650.93666   -1908.4102    47.118494   -1861.2917 
 1132200    696.30701   -1906.1258    50.402657   -1855.7232 
 1132400    681.87869     -1903.37    49.358253   -1854.0117 
 1132600    701.20988   -1909.2099    50.757555   -1858.4523 
 1132800    685.48232   -1910.7624    49.619105   -1861.1432 
 1133000    682.67527   -1907.0672    49.415915   -1857.6513 
 1133200    696.18078   -1903.5192     50.39352   -1853.1257 
 1133400    665.01247   -1907.0842     48.13738   -1858.9468 
 1133600    696.27961   -1907.2798    50.400674   -1856.8791 
 1133800    694.20164   -1902.6888    50.250258   -1852.4386 
 1134000    707.47524   -1907.8276    51.211077   -1856.6165 
 1134200    674.13429   -1907.8022     48.79767   -1859.0045 
 1134400    738.66396   -1906.3941    53.468694   -1852.9254 
 1134600    754.83724   -1908.1735    54.639408   -1853.5341 
 1134800    667.95609   -1909.7881    48.350457   -1861.4377 
 1135000    712.46904   -1908.7431    51.572557   -1857.1705 
 1135200    711.30401   -1904.5631    51.488225   -1853.0749 
 1135400    646.14868   -1905.3874    46.771912   -1858.6154 
 1135600    705.69363   -1907.3477    51.082114   -1856.2656 
 1135800    714.62189    -1906.986    51.728393   -1855.2576 
 1136000    686.58404   -1907.8041    49.698853   -1858.1052 
 1136200    704.64901   -1906.8759    51.006498   -1855.8694 
 1136400    712.66117   -1907.9877    51.586464   -1856.4012 
 1136600    708.90509   -1909.0051    51.314578   -1857.6905 
 1136800    688.63015   -1904.2419    49.846963    -1854.395 
 1137000    679.02802   -1905.1936    49.151905   -1856.0417 
 1137200    707.06782   -1906.1037    51.181586   -1854.9221 
 1137400    687.51594   -1905.6846     49.76631   -1855.9183 
 1137600    674.80353   -1908.0444    48.846113   -1859.1983 
 1137800    696.96712   -1904.8426     50.45044   -1854.3921 
 1138000    691.40825   -1905.3282    50.048057   -1855.2802 
 1138200    687.47643   -1910.7724     49.76345    -1861.009 
 1138400    724.39605   -1908.1751    52.435902   -1855.7392 
 1138600    687.15136   -1905.1946    49.739919   -1855.4547 
 1138800    680.01613   -1909.0473    49.223431   -1859.8239 
 1139000    690.67908   -1907.7537    49.995276   -1857.7585 
 1139200    729.81707   -1909.3957    52.828306   -1856.5674 
 1139400    718.83281   -1908.5913    52.033203   -1856.5581 
 1139600    696.51043   -1905.1329    50.417382   -1854.7155 
 1139800    708.36431   -1907.7551    51.275433   -1856.4797 
 1140000     731.1471   -1908.7606    52.924581   -1855.8361 
 1140200    715.87674   -1907.9571    51.819225   -1856.1379 
 1140400    682.02046   -1906.8882    49.368515   -1857.5197 
 1140600    710.21637   -1906.3141    51.409496   -1854.9046 
 1140800    682.22033   -1908.2565    49.382983   -1858.8735 
 1141000    715.30839   -1907.6709    51.778085   -1855.8928 
 1141200    706.05116   -1907.3112    51.107994   -1856.2032 
 1141400    713.13287   -1910.3508    51.620608   -1858.7302 
 1141600    704.52522   -1907.4614    50.997538   -1856.4639 
 1141800    710.96317   -1907.9805    51.463553   -1856.5169 
 1142000    693.32552   -1907.7107     50.18684   -1857.5238 
 1142200    704.35901   -1905.6691    50.985507   -1854.6836 
 1142400    683.37626    -1907.133    49.466656   -1857.6664 
 1142600    667.93301   -1908.2459    48.348786   -1859.8971 
 1142800    713.40157   -1908.5806    51.640059   -1856.9405 
 1143000     697.8736   -1908.8795    50.516056   -1858.3634 
 1143200    679.92709   -1906.1013    49.216986   -1856.8843 
 1143400    687.18243   -1906.6401    49.742169   -1856.8979 
 1143600    717.40863   -1909.7827    51.930112   -1857.8526 
 1143800    737.02022   -1909.9759     53.34971   -1856.6262 
 1144000    690.75241   -1908.6581    50.000584   -1858.6575 
 1144200    729.29684    -1909.233    52.790649   -1856.4423 
 1144400    696.17521   -1906.4246    50.393117   -1856.0315 
 1144600    704.01429   -1908.7391    50.960554   -1857.7786 
 1144800    725.47604   -1908.7141    52.514077      -1856.2 
 1145000    727.78335   -1909.1647    52.681093   -1856.4836 
 1145200    724.63883   -1912.1487    52.453475   -1859.6952 
 1145400    724.64787    -1908.333     52.45413   -1855.8788 
 1145600    718.21722    -1908.473    51.988643   -1856.4843 
 1145800    707.26218   -1912.3403    51.195655   -1861.1447 
 1146000    706.41789   -1908.6166     51.13454   -1857.4821 
 1146200    695.98138   -1907.1819    50.379086   -1856.8028 
 1146400    695.46495   -1907.8913    50.341704   -1857.5496 
 1146600    692.77223   -1909.9725     50.14679   -1859.8257 
 1146800    712.73574   -1908.4294    51.591862   -1856.8375 
 1147000     698.3729   -1906.4402    50.552198    -1855.888 
 1147200    669.92593   -1908.0724    48.493045   -1859.5794 
 1147400    694.29066   -1906.3863    50.256702   -1856.1296 
 1147600    720.10614   -1906.4057    52.125374   -1854.2804 
 1147800    684.54116   -1908.4467    49.550978   -1858.8957 
 1148000    696.13944   -1909.1819    50.390528   -1858.7913 
 1148200    691.74618    -1906.577    50.072518   -1856.5045 
 1148400    691.91732   -1908.2841    50.084907   -1858.1992 
 1148600    687.90157   -1907.7418    49.794223   -1857.9476 
 1148800    736.57059   -1907.7477    53.317164   -1854.4305 
 1149000    675.79952   -1907.1316    48.918209   -1858.2134 
 1149200    703.54045   -1909.9033    50.926255    -1858.977 
 1149400    725.30679   -1904.1246    52.501826   -1851.6227 
 1149600    680.73478   -1906.4267    49.275451   -1857.1512 
 1149800    665.99631   -1907.3807    48.208596   -1859.1721 
 1150000    722.98308   -1906.5124    52.333623   -1854.1788 
 1150200    707.22501   -1908.4306    51.192964   -1857.2377 
 1150400    715.98504   -1911.9697    51.827065   -1860.1427 
 1150600    721.05186   -1906.3501     52.19383   -1854.1562 
 1150800    687.88438   -1904.8696    49.792979   -1855.0766 
 1151000     694.1439   -1910.0458    50.246079   -1859.7997 
 1151200     657.0653   -1908.2869    47.562119   -1860.7247 
 1151400    686.65457    -1906.527    49.703959   -1856.8231 
 1151600    710.18471   -1907.6794    51.407204   -1856.2722 
 1151800    691.61004   -1910.5447    50.062664   -1860.4821 
 1152000     690.6982   -1907.5524    49.996659   -1857.5557 
 1152200     693.8753   -1906.0742    50.226636   -1855.8476 
 1152400    693.21503   -1911.5228    50.178842    -1861.344 
 1152600    735.95013    -1910.843    53.272251   -1857.5707 
 1152800    734.92509   -1908.8074    53.198053   -1855.6094 
 1153000    691.87011   -1910.3734    50.081489   -1860.2919 
 1153200    710.02655   -1910.2573    51.395756   -1858.8615 
 1153400    757.40967   -1911.6227    54.825615   -1856.7971 
 1153600    667.21107   -1910.5284    48.296528   -1862.2318 
 1153800    706.39834   -1906.5674    51.133125   -1855.4343 
 1154000    694.06758   -1908.2127    50.240555   -1857.9721 
 1154200    712.31021    -1912.584     51.56106    -1861.023 
 1154400    734.09751    -1906.559    53.138148   -1853.4208 
 1154600    685.06691   -1906.4782    49.589035   -1856.8892 
 1154800    702.46572   -1911.1726     50.84846   -1860.3241 
 1155000    744.12872   -1906.8075    53.864264   -1852.9432 
 1155200    687.44872   -1906.8715    49.761444     -1857.11 
 1155400    706.79224   -1911.0608    51.161638   -1859.8992 
 1155600    709.15582   -1906.6993    51.332727   -1855.3666 
 1155800    733.03816   -1906.6511    53.061467   -1853.5897 
 1156000    688.51053   -1908.9975    49.838304   -1859.1592 
 1156200    700.83588   -1910.2399    50.730482   -1859.5094 
 1156400     738.1001   -1907.3208    53.427878    -1853.893 
 1156600    700.19029   -1904.9011    50.683751   -1854.2173 
 1156800     690.9298   -1912.7849    50.013424   -1862.7714 
 1157000    699.99452    -1908.828     50.66958   -1858.1584 
 1157200    733.46499   -1904.8766    53.092363   -1851.7842 
 1157400    650.48428   -1907.1811    47.085748   -1860.0953 
 1157600    721.16132   -1909.7955    52.201754   -1857.5937 
 1157800     680.2134   -1903.3342     49.23771   -1854.0965 
 1158000    669.16573   -1907.1593    48.438017   -1858.7213 
 1158200    722.12744   -1907.2359    52.271687   -1854.9642 
 1158400     718.7254   -1910.9771    52.025428   -1858.9517 
 1158600    691.38247   -1910.5532    50.046191    -1860.507 
 1158800     769.2536    -1907.113    55.682946     -1851.43 
 1159000    711.23984   -1910.4361     51.48358   -1858.9525 
 1159200    673.75037    -1909.925     48.76988   -1861.1551 
 1159400      744.031   -1907.3432    53.857191    -1853.486 
 1159600    700.99379   -1911.4599    50.741913   -1860.7179 
 1159800    718.29403   -1909.0611    51.994202   -1857.0669 
 1160000    737.05669   -1907.6264    53.352351   -1854.2741 
 1160200    669.72609   -1910.0584    48.478579   -1861.5798 
 1160400    730.05118   -1909.8373    52.845252   -1856.9921 
 1160600    704.05657   -1906.5233    50.963614   -1855.5597 
 1160800    680.73672   -1909.9062    49.275591   -1860.6306 
 1161000    742.33765   -1909.8518    53.734616   -1856.1172 
 1161200    685.59036   -1907.5971    49.626925   -1857.9702 
 1161400    728.18472   -1909.2544    52.710147   -1856.5443 
 1161600    695.63243   -1909.5297    50.353827   -1859.1759 
 1161800     699.9857   -1909.2284    50.668942   -1858.5595 
 1162000    768.56969   -1910.3047    55.633441   -1854.6713 
 1162200    720.77457   -1912.6666    52.173758   -1860.4929 
 1162400    702.05459   -1908.4372      50.8187   -1857.6185 
 1162600    735.42258   -1908.3418    53.234064   -1855.1077 
 1162800    686.26984    -1911.588     49.67611   -1861.9119 
 1163000    695.34379   -1909.0686    50.332934   -1858.7357 
 1163200    728.70729    -1909.015    52.747974    -1856.267 
 1163400    675.06123   -1910.1257    48.864767    -1861.261 
 1163600    695.61684   -1906.6818    50.352699   -1856.3291 
 1163800    725.83905   -1909.5678    52.540354   -1857.0274 
 1164000    665.67981   -1909.1736    48.185687   -1860.9879 
 1164200    752.92852   -1910.0876    54.501244   -1855.5863 
 1164400    694.88607    -1908.836    50.299801   -1858.5362 
 1164600    695.95563   -1910.7775    50.377223   -1860.4002 
 1164800    736.75999   -1908.4222    53.330874   -1855.0913 
 1165000    713.71063   -1908.7382     51.66243   -1857.0758 
 1165200    706.88667   -1908.5512    51.168473   -1857.3827 
 1165400    737.34165   -1911.2019    53.372978   -1857.8289 
 1165600    716.57808   -1909.5699    51.869992   -1857.6999 
 1165800     706.4836   -1906.8608    51.139297   -1855.7215 
 1166000    733.31187   -1910.7114     53.08128   -1857.6301 
 1166200    701.93369   -1910.8836    50.809948   -1860.0736 
 1166400    739.25606   -1910.9952    53.511553   -1857.4836 
 1166600    702.41989   -1912.5796    50.845142   -1861.7345 
 1166800     683.2883   -1906.5756    49.460289   -1857.1153 
 1167000    715.51736   -1902.6243    51.793211   -1850.8311 
 1167200    658.98491   -1910.6786    47.701072   -1862.9775 
 1167400    691.18771    -1909.671    50.032093   -1859.6389 
 1167600    747.37887   -1906.8161    54.099528   -1852.7165 
 1167800     722.9601   -1914.4816     52.33196   -1862.1497 
 1168000    723.13964   -1912.1718    52.344956   -1859.8269 
 1168200    723.29308   -1907.3488    52.356062   -1854.9928 
 1168400    705.48788   -1907.8387    51.067221   -1856.7715 
 1168600    705.96735   -1909.1842    51.101928   -1858.0823 
 1168800    690.19631   -1910.9378     49.96033   -1860.9775 
 1169000    720.18866   -1909.0058    52.131347   -1856.8744 
 1169200     719.1402   -1908.3273    52.055453   -1856.2718 
 1169400    708.50049   -1913.5775    51.285291   -1862.2922 
 1169600    706.32767    -1908.222     51.12801    -1857.094 
 1169800    740.45604   -1906.9954    53.598415    -1853.397 
 1170000    657.98603   -1910.8344    47.628767   -1863.2056 
 1170200     704.2409    -1908.411    50.976957    -1857.434 
 1170400    737.46357   -1905.8028    53.381803    -1852.421 
 1170600    694.34054   -1912.4288    50.260313   -1862.1685 
 1170800    749.43292   -1910.6186    54.248213   -1856.3704 
 1171000    686.04328   -1905.6205     49.65971   -1855.9608 
 1171200    723.07727   -1907.1167    52.340441   -1854.7762 
 1171400     717.8795   -1907.2705    51.964197   -1855.3063 
 1171600    703.15619   -1912.4533     50.89844   -1861.5549 
 1171800    734.02182    -1912.917     53.13267   -1859.7843 
 1172000    712.09444   -1907.9424    51.545441   -1856.3969 
 1172200    702.98021    -1910.852    50.885701   -1859.9663 
 1172400    700.58546   -1907.7936    50.712356   -1857.0813 
 1172600    721.76592   -1909.2048    52.245518   -1856.9592 
 1172800    704.34891   -1910.5024    50.984776   -1859.5177 
 1173000    746.41038   -1910.0435    54.029424   -1856.0141 
 1173200    664.59041   -1909.2525     48.10683   -1861.1457 
 1173400     716.2058   -1908.9269    51.843045   -1857.0838 
 1173600    771.28751   -1911.1299    55.830172   -1855.2997 
 1173800     679.5371   -1912.0175    49.188756   -1862.8287 
 1174000    717.93074   -1909.3758    51.967906   -1857.4079 
 1174200    744.21353   -1909.0368    53.870404   -1855.1664 
 1174400      671.377   -1908.0113    48.598082   -1859.4132 
 1174600     702.9253   -1906.8049    50.881727   -1855.9232 
 1174800    697.79693   -1909.3109    50.510506   -1858.8004 
 1175000    726.53348   -1911.4197    52.590621    -1858.829 
 1175200    755.15454   -1909.9274    54.662376    -1855.265 
 1175400    703.19353   -1910.9768    50.901143   -1860.0757 
 1175600    750.31136    -1909.868    54.311799   -1855.5562 
 1175800    740.89652   -1908.8088    53.630299   -1855.1785 
 1176000    707.09524   -1909.4331     51.18357   -1858.2495 
 1176200    743.23438   -1909.5105    53.799527    -1855.711 
 1176400    663.80758    -1904.195    48.050164   -1856.1449 
 1176600    707.72651   -1908.2283    51.229266    -1856.999 
 1176800    696.77214   -1907.6295    50.436326   -1857.1932 
 1177000    724.15545   -1908.1479    52.418485   -1855.7295 
 1177200    722.03443   -1908.3994    52.264954   -1856.1345 
 1177400    688.82725    -1908.692     49.86123   -1858.8307 
 1177600     695.4168   -1911.1329    50.338219   -1860.7947 
 1177800    692.52383   -1906.0716    50.128809   -1855.9428 
 1178000    757.54448   -1909.3932    54.835373   -1854.5579 
 1178200     676.2494   -1910.7877    48.950773   -1861.8369 
 1178400    714.72843   -1911.3332    51.736104   -1859.5971 
 1178600    714.08265   -1907.2493    51.689359   -1855.5599 
 1178800    713.92819   -1907.4219    51.678178   -1855.7437 
 1179000    695.84445   -1910.1064    50.369174   -1859.7372 
 1179200    710.37243   -1910.1596    51.420792   -1858.7388 
 1179400    710.48246   -1908.4533    51.428757   -1857.0245 
 1179600    724.51664   -1909.8793     52.44463   -1857.4346 
 1179800    720.94861   -1909.9336    52.186356   -1857.7473 
 1180000    710.93242   -1910.2751    51.461328   -1858.8138 
 1180200    697.18298    -1911.372    50.466065   -1860.9059 
 1180400    734.30289   -1910.6514    53.153015   -1857.4984 
 1180600    750.19566   -1909.6138    54.303424   -1855.3104 
 1180800    682.64031   -1909.8821    49.413384   -1860.4687 
 1181000    746.25047   -1910.3885    54.017848   -1856.3707 
 1181200    721.89896   -1908.7958    52.255148   -1856.5407 
 1181400    672.28394   -1910.7724    48.663731   -1862.1086 
 1181600     706.2487   -1907.2989    51.122293   -1856.1766 
 1181800    700.86676   -1905.3536    50.732718   -1854.6209 
 1182000    676.72931   -1909.3788    48.985512   -1860.3933 
 1182200    748.45583   -1908.8983    54.177485   -1854.7208 
 1182400      692.115   -1909.8955    50.099216   -1859.7963 
 1182600    696.12106   -1907.4564    50.389197   -1857.0672 
 1182800    772.50547   -1905.3963    55.918335   -1849.4779 
 1183000     668.7033    -1911.147    48.404544   -1862.7424 
 1183200    697.79097   -1909.4336    50.510075   -1858.9235 
 1183400    701.96192   -1901.0114    50.811991   -1850.1994 
 1183600     655.6346   -1908.2275    47.458557   -1860.7689 
 1183800     705.2403   -1910.9683    51.049299    -1859.919 
 1184000    707.87699   -1902.3102    51.240158   -1851.0701 
 1184200    710.91135   -1906.9607    51.459802   -1855.5009 
 1184400    679.79985   -1909.7003    49.207775   -1860.4926 
 1184600    709.23977   -1905.9634    51.338804   -1854.6246 
 1184800    702.41903    -1904.286     50.84508   -1853.4409 
 1185000    689.25466   -1906.8043    49.892168   -1856.9121 
 1185200    706.99344   -1907.4604    51.176202   -1856.2842 
 1185400     755.3978   -1906.5271    54.679985   -1851.8471 
 1185600    711.10723   -1908.8508    51.473982   -1857.3768 
 1185800    719.13209   -1910.2758    52.054866   -1858.2209 
 1186000    713.74055   -1907.1393    51.664596   -1855.4747 
 1186200    717.39911   -1907.6705    51.929423   -1855.7411 
 1186400    746.80668   -1909.6097     54.05811   -1855.5516 
 1186600    691.66724   -1907.2112    50.066804   -1857.1444 
 1186800    722.58373   -1907.1004    52.304716   -1854.7956 
 1187000    705.83353   -1905.6092    51.092241   -1854.5169 
 1187200    696.27677   -1907.7167    50.400468   -1857.3163 
 1187400    723.58876   -1908.6886    52.377466   -1856.3112 
 1187600    710.35009    -1908.647    51.419175   -1857.2278 
 1187800    698.72037    -1906.469     50.57735   -1855.8917 
 1188000    726.19312   -1905.9743    52.565984   -1853.4083 
 1188200    704.95189   -1909.4807    51.028423   -1858.4523 
 1188400    725.63472   -1908.4403    52.525564   -1855.9148 
 1188600    737.61999   -1906.9812    53.393125   -1853.5881 
 1188800    657.14797   -1907.1877    47.568103   -1859.6196 
 1189000    716.39365   -1907.8601    51.856642   -1856.0035 
 1189200    757.59083   -1909.1925    54.838728   -1854.3538 
 1189400    688.06126    -1908.606    49.805783   -1858.8002 
 1189600    727.95831   -1905.8821    52.693758   -1853.1883 
 1189800    729.62948    -1907.083    52.814727   -1854.2683 
 1190000    712.19048   -1909.3361    51.552393   -1857.7837 
 1190200    732.44088   -1907.7596    53.018232   -1854.7414 
 1190400    681.45227   -1908.6431    49.327387   -1859.3158 
 1190600    695.50157   -1908.3064    50.344355   -1857.9621 
 1190800    729.11756   -1906.2952    52.777671   -1853.5176 
 1191000    712.18465   -1911.5555    51.551971   -1860.0035 
 1191200    687.18723   -1907.5092    49.742516   -1857.7667 
 1191400     777.1061   -1910.3086    56.251354   -1854.0572 
 1191600    666.03573   -1910.6798     48.21145   -1862.4683 
 1191800    734.48003   -1908.4453    53.165837   -1855.2795 
 1192000    743.68384   -1908.3225    53.832061   -1854.4904 
 1192200    670.15648   -1910.0324    48.509733   -1861.5226 
 1192400    742.47917    -1908.711    53.744861   -1854.9661 
 1192600    739.62711   -1908.9193    53.538412   -1855.3808 
 1192800    677.59718   -1908.1798    49.048334   -1859.1315 
 1193000    703.81546   -1908.8595    50.946162   -1857.9133 
 1193200    724.30469   -1910.7939    52.429289   -1858.3646 
 1193400    719.87526   -1910.6593    52.108661   -1858.5506 
 1193600    756.99629     -1910.21    54.795692   -1855.4143 
 1193800    705.76433      -1910.3    51.087232   -1859.2128 
 1194000     731.2519   -1908.7817    52.932167   -1855.8496 
 1194200     763.9666    -1910.719    55.300243   -1855.4188 
 1194400    685.94124   -1911.0225    49.652324   -1861.3702 
 1194600    704.12724   -1909.5722     50.96873   -1858.6034 
 1194800    738.22633   -1906.9208    53.437016   -1853.4838 
 1195000    713.24589    -1911.202     51.62879   -1859.5732 
 1195200    677.88982   -1911.3959    49.069516   -1862.3264 
 1195400    758.71469   -1909.4637     54.92008   -1854.5436 
 1195600     696.9796   -1906.4812    50.451343   -1856.0299 
 1195800     703.7134   -1909.2483    50.938774   -1858.3095 
 1196000    707.86882   -1910.5451    51.239566   -1859.3056 
 1196200    752.93462   -1910.7952    54.501685   -1856.2935 
 1196400    720.12896   -1908.3916    52.127026   -1856.2645 
 1196600     738.3551   -1910.6533    53.446337    -1857.207 
 1196800    731.41517   -1912.0961    52.943985   -1859.1521 
 1197000    736.41482   -1910.2361    53.305888   -1856.9303 
 1197200    737.59612   -1909.3981    53.391398   -1856.0067 
 1197400    718.30955   -1909.1951    51.995326   -1857.1998 
 1197600    705.36011   -1909.9015    51.057972   -1858.8435 
 1197800    722.77018   -1909.2399    52.318212   -1856.9217 
 1198000    719.93506   -1909.4446    52.112989   -1857.3316 
 1198200    700.89492   -1907.7658    50.734756   -1857.0311 
 1198400    732.58491    -1909.622    53.028658   -1856.5934 
 1198600    693.00854    -1904.395    50.163895   -1854.2311 
 1198800    715.63985   -1909.1087    51.802078   -1857.3066 
 1199000    670.01048   -1906.9746    48.499165   -1858.4755 
 1199200    737.06402   -1908.4899    53.352881    -1855.137 
 1199400    676.48226   -1908.8073    48.967629   -1859.8397 
 1199600    717.22579    -1907.643    51.916877   -1855.7261 
 1199800    775.37497   -1907.9613    56.126045   -1851.8353 
 1200000    683.89084   -1911.2735    49.503904   -1861.7696 
 1200200    711.41883   -1909.5309    51.496537   -1858.0343 
 1200400    747.94045   -1905.7002    54.140179     -1851.56 
 1200600    704.27031   -1910.3482    50.979086   -1859.3691 
 1200800    725.75932   -1912.1302    52.534583   -1859.5956 
 1201000    762.40637   -1908.5357    55.187304   -1853.3484 
 1201200     711.0354   -1907.5619    51.468782   -1856.0931 
 1201400    684.15073   -1907.8265    49.522717   -1858.3038 
 1201600     717.9561    -1910.807    51.969742   -1858.8372 
 1201800    772.96665   -1912.6787    55.951718    -1856.727 
 1202000    744.63944   -1908.5178    53.901233   -1854.6166 
 1202200    707.41548   -1907.8822    51.206751   -1856.6755 
 1202400    735.17457   -1911.2489    53.216112   -1858.0328 
 1202600    729.65267   -1906.8569    52.816406   -1854.0405 
 1202800    713.58373   -1905.5288    51.653244   -1853.8755 
 1203000    718.82343   -1905.7346    52.032524   -1853.7021 
 1203200     707.7025   -1909.4504    51.227528   -1858.2229 
 1203400    686.19334   -1908.0802    49.670573   -1858.4096 
 1203600    773.31074   -1907.2191    55.976625   -1851.2425 
 1203800    699.57368   -1911.8385    50.639117   -1861.1994 
 1204000    708.94166   -1911.4327    51.317225   -1860.1155 
 1204200    756.32508   -1901.9068    54.747106   -1847.1597 
 1204400    678.45263   -1907.2606    49.110256   -1858.1504 
 1204600    724.43644   -1913.1248    52.438825   -1860.6859 
 1204800    748.93019    -1906.031    54.211822   -1851.8192 
 1205000    736.39251   -1908.6435    53.304273   -1855.3392 
 1205200    744.77778   -1910.6517    53.911247   -1856.7404 
 1205400    722.19305   -1907.8807    52.276436   -1855.6042 
 1205600    713.66368   -1906.0181    51.659032   -1854.3591 
 1205800     760.0087   -1908.8205    55.013747   -1853.8068 
 1206000    716.61568   -1911.4558    51.872714   -1859.5831 
 1206200    703.06143   -1907.5603     50.89158   -1856.6688 
 1206400    763.49969   -1905.3062    55.266445   -1850.0397 
 1206600    721.08051   -1910.7376    52.195904   -1858.5417 
 1206800    697.14633   -1909.3198    50.463412   -1858.8564 
 1207000    786.24342   -1907.1579    56.912765   -1850.2451 
 1207200    723.79039   -1909.6691     52.39206    -1857.277 
 1207400    689.96549   -1909.6398    49.943622   -1859.6962 
 1207600     761.0195   -1907.0381    55.086915   -1851.9511 
 1207800    722.47076   -1909.5879    52.296538   -1857.2914 
 1208000    683.30012   -1908.1939    49.461144   -1858.7327 
 1208200    739.76869   -1905.8121    53.548661   -1852.2634 
 1208400    703.23998   -1907.3958    50.904505   -1856.4913 
 1208600     726.6799   -1909.2688     52.60122   -1856.6676 
 1208800     762.3459   -1908.3198    55.182928   -1853.1369 
 1209000    712.81135   -1907.1643    51.597335    -1855.567 
 1209200    719.18429   -1908.8022    52.058644   -1856.7436 
 1209400    699.62624   -1907.0355    50.642922   -1856.3926 
 1209600    729.06441   -1909.6399    52.773824   -1856.8661 
 1209800    744.53485   -1910.9544    53.893662   -1857.0608 
 1210000    713.59001   -1911.0522    51.653699   -1859.3985 
 1210200    757.20421   -1911.7999    54.810743   -1856.9892 
 1210400    736.61389   -1906.8572    53.320298   -1853.5369 
 1210600    756.20958   -1915.2992    54.738746   -1860.5604 
 1210800    708.52513   -1911.7629    51.287074   -1860.4758 
 1211000    732.25365   -1906.6315    53.004679   -1853.6268 
 1211200    679.67335   -1908.4406    49.198618    -1859.242 
 1211400    735.04923   -1910.3769    53.207039   -1857.1699 
 1211600    752.54028    -1909.413    54.473141   -1854.9398 
 1211800    708.20375   -1910.1129    51.263811   -1858.8491 
 1212000    711.94822    -1908.952    51.534857   -1857.4172 
 1212200    737.01921   -1909.2425    53.349638   -1855.8928 
 1212400      691.276   -1908.8403    50.038484   -1858.8018 
 1212600    713.47362   -1910.2963    51.645274   -1858.6511 
 1212800    712.13408   -1908.5587     51.54831   -1857.0103 
 1213000    723.17033   -1909.1199    52.347177   -1856.7727 
 1213200    723.96928   -1910.4472    52.405009   -1858.0421 
 1213400     742.4792   -1912.9589    53.744863    -1859.214 
 1213600    747.78967   -1913.3884    54.129265   -1859.2592 
 1213800    721.59501   -1908.9545    52.233146   -1856.7214 
 1214000    723.88595   -1910.1662    52.398977   -1857.7673 
 1214200    700.98007   -1910.9411     50.74092   -1860.2002 
 1214400     703.6496   -1911.7395    50.934156   -1860.8054 
 1214600    720.74632   -1907.5663    52.171714   -1855.3946 
 1214800    757.31471    -1910.469    54.818741   -1855.6503 
 1215000    663.69503   -1912.2565    48.042017   -1864.2145 
 1215200    729.28302   -1909.3992    52.789648   -1856.6096 
 1215400    770.15335   -1908.8206    55.748075   -1853.0725 
 1215600    707.22534   -1913.3779    51.192988   -1862.1849 
 1215800    770.17162   -1914.0893    55.749397   -1858.3399 
 1216000    760.55883   -1907.5407    55.053569   -1852.4872 
 1216200    700.75644   -1909.1472    50.724732   -1858.4225 
 1216400    723.76487   -1909.9979    52.390213   -1857.6077 
 1216600    689.08948   -1905.1515    49.880211   -1855.2712 
 1216800    735.28649   -1906.7513    53.224214   -1853.5271 
 1217000     757.8018   -1912.6513       54.854   -1857.7973 
 1217200    703.80535   -1909.1991     50.94543   -1858.2537 
 1217400    766.37458   -1909.4663    55.474546   -1853.9917 
 1217600    706.43739   -1905.9222    51.135952   -1854.7862 
 1217800    731.69345   -1910.9505    52.964129   -1857.9864 
 1218000    707.26354   -1908.3057    51.195753   -1857.1099 
 1218200    769.30172    -1910.413    55.686429   -1854.7266 
 1218400    687.96132   -1909.4415    49.798549    -1859.643 
 1218600    747.15948    -1908.512    54.083648   -1854.4284 
 1218800    722.09867   -1911.0705    52.269604   -1858.8009 
 1219000    723.72752   -1912.7206    52.387509   -1860.3331 
 1219200    739.97023   -1907.9343    53.563249    -1854.371 
 1219400    753.91306   -1910.6413     54.57251   -1856.0688 
 1219600    748.48186     -1908.74    54.179369   -1854.5606 
 1219800    731.68796    -1911.204    52.963732   -1858.2403 
 1220000    718.72451   -1910.8502    52.025363   -1858.8248 
 1220200     717.4157   -1907.5459    51.930624   -1855.6153 
 1220400    752.02553   -1911.1314     54.43588   -1856.6955 
 1220600    742.16748    -1908.301    53.722299   -1854.5787 
 1220800    731.14693   -1904.9464    52.924569   -1852.0218 
 1221000    729.79603   -1911.4719    52.826782   -1858.6451 
 1221200    718.45604   -1909.6017     52.00593   -1857.5957 
 1221400     800.1538   -1909.7473    57.919678   -1851.8276 
 1221600    659.35032   -1908.8782    47.727522   -1861.1506 
 1221800    785.36271   -1908.5786    56.849015   -1851.7296 
 1222000     731.6191   -1907.0144    52.958747   -1854.0556 
 1222200    692.92832     -1912.78    50.158089   -1862.6219 
 1222400     772.7439   -1909.8769    55.935594   -1853.9413 
 1222600    691.54294   -1906.3797    50.057807   -1856.3219 
 1222800    724.62821   -1912.0298    52.452706   -1859.5771 
 1223000    755.37356   -1909.2712     54.67823   -1854.5929 
 1223200    726.42721   -1910.2216    52.582928   -1857.6387 
 1223400    710.22093    -1909.971    51.409826   -1858.5611 
 1223600    748.14927   -1910.8751    54.155295   -1856.7198 
 1223800    750.31259   -1909.2379    54.311888    -1854.926 
 1224000    734.22777   -1908.8814    53.147577   -1855.7338 
 1224200    729.48584   -1909.9514     52.80433   -1857.1471 
 1224400    737.57686   -1910.9943    53.390003   -1857.6043 
 1224600    744.65729   -1909.1689    53.902525   -1855.2664 
 1224800    719.61178    -1910.679    52.089589   -1858.5894 
 1225000    691.58406   -1910.3834    50.060783   -1860.3226 
 1225200     747.2449   -1903.6478    54.089831    -1849.558 
 1225400    724.83711   -1908.7463    52.467828   -1856.2785 
 1225600    697.02407   -1912.5501    50.454562   -1862.0956 
 1225800    761.57021   -1908.6798    55.126778    -1853.553 
 1226000    723.87519   -1910.8499    52.398199   -1858.4517 
 1226200    694.13915   -1910.8318    50.245735    -1860.586 
 1226400    783.14401   -1910.6824    56.688413    -1853.994 
 1226600    733.21189   -1910.3035    53.074042   -1857.2295 
 1226800    723.60043   -1907.1893     52.37831    -1854.811 
 1227000    745.28732   -1907.7506     53.94813   -1853.8024 
 1227200    674.77785   -1907.7752    48.844255    -1858.931 
 1227400    756.79736   -1908.1426    54.781292   -1853.3613 
 1227600    740.50395   -1910.2998    53.601883   -1856.6979 
 1227800    694.35996   -1910.4511    50.261719   -1860.1893 
 1228000     760.0736   -1908.6932    55.018445   -1853.6748 
 1228200    731.85715   -1909.3847    52.975979   -1856.4087 
 1228400    731.64023   -1909.1604    52.960276   -1856.2002 
 1228600    750.49086   -1906.9585    54.324792   -1852.6337 
 1228800    737.74662   -1912.6937    53.402292   -1859.2914 
 1229000    748.88673   -1913.4989    54.208676   -1859.2902 
 1229200    743.25458   -1907.5425    53.800989   -1853.7415 
 1229400    722.53071   -1908.4179    52.300878    -1856.117 
 1229600    748.66325   -1909.8469    54.192499   -1855.6544 
 1229800    741.91692   -1909.7753    53.704161   -1856.0712 
 1230000    753.11242    -1910.097    54.514556   -1855.5824 
 1230200     739.8158   -1909.0792    53.552071   -1855.5271 
 1230400    699.11811   -1910.2592     50.60614   -1859.6531 
 1230600    757.94985   -1908.6601    54.864716   -1853.7954 
 1230800    734.78196   -1906.3561    53.187693   -1853.1684 
 1231000    682.44631   -1908.6651    49.399341   -1859.2657 
 1231200    737.41619   -1908.4462    53.378373   -1855.0678 
 1231400    756.05281   -1907.7201    54.727397   -1852.9927 
 1231600    726.86962   -1912.0459    52.614952   -1859.4309 
 1231800    722.76205   -1914.9133    52.317623   -1862.5957 
 1232000    781.27536   -1908.1646    56.553149   -1851.6114 
 1232200    726.47545   -1907.2673     52.58642   -1854.6809 
 1232400    659.99008   -1910.9019    47.773832    -1863.128 
 1232600    725.14657   -1905.5824    52.490229   -1853.0922 
 1232800    761.55345   -1908.5716    55.125565    -1853.446 
 1233000     701.8768   -1913.6964     50.80583   -1862.8906 
 1233200    746.19333   -1908.6305    54.013712   -1854.6167 
 1233400    773.45742   -1908.2994    55.987242   -1852.3122 
 1233600    753.68716   -1912.8444    54.556159   -1858.2882 
 1233800    752.94077   -1911.7084     54.50213   -1857.2063 
 1234000    704.50115   -1908.8163    50.995796   -1857.8205 
 1234200    765.54582   -1907.5284    55.414555   -1852.1138 
 1234400    765.32426   -1909.5807    55.398518   -1854.1822 
 1234600    688.06064   -1913.4195    49.805738   -1863.6138 
 1234800    771.29228    -1910.122    55.830517   -1854.2915 
 1235000    725.32617    -1903.536    52.503229   -1851.0328 
 1235200    717.79474   -1912.1816    51.958062   -1860.2236 
 1235400    711.73427    -1910.079     51.51937   -1858.5596 
 1235600    782.11239    -1904.589    56.613738   -1847.9753 
 1235800     732.1843   -1909.5926    52.999659   -1856.5929 
 1236000    697.80483   -1911.6075    50.511078   -1861.0965 
 1236200    729.99141   -1908.6305    52.840926   -1855.7895 
 1236400    754.64763   -1907.0114    54.625683   -1852.3858 
 1236600    732.98978   -1911.6911    53.057964   -1858.6331 
 1236800    718.32612   -1912.5457    51.996526   -1860.5491 
 1237000    785.10513    -1910.131    56.830369   -1853.3006 
 1237200     733.3231    -1907.876    53.082092   -1854.7939 
 1237400    703.51823   -1913.8455    50.924646   -1862.9209 
 1237600    705.58041   -1908.5108    51.073919   -1857.4369 
 1237800    767.63537   -1909.5744    55.565809   -1854.0086 
 1238000    733.75326    -1913.467     53.11323   -1860.3538 
 1238200    737.22015   -1909.2654    53.364183   -1855.9013 
 1238400    792.14377   -1910.2625    57.339867   -1852.9226 
 1238600    718.71247    -1912.397    52.024492   -1860.3725 
 1238800     701.4981   -1908.3911    50.778418   -1857.6127 
 1239000    755.93465   -1907.9347    54.718844   -1853.2159 
 1239200    734.11915   -1910.4451    53.139715   -1857.3054 
 1239400    715.85075   -1908.1951    51.817344   -1856.3778 
 1239600    726.46661   -1909.5447     52.58578   -1856.9589 
 1239800    759.91639   -1910.5564    55.007066   -1855.5493 
 1240000    743.65871   -1907.9099    53.830242   -1854.0797 
 1240200     694.7377     -1909.51    50.289062   -1859.2209 
 1240400    749.17684   -1910.1694    54.229676   -1855.9398 
 1240600    744.75481   -1909.2437    53.909584   -1855.3341 
 1240800    686.25835   -1906.7458    49.675278   -1857.0705 
 1241000     742.6204   -1905.9862    53.755083   -1852.2311 
 1241200    695.11059   -1905.9016    50.316054   -1855.5855 
 1241400    710.42823   -1907.4564    51.424831   -1856.0316 
 1241600    705.83056   -1903.8154    51.092026   -1852.7234 
 1241800    728.96554   -1909.2693    52.766667   -1856.5027 
 1242000     715.6582   -1907.9213    51.803406   -1856.1178 
 1242200    739.29091   -1903.9188    53.514076   -1850.4048 
 1242400     732.9919   -1912.4863    53.058118   -1859.4281 
 1242600    712.53886   -1911.1833    51.577611   -1859.6057 
 1242800    705.25341    -1900.641    51.050249   -1849.5907 
 1243000    719.17495   -1904.8652    52.057969   -1852.8072 
 1243200    738.01937   -1910.8131    53.422035    -1857.391 
 1243400    718.58497    -1910.282    52.015263   -1858.2668 
 1243600    710.81694   -1906.7078    51.452968   -1855.2549 
 1243800    745.17888   -1910.0506    53.940281   -1856.1103 
 1244000    682.68428   -1912.6095    49.416566    -1863.193 
 1244200    714.61838   -1908.6165    51.728138   -1856.8883 
 1244400    761.49457   -1907.0239    55.121303   -1851.9026 
 1244600    688.32276   -1911.5738    49.824712   -1861.7491 
 1244800    729.51219   -1908.2081    52.806237   -1855.4019 
 1245000    707.94454   -1904.5343    51.245048   -1853.2893 
 1245200    730.28705   -1913.2603    52.862325    -1860.398 
 1245400    738.70057   -1910.9945    53.471344   -1857.5231 
 1245600    737.16083   -1908.5928    53.359889   -1855.2329 
 1245800    719.82129   -1908.5485    52.104755   -1856.4437 
 1246000    718.25947   -1907.5291    51.991701   -1855.5374 
 1246200    720.32863   -1911.1991    52.141479   -1859.0576 
 1246400    724.10824     -1910.51    52.415068    -1858.095 
 1246600    737.03706   -1909.4002     53.35093   -1856.0492 
 1246800      704.528   -1909.1473    50.997739   -1858.1495 
 1247000    701.89714   -1907.5626    50.807303   -1856.7553 
 1247200    751.15674   -1906.7779    54.372992    -1852.405 
 1247400    710.62536   -1909.9438    51.439101   -1858.5047 
 1247600    775.37566   -1912.8363    56.126095   -1856.7102 
 1247800    762.89999   -1911.0515    55.223035   -1855.8285 
 1248000    715.72572   -1909.3778    51.808294   -1857.5695 
 1248200    742.53619   -1906.9194    53.748988   -1853.1704 
 1248400    791.20587   -1909.2335    57.271976   -1851.9615 
 1248600    718.51693   -1911.5579    52.010337   -1859.5475 
 1248800    728.50235    -1910.996    52.733139   -1858.2629 
 1249000    784.75698   -1909.3128    56.805169   -1852.5076 
 1249200    732.56526   -1911.1935    53.027236   -1858.1662 
 1249400    738.76802   -1912.7327    53.476226   -1859.2565 
 1249600    734.36589   -1909.3662    53.157575   -1856.2087 
 1249800    782.39215   -1910.2608    56.633989   -1853.6269 
 1250000     702.0973   -1907.9251    50.821791   -1857.1033 
 1250200     735.7985   -1913.1137    53.261276   -1859.8524 
 1250400    738.06764   -1910.6354    53.425529   -1857.2099 
 1250600    759.67473   -1908.7535    54.989573   -1853.7639 
 1250800    759.96692   -1911.0299    55.010723   -1856.0192 
 1251000    739.37803    -1913.615    53.520383   -1860.0946 
 1251200    720.37147    -1905.948    52.144579   -1853.8034 
 1251400    767.39606   -1907.9532    55.548487   -1852.4047 
 1251600    700.22641   -1913.2185    50.686366   -1862.5321 
 1251800    741.16291   -1910.3901    53.649582   -1856.7405 
 1252000    768.79068   -1907.1826    55.649437   -1851.5331 
 1252200     732.6911   -1910.7424    53.036345   -1857.7061 
 1252400    705.19299   -1909.5404    51.045875   -1858.4945 
 1252600    725.38255   -1906.6718     52.50731   -1854.1644 
 1252800    747.99666   -1911.6293    54.144248   -1857.4851 
 1253000    732.66529   -1912.1003    53.034476   -1859.0659 
 1253200    774.82481   -1909.8545    56.086221   -1853.7683 
 1253400    703.34958   -1908.2694    50.912439    -1857.357 
 1253600    720.74407   -1910.4943    52.171551   -1858.3228 
 1253800    735.71209   -1906.4046    53.255021   -1853.1495 
 1254000     709.1595   -1907.8736    51.332994   -1856.5406 
 1254200     735.5931   -1912.5938    53.246408   -1859.3474 
 1254400    737.68962   -1910.8491    53.398165   -1857.4509 
 1254600    737.28421   -1908.8801     53.36882   -1855.5113 
 1254800     739.8558   -1908.2677    53.554966   -1854.7128 
 1255000    706.89255   -1909.3921    51.168899   -1858.2232 
 1255200    727.87156   -1910.5055    52.687479    -1857.818 
 1255400    777.98733   -1908.0697    56.315143   -1851.7546 
 1255600    723.41688   -1910.0258    52.365023   -1857.6607 
 1255800    699.25919   -1909.6547    50.616353   -1859.0383 
 1256000    780.31447   -1905.5312    56.483595   -1849.0476 
 1256200     724.3254    -1909.478    52.430787   -1857.0472 
 1256400    747.92917   -1911.4095    54.139362   -1857.2701 
 1256600    766.59796   -1906.7868    55.490715   -1851.2961 
 1256800    725.50771   -1908.5873    52.516369   -1856.0709 
 1257000     775.9443   -1910.6584    56.167257   -1854.4911 
 1257200    767.16401   -1908.1508    55.531689   -1852.6191 
 1257400    765.49756   -1908.2005    55.411062   -1852.7895 
 1257600    766.53239   -1910.4677    55.485969   -1854.9818 
 1257800      726.683   -1910.4474    52.601444    -1857.846 
 1258000    738.87601   -1910.6982    53.484043   -1857.2142 
 1258200    748.75457   -1909.0731     54.19911    -1854.874 
 1258400    745.04392   -1908.7896    53.930511   -1854.8591 
 1258600    723.70597   -1907.8032    52.385949   -1855.4173 
 1258800    747.44023   -1908.8607     54.10397   -1854.7567 
 1259000    715.31959   -1908.5308    51.778896   -1856.7519 
 1259200    766.58785   -1908.7317    55.489984   -1853.2417 
 1259400    753.24838   -1909.5712    54.524397   -1855.0468 
 1259600    708.12454   -1905.5918    51.258077   -1854.3338 
 1259800    783.70064   -1907.9844    56.728705   -1851.2556 
 1260000    714.02379   -1911.0567    51.685098   -1859.3716 
 1260200    748.15576   -1907.9918    54.155764    -1853.836 
 1260400    776.96714   -1907.8632    56.241295   -1851.6219 
 1260600    735.75242   -1910.7448     53.25794   -1857.4868 
 1260800    727.23351    -1910.417    52.641293   -1857.7757 
 1261000    786.87242   -1907.7702    56.958296   -1850.8119 
 1261200    725.14866   -1905.6977     52.49038   -1853.2073 
 1261400    732.25795   -1908.7533     53.00499   -1855.7483 
 1261600    752.40807   -1908.7599    54.463571   -1854.2963 
 1261800    740.91741   -1906.5474    53.631811   -1852.9156 
 1262000    733.51321   -1910.4484    53.095853   -1857.3525 
 1262200    745.20384   -1910.5059    53.942088   -1856.5638 
 1262400    775.09063   -1911.1618    56.105463   -1855.0563 
 1262600    738.07348    -1909.584    53.425952   -1856.1581 
 1262800    804.77808   -1910.4527     58.25441   -1852.1983 
 1263000    686.90203   -1908.8212    49.721871   -1859.0993 
 1263200    765.28554   -1908.5218    55.395715   -1853.1261 
 1263400    738.82458   -1905.1656     53.48032   -1851.6852 
 1263600    692.80578   -1908.2501    50.149218   -1858.1008 
 1263800     767.5708   -1908.2709    55.561136   -1852.7098 
 1264000    746.25132   -1905.7602     54.01791   -1851.7423 
 1264200    698.62873   -1909.4042    50.570717   -1858.8335 
 1264400     758.4138   -1905.5398      54.8983   -1850.6415 
 1264600    719.65467   -1906.4904    52.092693   -1854.3977 
 1264800    691.24147   -1909.5452    50.035985   -1859.5093 
 1265000    780.38331   -1907.5153    56.488578   -1851.0267 
 1265200    733.72358   -1909.0319    53.111082   -1855.9208 
 1265400    697.47332   -1910.2778    50.487081   -1859.7907 
 1265600    778.95688    -1907.124    56.385324   -1850.7387 
 1265800     701.1022   -1901.7547     50.74976   -1851.0049 
 1266000    719.55359    -1906.663    52.085377   -1854.5777 
 1266200    733.87169   -1906.4548    53.121802    -1853.333 
 1266400    747.74114   -1906.6466    54.125752   -1852.5209 
 1266600    770.15422   -1905.7343    55.748138   -1849.9861 
 1266800    722.95266   -1909.1148    52.331421   -1856.7834 
 1267000    724.34915   -1907.7481    52.432507   -1855.3156 
 1267200     809.6588   -1906.6172    58.607703   -1848.0095 
 1267400    737.17216   -1909.9182    53.360709   -1856.5575 
 1267600    726.21851   -1909.1941    52.567822   -1856.6262 
 1267800    765.83773   -1906.5424    55.435686   -1851.1067 
 1268000    746.99908   -1908.0579    54.072037   -1853.9858 
 1268200    712.75667   -1908.0004    51.593377    -1856.407 
 1268400    748.94804    -1906.277    54.213114   -1852.0639 
 1268600    756.73593   -1906.1184    54.776846   -1851.3416 
 1268800    729.82869    -1911.174    52.829147   -1858.3448 
 1269000    732.03931   -1912.0858    52.989164   -1859.0967 
 1269200    743.55566   -1907.1599    53.822783   -1853.3371 
 1269400    767.29585   -1910.5416    55.541233   -1855.0004 
 1269600      722.563   -1909.8866    52.303215   -1857.5834 
 1269800     746.1487   -1909.9906    54.010482   -1855.9802 
 1270000    742.63145   -1908.7646    53.755884   -1855.0087 
 1270200    749.97571   -1910.6248    54.287503   -1856.3373 
 1270400    737.15191   -1908.4572    53.359243   -1855.0979 
 1270600    748.35507   -1909.7601    54.170192   -1855.5899 
 1270800    719.55561   -1908.3333    52.085523   -1856.2478 
 1271000    760.79444   -1908.8771    55.070624   -1853.8065 
 1271200    754.71316   -1911.6819    54.630426   -1857.0515 
 1271400    771.49017   -1911.0801    55.844842   -1855.2352 
 1271600    813.61716   -1910.4611    58.894233   -1851.5669 
 1271800    740.76061   -1910.4772    53.620461   -1856.8567 
 1272000    777.14279   -1908.6104     56.25401   -1852.3564 
 1272200    741.30782   -1909.4055    53.660072   -1855.7454 
 1272400    709.08631      -1909.4    51.327696   -1858.0723 
 1272600    804.95541   -1910.3464    58.267246   -1852.0791 
 1272800    747.94159    -1907.958    54.140262   -1853.8178 
 1273000    734.28522    -1910.293    53.151736   -1857.1412 
 1273200    757.92236   -1908.6016    54.862726   -1853.7388 
 1273400    723.05901   -1908.0494    52.339119   -1855.7102 
 1273600    730.46817   -1906.6185    52.875436   -1853.7431 
 1273800    723.03294   -1907.9283    52.337232    -1855.591 
 1274000    767.53592    -1910.317     55.55861   -1854.7584 
 1274200    736.36567   -1908.3069    53.302331   -1855.0045 
 1274400    752.22515   -1910.5618     54.45033   -1856.1114 
 1274600    741.01839   -1908.1282    53.639121    -1854.489 
 1274800    742.42577   -1907.3422    53.740995   -1853.6012 
 1275000    752.00539   -1909.2889    54.434422   -1854.8545 
 1275200    731.74344   -1908.0914    52.967747   -1855.1236 
 1275400    742.62591   -1907.4894    53.755482   -1853.7339 
 1275600    771.56644   -1908.9703    55.850363     -1853.12 
 1275800    724.86299   -1910.3022    52.469701   -1857.8325 
 1276000    724.14165   -1907.9581    52.417487   -1855.5406 
 1276200    750.77719   -1904.8546    54.345518   -1850.5091 
 1276400     710.7557   -1905.7723    51.448536   -1854.3238 
 1276600    737.85686   -1909.0717    53.410272   -1855.6614 
 1276800    776.79404   -1908.3239    56.228766   -1852.0952 
 1277000    753.36194   -1908.6344    54.532617   -1854.1018 
 1277200    760.73046   -1908.0422    55.065993   -1852.9762 
 1277400    731.64063    -1906.521    52.960305   -1853.5607 
 1277600    738.12775   -1907.4092     53.42988   -1853.9793 
 1277800    782.37594   -1906.8601    56.632815   -1850.2272 
 1278000    771.79386   -1908.7974    55.866825   -1852.9306 
 1278200    723.98869   -1909.3538    52.406415   -1856.9474 
 1278400    737.89023   -1907.0757    53.412687   -1853.6631 
 1278600    745.46807   -1903.8023    53.961214   -1849.8411 
 1278800    751.76739   -1908.0726    54.417195   -1853.6554 
 1279000    752.95431   -1910.5601    54.503111    -1856.057 
 1279200    758.33969   -1908.4173    54.892935   -1853.5244 
 1279400    719.22368   -1905.2745    52.061496    -1853.213 
 1279600    760.82902   -1906.2546    55.073127   -1851.1815 
 1279800    757.13853   -1909.0955    54.805989   -1854.2895 
 1280000    751.08663   -1910.8167    54.367917   -1856.4488 
 1280200    757.59637   -1904.5369    54.839129   -1849.6978 
 1280400    770.35764   -1908.7283    55.762863   -1852.9654 
 1280600    704.21988   -1906.9713    50.975436   -1855.9959 
 1280800    777.31357   -1908.6906    56.266372   -1852.4242 
 1281000    744.72833   -1908.8671    53.907667   -1854.9595 
 1281200      717.267   -1907.2706    51.919861   -1855.3507 
 1281400    771.72219   -1907.9815    55.861636   -1852.1199 
 1281600     757.1585   -1908.4364    54.807434    -1853.629 
 1281800     751.3308   -1909.4473    54.385592   -1855.0617 
 1282000    733.92226   -1906.5826    53.125463   -1853.4571 
 1282200    731.66958   -1905.8359    52.962401   -1852.8735 
 1282400    744.91127   -1905.8081     53.92091   -1851.8872 
 1282600    747.78621   -1904.9374    54.129014   -1850.8084 
 1282800    791.61858   -1908.4678     57.30185    -1851.166 
 1283000    725.01543   -1907.0866    52.480736   -1854.6059 
 1283200     760.5382   -1905.3631    55.052076    -1850.311 
 1283400    748.57352   -1906.0134    54.186004   -1851.8274 
 1283600    696.88866   -1908.1758     50.44476   -1857.7311 
 1283800    750.56939   -1905.8478    54.330477   -1851.5173 
 1284000    807.23862   -1907.4484    58.432518   -1849.0158 
 1284200    702.49919   -1909.5485    50.850883   -1858.6976 
 1284400     732.7635   -1908.4202    53.041585   -1855.3786 
 1284600    793.21639   -1905.8219    57.417509   -1848.4043 
 1284800     733.9303   -1908.8635    53.126045   -1855.7375 
 1285000    771.65131   -1909.7882    55.856506   -1853.9317 
 1285200    781.11198   -1909.2705    56.541323   -1852.7292 
 1285400    740.78698   -1909.8953     53.62237    -1856.273 
 1285600    787.06911   -1907.6431    56.972533   -1850.6706 
 1285800    737.87001   -1905.8424    53.411224   -1852.4312 
 1286000    776.68724   -1909.7347    56.221035   -1853.5136 
 1286200    747.04198   -1905.8564    54.075143   -1851.7813 
 1286400    738.40706    -1909.388    53.450098   -1855.9379 
 1286600    747.31245   -1907.8095    54.094721   -1853.7148 
 1286800    778.78989   -1903.7472    56.373237    -1847.374 
 1287000    744.11466   -1907.0115    53.863246   -1853.1482 
 1287200    733.49051   -1906.8668     53.09421   -1853.7726 
 1287400    764.79038   -1907.1978    55.359872    -1851.838 
 1287600    733.07094   -1907.7425    53.063839   -1854.6787 
 1287800    736.17367   -1908.6189    53.288433   -1855.3304 
 1288000    771.97759   -1909.1419    55.880124   -1853.2617 
 1288200    723.88794   -1907.8013    52.399121   -1855.4022 
 1288400    748.16615   -1905.9142    54.156517   -1851.7577 
 1288600     729.1079   -1905.3327    52.776972   -1852.5557 
 1288800    723.72668   -1909.6798    52.387448   -1857.2924 
 1289000     751.1986     -1907.67    54.376022    -1853.294 
 1289200      762.082   -1907.4643    55.163825   -1852.3004 
 1289400    750.57056   -1910.5886    54.330562   -1856.2581 
 1289600    733.70878   -1908.4128     53.11001   -1855.3028 
 1289800    743.39403   -1905.0839    53.811083   -1851.2729 
 1290000    763.32302   -1907.0135    55.253657   -1851.7599 
 1290200    719.76644   -1906.0562    52.100784   -1853.9555 
 1290400    738.14293   -1907.8064    53.430979   -1854.3754 
 1290600    758.76895   -1909.0956    54.924007   -1854.1716 
 1290800    790.08148    -1907.293    57.190586   -1850.1024 
 1291000    765.22343   -1909.7392     55.39122    -1854.348 
 1291200     708.6621   -1907.7754    51.296989   -1856.4784 
 1291400    759.74228   -1907.7369    54.994463   -1852.7424 
 1291600    717.77192     -1903.86     51.95641   -1851.9036 
 1291800    752.67038    -1907.797    54.482558   -1853.3144 
 1292000    754.27702   -1909.5716    54.598856   -1854.9727 
 1292200    750.45455   -1907.5233    54.322163   -1853.2011 
 1292400    748.45357   -1903.1007    54.177321   -1848.9234 
 1292600     723.6647   -1906.2284    52.382963   -1853.8454 
 1292800     699.0143    -1908.233    50.598626   -1857.6344 
 1293000    806.36261    -1908.685    58.369107   -1850.3159 
 1293200    728.63959   -1906.0268    52.743073   -1853.2838 
 1293400    749.75046   -1910.6985    54.271198   -1856.4273 
 1293600    730.94364   -1907.7871    52.909853   -1854.8772 
 1293800    808.77136   -1909.9566    58.543466   -1851.4132 
 1294000    747.82758   -1909.1949    54.132009   -1855.0629 
 1294200    754.69503    -1909.829    54.629114   -1855.1999 
 1294400    746.56355   -1906.9508    54.040511   -1852.9102 
 1294600    785.30072   -1905.9586    56.844528   -1849.1141 
 1294800    787.29799   -1910.2405    56.989102   -1853.2514 
 1295000    767.43314   -1912.3704     55.55117   -1856.8192 
 1295200    757.93482   -1909.8533    54.863628   -1854.9897 
 1295400    818.55799   -1908.4803    59.251878   -1849.2284 
 1295600    691.56069   -1911.0466    50.059092   -1860.9875 
 1295800    749.35531   -1907.5905    54.242595   -1853.3479 
 1296000    796.77142   -1902.1457    57.674842   -1844.4709 
 1296200    703.47774   -1910.4268    50.921715   -1859.5051 
 1296400    727.96576   -1906.4248    52.694297   -1853.7305 
 1296600    806.29895   -1901.7773    58.364499   -1843.4128 
 1296800    688.21153   -1905.9028     49.81666   -1856.0861 
 1297000    747.85798   -1910.8842     54.13421     -1856.75 
 1297200    796.08112   -1908.6588    57.624875   -1851.0339 
 1297400    733.52153   -1908.5926    53.096456   -1855.4962 
 1297600    788.09069   -1908.2821    57.046481   -1851.2356 
 1297800    761.57798   -1907.9522    55.127341   -1852.8249 
 1298000    733.84738   -1908.4071    53.120042    -1855.287 
 1298200    775.99877   -1907.0513    56.171199   -1850.8801 
 1298400     753.7009   -1909.5558    54.557153   -1854.9986 
 1298600    738.51481   -1908.4072    53.457898   -1854.9493 
 1298800    807.95898   -1910.7546    58.484661   -1852.2699 
 1299000    751.02109   -1910.8548    54.363173   -1856.4916 
 1299200    749.83829   -1907.8019    54.277555   -1853.5243 
 1299400     791.1888    -1907.128    57.270741   -1849.8573 
 1299600    726.62243   -1910.3551     52.59706    -1857.758 
 1299800    786.49507   -1911.3113    56.930982   -1854.3803 
 1300000    784.28345   -1904.9233    56.770892   -1848.1524 
 1300200    721.25054   -1907.6683    52.208212     -1855.46 
 1300400    735.22648   -1905.5447     53.21987   -1852.3249 
 1300600    776.77832   -1904.6737    56.227628    -1848.446 
 1300800    761.56933   -1908.4617    55.126715    -1853.335 
 1301000    779.55801   -1910.7875    56.428837   -1854.3587 
 1301200    750.90461   -1907.2781    54.354742   -1852.9233 
 1301400    787.17679   -1906.8162    56.980328   -1849.8359 
 1301600    775.40257   -1906.5621    56.128044    -1850.434 
 1301800    721.13475   -1909.4857     52.19983   -1857.2859 
 1302000    798.57495   -1908.1426    57.805392   -1850.3372 
 1302200    799.29728   -1906.9266    57.857678   -1849.0689 
 1302400    722.72688   -1906.7441    52.315078    -1854.429 
 1302600    806.93122   -1908.7029    58.410266   -1850.2926 
 1302800    764.45245     -1907.34    55.335412   -1852.0045 
 1303000    737.95579   -1908.9164    53.417433    -1855.499 
 1303200    762.61052   -1908.5751    55.202082    -1853.373 
 1303400    764.31198   -1905.8256    55.325243   -1850.5003 
 1303600    736.85492   -1907.0842    53.337745   -1853.7465 
 1303800    757.37595   -1906.8267    54.823174   -1852.0035 
 1304000    729.53769   -1905.5343    52.808082   -1852.7262 
 1304200    767.36565   -1909.1429    55.546286   -1853.5966 
 1304400    747.60234   -1904.8195    54.115705   -1850.7038 
 1304600    771.26681   -1902.3708    55.828674   -1846.5422 
 1304800     734.2068   -1909.4148    53.146059   -1856.2687 
 1305000    718.29362   -1907.2161    51.994173   -1855.2219 
 1305200    756.76515   -1901.1948    54.778961   -1846.4158 
 1305400    740.46906    -1907.631    53.599358   -1854.0316 
 1305600    724.78078   -1912.0291     52.46375   -1859.5653 
 1305800    811.87663   -1904.3909    58.768243   -1845.6226 
 1306000    728.85297   -1904.5008    52.758519   -1851.7423 
 1306200    734.34147   -1907.8268    53.155807    -1854.671 
 1306400    802.39727   -1908.6429    58.082073   -1850.5609 
 1306600    741.34341   -1909.0188    53.662648   -1855.3561 
 1306800    823.31048   -1911.7243     59.59589   -1852.1284 
 1307000    749.49604   -1908.6622    54.252782   -1854.4094 
 1307200    729.08651   -1907.1446    52.775424   -1854.3692 
 1307400    806.31702   -1908.6859    58.365807   -1850.3201 
 1307600    725.47451   -1904.4457    52.513966   -1851.9317 
 1307800    790.45401   -1905.2461    57.217552   -1848.0286 
 1308000    764.85971   -1908.8334    55.364891   -1853.4685 
 1308200    699.02329   -1908.4653    50.599277    -1857.866 
 1308400    802.08112   -1905.2484    58.059188   -1847.1892 
 1308600    763.75773   -1904.3877    55.285124   -1849.1026 
 1308800    740.51157   -1912.3366    53.602434   -1858.7342 
 1309000    786.02674   -1907.4575    56.897081   -1850.5605 
 1309200    796.18055   -1904.8416    57.632072   -1847.2095 
 1309400    723.86479   -1907.1128    52.397446   -1854.7153 
 1309600    749.34438   -1909.3401    54.241803   -1855.0983 
 1309800    750.65179   -1904.7526    54.336441   -1850.4161 
 1310000    760.12272   -1907.4307    55.022001   -1852.4087 
 1310200    744.20827   -1908.4111    53.870023   -1854.5411 
 1310400    767.95879   -1906.7927     55.58922   -1851.2034 
 1310600    750.04128   -1905.6124    54.292249   -1851.3201 
 1310800    753.56703    -1908.444    54.547463   -1853.8966 
 1311000    742.11379   -1906.6029    53.718412   -1852.8845 
 1311200    780.04443   -1908.6424    56.464048   -1852.1783 
 1311400    757.00515   -1911.7585    54.796333   -1856.9622 
 1311600    772.49467   -1912.4906    55.917553   -1856.5731 
 1311800    801.91428   -1910.7496    58.047112   -1852.7025 
 1312000    780.19162   -1910.5486    56.474702   -1854.0739 
 1312200    775.02639   -1910.0303    56.100813   -1853.9295 
 1312400    813.20695   -1909.0193    58.864539   -1850.1548 
 1312600    729.60433   -1907.2959    52.812907    -1854.483 
 1312800    720.25425   -1904.6981    52.136094    -1852.562 
 1313000    770.88468   -1905.4012    55.801013   -1849.6002 
 1313200    720.87231   -1905.6332    52.180833   -1853.4524 
 1313400    793.00885   -1906.9357    57.402486   -1849.5332 
 1313600    752.73373   -1907.1803    54.487143   -1852.6931 
 1313800    755.17486   -1910.3514    54.663847   -1855.6876 
 1314000    803.39429   -1905.0632    58.154243   -1846.9089 
 1314200      721.836   -1904.8982    52.250591   -1852.6476 
 1314400    726.35171   -1911.0801    52.577463   -1858.5026 
 1314600     753.4123   -1905.2769    54.536263   -1850.7406 
 1314800    782.54456   -1906.7625    56.645021   -1850.1175 
 1315000    743.33485   -1909.8392    53.806799   -1856.0324 
 1315200    787.66874   -1909.5722    57.015938   -1852.5563 
 1315400    754.62551   -1906.3533    54.624082   -1851.7293 
 1315600    755.88691   -1906.9577    54.715389   -1852.2423 
 1315800    752.89969   -1907.4709    54.499157   -1852.9718 
 1316000    762.98057   -1910.0004    55.228868   -1854.7715 
 1316200    773.79326   -1907.6176    56.011552    -1851.606 
 1316400    794.26749   -1907.4386    57.493593   -1849.9451 
 1316600    763.37066   -1910.7794    55.257106   -1855.5223 
 1316800    741.48231   -1908.6504    53.672702   -1854.9777 
 1317000    798.98118   -1907.8415    57.834797   -1850.0067 
 1317200     767.4585   -1909.7566    55.553006   -1854.2036 
 1317400     754.0609   -1908.4136    54.583212   -1853.8304 
 1317600    792.81944   -1907.6138    57.388775    -1850.225 
 1317800    758.47171   -1908.9829    54.902491   -1854.0804 
 1318000    789.06933   -1910.0291    57.117321   -1852.9118 
 1318200    783.63769    -1907.343    56.724148   -1850.6188 
 1318400    739.24678   -1908.3605    53.510882   -1854.8496 
 1318600    773.14517   -1905.7414    55.964639   -1849.7767 
 1318800    789.81423   -1908.9945    57.171241   -1851.8232 
 1319000    754.11848   -1907.6907     54.58738   -1853.1033 
 1319200    740.18308   -1904.6598    53.578657   -1851.0811 
 1319400    764.28387   -1903.0037    55.323209   -1847.6805 
 1319600    718.30269   -1903.9017     51.99483   -1851.9069 
 1319800     763.4262   -1906.6156    55.261125   -1851.3545 
 1320000     758.2839   -1905.8688    54.888897   -1850.9799 
 1320200    751.08193   -1907.0714    54.367577   -1852.7038 
 1320400    732.42009   -1907.3327    53.016727    -1854.316 
 1320600    756.31903   -1908.0611    54.746668   -1853.3145 
 1320800    776.44356   -1904.2291    56.203396   -1848.0257 
 1321000    810.47039   -1905.6889    58.666451   -1847.0224 
 1321200    747.03955   -1907.4059    54.074967   -1853.3309 
 1321400    739.38363   -1905.0195    53.520788   -1851.4988 
 1321600    807.17537   -1903.6849    58.427939    -1845.257 
 1321800     754.0614   -1904.2075    54.583248   -1849.6243 
 1322000    723.04221    -1907.596    52.337903   -1855.2581 
 1322200    774.16254   -1903.9632    56.038283   -1847.9249 
 1322400    804.74885   -1908.2957    58.252294   -1850.0434 
 1322600    782.02294   -1912.5872    56.607263   -1855.9799 
 1322800     762.7876   -1907.8329      55.2149    -1852.618 
 1323000    785.28641   -1903.4458    56.843491   -1846.6023 
 1323200    773.57402   -1910.0513    55.995682   -1854.0557 
 1323400     715.0894   -1908.5996    51.762233   -1856.8374 
 1323600    811.79201   -1905.9372    58.762118   -1847.1751 
 1323800    743.13836   -1905.5342    53.792576   -1851.7417 
 1324000    761.73653   -1909.1381    55.138818   -1853.9993 
 1324200    766.96385   -1907.1145    55.517201   -1851.5973 
 1324400    784.90734   -1905.8496    56.816053   -1849.0336 
 1324600    777.67562   -1910.5591    56.292579   -1854.2665 
 1324800    750.22709   -1909.9729    54.305699   -1855.6672 
 1325000    823.74361   -1904.9032    59.627242    -1845.276 
 1325200     740.0647   -1904.8581    53.570087    -1851.288 
 1325400    750.59314   -1908.8524    54.332196   -1854.5202 
 1325600    798.38021   -1905.5492    57.791295   -1847.7579 
 1325800    741.67882   -1902.5742    53.686927   -1848.8873 
 1326000    768.08348    -1906.234    55.598246   -1850.6358 
 1326200    747.95338   -1906.3789    54.141115   -1852.2378 
 1326400    739.50363   -1903.4638    53.529474   -1849.9343 
 1326600    748.91788   -1903.8414    54.210931   -1849.6305 
 1326800    819.48827   -1907.8786    59.319217   -1848.5594 
 1327000    737.09191   -1904.7182      53.3549   -1851.3633 
 1327200    762.29934    -1902.513    55.179557   -1847.3335 
 1327400    764.81595   -1904.5025    55.361724   -1849.1408 
 1327600    741.08226    -1905.304    53.643744   -1851.6603 
 1327800    800.78365   -1906.3529     57.96527   -1848.3876 
 1328000    770.95231   -1905.8524    55.805908   -1850.0465 
 1328200    725.54256   -1906.4398    52.518893   -1853.9209 
 1328400    795.06699   -1905.0848    57.551466   -1847.5333 
 1328600    743.22648   -1903.8605    53.798955   -1850.0616 
 1328800    735.28601   -1907.7075    53.224179   -1854.4834 
 1329000    763.06914   -1904.8706    55.235279   -1849.6353 
 1329200    791.49463   -1908.3489    57.292878   -1851.0561 
 1329400    774.83307   -1910.1261    56.086819   -1854.0392 
 1329600    791.52103    -1909.336    57.294789   -1852.0412 
 1329800    754.75378   -1907.1836    54.633366   -1852.5503 
 1330000    762.26766   -1905.9231    55.177264   -1850.7458 
 1330200    793.50066   -1906.4977    57.438086   -1849.0596 
 1330400    748.87652   -1911.2483    54.207937   -1857.0403 
 1330600    774.54612   -1907.9899    56.066048   -1851.9238 
 1330800     833.6719    -1907.196    60.345908   -1846.8501 
 1331000    723.32126   -1907.7583    52.358102   -1855.4002 
 1331200    771.59623   -1908.5682    55.852519   -1852.7157 
 1331400    799.93781   -1908.2895    57.904043   -1850.3855 
 1331600    738.28916   -1907.3708    53.441564   -1853.9292 
 1331800    790.41788   -1907.2294    57.214937   -1850.0144 
 1332000    769.69066      -1908.4    55.714582   -1852.6854 
 1332200    737.42195    -1907.798     53.37879   -1854.4192 
 1332400    804.70335   -1906.1419       58.249   -1847.8929 
 1332600    763.63381   -1907.8889    55.276153   -1852.6127 
 1332800    794.70032   -1908.9289    57.524924   -1851.4039 
 1333000    760.11767   -1906.7042    55.021635   -1851.6826 
 1333200    734.73699   -1905.3142    53.184437   -1852.1298 
 1333400    797.82588   -1907.4219     57.75117   -1849.6707 
 1333600    738.81472   -1904.2435    53.479607   -1850.7639 
 1333800     795.5448   -1907.5122    57.586052   -1849.9261 
 1334000    814.08832   -1910.1934    58.928337   -1851.2651 
 1334200    792.14881   -1908.3981    57.340231   -1851.0579 
 1334400     744.5868   -1906.5126    53.897423   -1852.6151 
 1334600    785.83029   -1905.3893    56.882861   -1848.5064 
 1334800    791.79026   -1907.1709    57.314277   -1849.8566 
 1335000      702.678   -1910.1151    50.863826   -1859.2513 
 1335200    814.06764   -1905.7567    58.926841   -1846.8299 
 1335400    770.87055   -1903.0046     55.79999   -1847.2047 
 1335600    745.45355   -1909.0394    53.960163   -1855.0793 
 1335800    781.17915   -1905.3463    56.546185   -1848.8001 
 1336000    769.09351   -1903.7668    55.671358   -1848.0954 
 1336200    800.30623   -1907.9932    57.930712   -1850.0625 
 1336400    753.43413   -1908.2991    54.537843   -1853.7613 
 1336600    785.34137   -1904.1965     56.84747   -1847.3491 
 1336800    787.92741   -1901.7464    57.034663   -1844.7117 
 1337000    770.89285   -1908.4817    55.801604   -1852.6801 
 1337200    743.43897   -1906.9942    53.814336   -1853.1799 
 1337400    763.16861   -1899.9994     55.24248    -1844.757 
 1337600    745.59561   -1903.5027    53.970446   -1849.5322 
 1337800    765.16527   -1906.1683    55.387009   -1850.7813 
 1338000     835.3819   -1907.5128    60.469688   -1847.0432 
 1338200    778.11425   -1907.5037     56.32433   -1851.1794 
 1338400    785.20817   -1908.6496    56.837829   -1851.8118 
 1338600    769.66327   -1905.7102      55.7126   -1849.9976 
 1338800    768.91483   -1906.1338    55.658423   -1850.4753 
 1339000    773.02612   -1905.3441    55.956022   -1849.3881 
 1339200    762.22506   -1906.3991     55.17418   -1851.2249 
 1339400    759.43387   -1907.3137    54.972138   -1852.3415 
 1339600    763.76897   -1904.0547    55.285937   -1848.7688 
 1339800    799.52428   -1909.5937     57.87411   -1851.7196 
 1340000     763.8969   -1909.6096    55.295197   -1854.3144 
 1340200    781.46471   -1903.9472    56.566855   -1847.3804 
 1340400    764.82707   -1904.6078    55.362529   -1849.2453 
 1340600    749.93422   -1907.4721    54.284499   -1853.1876 
 1340800    768.15698   -1907.3908    55.603566   -1851.7873 
 1341000    769.06224   -1903.9777    55.669094   -1848.3086 
 1341200    781.72457   -1904.1183    56.585665   -1847.5327 
 1341400    744.52837   -1908.1011    53.893193   -1854.2079 
 1341600    749.69056   -1902.8905    54.266862   -1848.6237 
 1341800     757.5442   -1901.9478    54.835353   -1847.1124 
 1342000     752.5032   -1907.0557    54.470457   -1852.5852 
 1342200    799.29864   -1907.9879    57.857777   -1850.1301 
 1342400    785.38757   -1903.6635    56.850814   -1846.8127 
 1342600    767.49067   -1903.9869    55.555335   -1848.4316 
 1342800    731.92103   -1902.0533    52.980602   -1849.0727 
 1343000    799.82445   -1903.9129    57.895838   -1846.0171 
 1343200    795.06898    -1906.008     57.55161   -1848.4564 
 1343400    725.34458   -1907.2484    52.504562   -1854.7439 
 1343600    777.86551   -1907.0955    56.306325   -1850.7891 
 1343800    784.04689   -1905.0975    56.753768   -1848.3437 
 1344000    764.68253   -1905.3826    55.352065   -1850.0305 
 1344200    808.34164    -1906.063     58.51236   -1847.5506 
 1344400    770.04624    -1907.375    55.740322   -1851.6347 
 1344600    772.73429   -1906.2557    55.934898   -1850.3208 
 1344800    781.36916   -1901.5606    56.559939   -1845.0006 
 1345000    766.27478   -1905.3888    55.467322   -1849.9215 
 1345200    719.47884   -1904.1574    52.079966   -1852.0774 
 1345400    781.02353   -1902.5881     56.53492   -1846.0531 
 1345600     789.7206   -1904.9053    57.164464   -1847.7408 
 1345800    748.91758   -1906.2189    54.210909    -1852.008 
 1346000    788.17097   -1905.3889    57.052292   -1848.3367 
 1346200     764.6152    -1904.496    55.347192   -1849.1488 
 1346400     772.3834   -1906.4882    55.909498   -1850.5787 
 1346600    778.65329   -1906.1873    56.363349   -1849.8239 
 1346800    789.31816   -1908.0066    57.135333   -1850.8713 
 1347000    772.72815   -1907.6348    55.934454   -1851.7004 
 1347200    784.30243   -1905.2086    56.772265   -1848.4363 
 1347400    761.67506   -1905.0132    55.134368   -1849.8788 
 1347600    739.76511   -1905.1764    53.548401    -1851.628 
 1347800    785.71606   -1908.1067    56.874592   -1851.2321 
 1348000    725.14248   -1907.6479    52.489932    -1855.158 
 1348200    806.47233   -1905.7707    58.377049   -1847.3937 
 1348400    783.71906   -1906.2645    56.730038   -1849.5345 
 1348600    753.89068   -1908.6831     54.57089   -1854.1122 
 1348800    794.22202   -1904.0262    57.490302   -1846.5359 
 1349000    768.11519    -1904.901    55.600542   -1849.3004 
 1349200    769.14943   -1910.8329    55.675406   -1855.1575 
 1349400    776.45724   -1904.7539    56.204386   -1848.5495 
 1349600    784.44093   -1902.2704    56.782291   -1845.4881 
 1349800    761.54395   -1905.7683    55.124877   -1850.6434 
 1350000    762.72002   -1908.7996    55.210008   -1853.5896 
 1350200    778.48004   -1907.7555    56.350808   -1851.4047 
 1350400    772.30135   -1903.9833    55.903559   -1848.0797 
 1350600    814.91611   -1908.2591    58.988258   -1849.2708 
 1350800    780.49092   -1907.5791    56.496367   -1851.0827 
 1351000    779.01673   -1907.7634    56.389656   -1851.3737 
 1351200    733.30395   -1905.2226    53.080706   -1852.1419 
 1351400    794.20681   -1902.2073    57.489201   -1844.7181 
 1351600    767.67821   -1905.9835     55.56891   -1850.4146 
 1351800     759.9781   -1908.9834    55.011532   -1853.9719 
 1352000    802.96991   -1901.8942    58.123524   -1843.7707 
 1352200    801.80642   -1904.6392    58.039304   -1846.5999 
 1352400    759.84759   -1910.2042    55.002085   -1855.2021 
 1352600    823.06864   -1907.6739    59.578384   -1848.0955 
 1352800    777.65148   -1904.1951    56.290832   -1847.9043 
 1353000    771.40972   -1907.0668    55.839018   -1851.2278 
 1353200    805.07408   -1904.5925    58.275836   -1846.3167 
 1353400    753.26942   -1905.6361     54.52592   -1851.1102 
 1353600    766.91499   -1906.3047    55.513664   -1850.7911 
 1353800    786.12728    -1904.681    56.904359   -1847.7767 
 1354000    778.68635    -1906.275    56.365742   -1849.9092 
 1354200     770.3357   -1905.0818    55.761274   -1849.3205 
 1354400    748.93303   -1907.0643    54.212028   -1852.8523 
 1354600    796.28608   -1904.2736     57.63971   -1846.6339 
 1354800    806.07118   -1905.2912    58.348011   -1846.9432 
 1355000    753.21164   -1910.7855    54.521738   -1856.2638 
 1355200     754.7893   -1906.3167    54.635938   -1851.6808 
 1355400    783.62651   -1901.3036    56.723339   -1844.5803 
 1355600    802.34803   -1907.7259    58.078509   -1849.6474 
 1355800    750.64004   -1909.6473    54.335591   -1855.3117 
 1356000    774.87787   -1903.8642    56.090063   -1847.7741 
 1356200    762.76008    -1902.264    55.212908   -1847.0511 
 1356400     780.9947   -1909.4068    56.532833   -1852.8739 
 1356600    771.57197   -1904.1535    55.850762   -1848.3027 
 1356800    759.11686   -1901.1376    54.949191   -1846.1884 
 1357000    776.75324   -1906.9777    56.225812   -1850.7519 
 1357200    780.16882   -1906.8046    56.473051   -1850.3315 
 1357400    776.67372   -1905.0585    56.220056   -1848.8384 
 1357600    757.47493   -1901.2218    54.830339   -1846.3915 
 1357800    775.14219   -1904.1709    56.109196   -1848.0617 
 1358000    782.53966   -1906.2981    56.644666   -1849.6534 
 1358200    783.45202   -1904.4973    56.710708   -1847.7866 
 1358400     753.5424    -1904.317     54.54568   -1849.7713 
 1358600    789.52426    -1904.594    57.150251   -1847.4438 
 1358800    785.34762   -1907.4572    56.847923   -1850.6093 
 1359000    728.71827   -1904.2723    52.748769   -1851.5235 
 1359200    814.62842   -1904.3575    58.967433   -1845.3901 
 1359400    779.90406   -1904.7693    56.453887   -1848.3155 
 1359600    786.33423   -1908.7822    56.919339   -1851.8628 
 1359800    777.03915   -1906.7305    56.246508    -1850.484 
 1360000    790.94926   -1902.4841    57.253401   -1845.2307 
 1360200    779.09108   -1903.4891    56.395039   -1847.0941 
 1360400    734.68508    -1906.929     53.18068   -1853.7483 
 1360600    744.87631   -1905.3764    53.918379   -1851.4581 
 1360800    829.82442   -1905.0286    60.067406   -1844.9612 
 1361000    771.35119     -1907.43    55.834781   -1851.5953 
 1361200    769.82251    -1907.441    55.724126   -1851.7168 
 1361400    823.23297   -1902.9602    59.590279   -1843.3699 
 1361600    781.29284   -1904.9664    56.554414    -1848.412 
 1361800    732.11959   -1905.7325    52.994975   -1852.7375 
 1362000     808.2375   -1906.2858    58.504822    -1847.781 
 1362200    795.97427   -1904.3929     57.61714   -1846.7757 
 1362400    764.46972   -1906.1591    55.336661   -1850.8224 
 1362600     767.0321   -1905.5142    55.522141   -1849.9921 
 1362800    777.05321   -1903.3064    56.247526   -1847.0588 
 1363000    797.08453   -1906.6641    57.697507   -1848.9666 
 1363200    758.90438   -1908.6582    54.933811   -1853.7244 
 1363400    801.41423   -1906.8705    58.010915   -1848.8596 
 1363600    819.85475   -1906.6096    59.345744   -1847.2638 
 1363800    764.60786   -1907.4583    55.346661   -1852.1117 
 1364000    759.92361   -1901.7589    55.007588   -1846.7513 
 1364200    810.92398   -1905.3565    58.699284   -1846.6572 
 1364400    734.67448   -1908.2337    53.179913   -1855.0538 
 1364600    765.97417   -1905.4097    55.445562   -1849.9641 
 1364800    753.27369   -1900.2963    54.526229   -1845.7701 
 1365000    740.97741   -1906.3591    53.636155    -1852.723 
 1365200    780.93051   -1909.9962    56.528187    -1853.468 
 1365400    751.61721   -1905.4438    54.406324   -1851.0375 
 1365600    800.82424     -1904.17    57.968208   -1846.2018 
 1365800    806.99266   -1904.3867    58.414713    -1845.972 
 1366000    726.44364   -1906.2523    52.584117   -1853.6682 
 1366200    796.09281   -1904.7233     57.62572   -1847.0976 
 1366400    823.89194   -1901.7558    59.637979   -1842.1178 
 1366600    753.29403   -1907.6828    54.527702   -1853.1551 
 1366800    771.19592   -1905.4643    55.823542   -1849.6407 
 1367000    796.53762   -1904.1425    57.657918   -1846.4846 
 1367200    749.42427   -1905.3524    54.247586   -1851.1048 
 1367400    789.17493   -1907.8457    57.124965   -1850.7208 
 1367600    795.16631    -1906.296    57.558655   -1848.7373 
 1367800    776.73062   -1905.5211    56.224175    -1849.297 
 1368000    766.62837   -1904.2459    55.492917    -1848.753 
 1368200     812.6128   -1907.0975    58.821531   -1848.2759 
 1368400    753.99498   -1904.2167     54.57844   -1849.6383 
 1368600    810.67103   -1909.2877    58.680975   -1850.6067 
 1368800    742.35093   -1905.9449    53.735578   -1852.2093 
 1369000    827.59776   -1907.4102    59.906228    -1847.504 
 1369200    795.06386   -1907.4839    57.551239   -1849.9326 
 1369400    752.34321   -1907.7994    54.458876   -1853.3405 
 1369600    785.36879    -1904.222    56.849455   -1847.3725 
 1369800    793.32176   -1906.4007    57.425136   -1848.9756 
 1370000    746.82042   -1904.9063    54.059105   -1850.8472 
 1370200    780.83296   -1905.1403    56.521126   -1848.6192 
 1370400    817.84498   -1903.4395    59.200266   -1844.2392 
 1370600    764.82187    -1905.438    55.362152   -1850.0759 
 1370800    745.37677   -1906.7413    53.954605   -1852.7866 
 1371000    802.61936   -1900.8271    58.098149    -1842.729 
 1371200    780.74323   -1902.6502     56.51463   -1846.1355 
 1371400    752.79271   -1909.2006    54.491413   -1854.7092 
 1371600    760.93153   -1905.3507    55.080547   -1850.2701 
 1371800    767.46762    -1903.766    55.553667   -1848.2123 
 1372000    814.72127   -1908.8133    58.974154   -1849.8391 
 1372200    779.23392   -1908.1546    56.405378   -1851.7492 
 1372400    723.90776   -1904.7359    52.400557   -1852.3353 
 1372600    796.55402   -1904.2936    57.659105   -1846.6345 
 1372800    745.70454   -1903.9937    53.978331   -1850.0153 
 1373000    776.63534   -1908.7649    56.217278   -1852.5476 
 1373200    785.54978    -1903.979    56.862556   -1847.1165 
 1373400    783.36259   -1902.9838    56.704235   -1846.2796 
 1373600    747.65461   -1905.4678    54.119488   -1851.3483 
 1373800     776.8325    -1904.966    56.231549   -1848.7344 
 1374000    862.83992   -1907.3054    62.457255   -1844.8481 
 1374200    790.37595   -1907.1334    57.211901   -1849.9215 
 1374400    811.78239   -1908.3243    58.761421   -1849.5629 
 1374600    747.13998   -1906.8259    54.082236   -1852.7436 
 1374800    776.64209   -1902.9732    56.217767   -1846.7555 
 1375000    824.04959   -1904.2301    59.649391   -1844.5807 
 1375200    755.59972   -1909.1347      54.6946   -1854.4401 
 1375400    796.27241   -1909.1922    57.638721   -1851.5534 
 1375600    792.68964   -1903.7617     57.37938   -1846.3823 
 1375800    772.49858   -1903.8649    55.917836   -1847.9471 
 1376000    745.33061   -1907.3612    53.951264   -1853.4099 
 1376200    779.91939   -1904.5828    56.454996   -1848.1278 
 1376400     757.1601   -1896.9282     54.80755   -1842.1207 
 1376600    769.26735   -1906.7845    55.683941   -1851.1005 
 1376800    769.09024   -1910.1814    55.671121   -1854.5102 
 1377000    733.76227    -1901.739    53.113882   -1848.6251 
 1377200    811.28574   -1907.0467    58.725471   -1848.3213 
 1377400    747.27448   -1908.7536    54.091972   -1854.6616 
 1377600    782.83295   -1908.5127    56.665896   -1851.8468 
 1377800    812.27641   -1906.6977    58.797181   -1847.9006 
 1378000    776.47613   -1906.8449    56.205754   -1850.6391 
 1378200    803.02505   -1908.3065    58.127516    -1850.179 
 1378400    752.87058   -1905.6725     54.49705   -1851.1755 
 1378600    813.07895   -1905.1412    58.855274   -1846.2859 
 1378800    762.76072    -1906.417    55.212954    -1851.204 
 1379000    788.82041    -1905.135    57.099303   -1848.0357 
 1379200     800.6478   -1905.3868    57.955436   -1847.4314 
 1379400    781.36802   -1907.9185    56.559856   -1851.3587 
 1379600    781.64269   -1904.3502    56.579739   -1847.7704 
 1379800    805.63988   -1901.5924    58.316792   -1843.2756 
 1380000     777.9848   -1907.3062     56.31496   -1850.9913 
 1380200    771.36156   -1910.5421    55.835532   -1854.7066 
 1380400    810.76184    -1904.255    58.687548   -1845.5674 
 1380600     810.8985   -1904.1804     58.69744    -1845.483 
 1380800    765.14199   -1908.6488    55.385324   -1853.2635 
 1381000    784.94687   -1902.4454    56.818914   -1845.6265 
 1381200    819.26361    -1901.866    59.302955   -1842.5631 
 1381400    765.05515   -1905.5005    55.379038   -1850.1214 
 1381600    818.23299   -1905.7864    59.228352    -1846.558 
 1381800    788.45073   -1904.7584    57.072543   -1847.6859 
 1382000    764.57121    -1904.681    55.344008    -1849.337 
 1382200    787.65799    -1906.146     57.01516   -1849.1308 
 1382400    794.40642   -1909.1759     57.50365   -1851.6723 
 1382600    834.52458   -1906.3524     60.40763   -1845.9448 
 1382800    759.72696   -1906.0605    54.993353   -1851.0671 
 1383000    763.74459   -1905.3277    55.284172   -1850.0435 
 1383200    787.89329   -1903.3397    57.032192   -1846.3075 
 1383400     760.0605   -1903.7338    55.017497   -1848.7163 
 1383600    777.48329    -1907.634    56.278658   -1851.3553 
 1383800    773.23472   -1902.7242    55.971122   -1846.7531 
 1384000    753.06774    -1902.942    54.511321   -1848.4306 
 1384200    749.54411     -1906.33    54.256261   -1852.0737 
 1384400    798.24994   -1907.6866    57.781865   -1849.9047 
 1384600    798.86973   -1904.9734     57.82673   -1847.1467 
 1384800    759.24182    -1905.617    54.958236   -1850.6588 
 1385000    786.71618   -1908.8746    56.946987   -1851.9276 
 1385200    801.42273   -1906.7055     58.01153    -1848.694 
 1385400    767.82171    -1903.204    55.579298   -1847.6247 
 1385600    787.73844   -1908.4101    57.020983   -1851.3891 
 1385800    786.57803   -1909.3332    56.936986   -1852.3963 
 1386000    783.35603   -1906.0421     56.70376   -1849.3383 
 1386200     805.0927   -1906.7483    58.277183   -1848.4711 
 1386400    782.54254   -1910.0983    56.644874   -1853.4534 
 1386600    780.40728   -1908.7809    56.490313   -1852.2906 
 1386800       805.42   -1900.5909    58.300876   -1842.2901 
 1387000    752.83232   -1906.9638     54.49428   -1852.4695 
 1387200     732.6079   -1910.3107    53.030322   -1857.2804 
 1387400    849.64022   -1904.5084    61.501786   -1843.0066 
 1387600    823.57205   -1906.2089    59.614824    -1846.594 
 1387800    781.01972   -1911.8612    56.534645   -1855.3266 
 1388000    793.92012   -1907.7082    57.468449   -1850.2398 
 1388200    780.79003     -1905.87    56.518019    -1849.352 
 1388400    753.01109   -1906.1714    54.507221   -1851.6642 
 1388600    778.39887    -1903.442    56.344932   -1847.0971 
 1388800    822.35793   -1904.6441    59.526939   -1845.1171 
 1389000    732.72876   -1906.0727    53.039071   -1853.0336 
 1389200    795.03752   -1907.6187    57.549333   -1850.0693 
 1389400    795.08001   -1903.4305    57.552408   -1845.8781 
 1389600    818.86635   -1909.4045    59.274198   -1850.1303 
 1389800    751.23066   -1907.3149    54.378343   -1852.9365 
 1390000    838.12988   -1908.0347    60.668602   -1847.3661 
 1390200     781.7633    -1905.236    56.588469   -1848.6475 
 1390400    766.60148   -1906.5694    55.490971   -1851.0784 
 1390600    772.72219   -1909.0308    55.934022   -1853.0968 
 1390800    785.24959   -1907.6639    56.840826   -1850.8231 
 1391000     792.2259   -1904.8784    57.345812   -1847.5325 
 1391200    755.16111   -1906.0956    54.662851   -1851.4328 
 1391400    779.04454   -1905.1193     56.39167   -1848.7276 
 1391600    775.55206   -1902.9663    56.138864   -1846.8275 
 1391800    764.65563   -1905.7926    55.350118   -1850.4425 
 1392000    783.30583   -1907.0414    56.700126   -1850.3413 
 1392200    776.35604   -1905.1963    56.197061   -1848.9993 
 1392400    778.70141   -1904.9106    56.366832   -1848.5438 
 1392600     801.0279   -1907.2905     57.98295   -1849.3076 
 1392800    770.00874   -1908.6165    55.737607   -1852.8789 
 1393000    773.48411   -1905.3849    55.989175   -1849.3957 
 1393200    818.95137   -1908.3218    59.280353   -1849.0415 
 1393400    769.07547   -1905.9328    55.670052   -1850.2628 
 1393600    804.93416   -1905.2224    58.265707   -1846.9567 
 1393800    766.00355   -1905.0946    55.447689   -1849.6469 
 1394000     736.8734   -1905.6682    53.339083   -1852.3292 
 1394200    831.73208   -1906.8934    60.205493   -1846.6879 
 1394400    739.29444   -1903.4817    53.514332   -1849.9674 
 1394600    819.42474   -1905.3847    59.314618   -1846.0701 
 1394800    794.58924   -1907.3386    57.516884   -1849.8217 
 1395000    790.47951   -1906.5623    57.219398   -1849.3429 
 1395200    816.02259   -1904.5571    59.068351   -1845.4887 
 1395400    787.28106   -1905.4218    56.987875   -1848.4339 
 1395600    763.54377   -1902.5729    55.269636   -1847.3033 
 1395800    798.99901   -1905.0458    57.836088   -1847.2097 
 1396000    761.40447   -1903.9589    55.114781   -1848.8441 
 1396200    799.68647   -1905.1276     57.88585   -1847.2417 
 1396400    772.58049   -1907.2282    55.923765   -1851.3045 
 1396600    821.47383   -1906.4283    59.462943   -1846.9653 
 1396800    798.95244   -1901.5461    57.832717   -1843.7133 
 1397000     772.0289    -1905.334    55.883838   -1849.4502 
 1397200    800.74626   -1907.5307    57.962563   -1849.5681 
 1397400    807.30246     -1906.35    58.437138   -1847.9129 
 1397600    798.32176   -1906.4556    57.787065   -1848.6685 
 1397800    785.08111    -1905.869    56.828631   -1849.0404 
 1398000    826.59139   -1906.8039    59.833381   -1846.9705 
 1398200    764.11611   -1907.5151    55.311065   -1852.2041 
 1398400    836.95061   -1903.5453     60.58324   -1842.9621 
 1398600    809.23128   -1906.5606    58.576757   -1847.9838 
 1398800    737.16986   -1909.6399    53.360542   -1856.2794 
 1399000    816.07151   -1904.3303    59.071892   -1845.2584 
 1399200    767.58277   -1900.1086    55.562001   -1844.5466 
 1399400     753.4162   -1907.0441    54.536545   -1852.5076 
 1399600    797.12798   -1907.8581    57.700652   -1850.1574 
 1399800    809.29095   -1906.1326    58.581076   -1847.5516 
 1400000    833.59873   -1910.4174    60.340612   -1850.0768 
 1400200    798.22365   -1908.9869    57.779963   -1851.2069 
 1400400    764.87919   -1904.1901    55.366301   -1848.8238 
 1400600    762.94436   -1902.7374    55.226247   -1847.5111 
 1400800    780.82244   -1906.6396    56.520364   -1850.1193 
 1401000    805.80949   -1907.6762    58.329069   -1849.3472 
 1401200     841.1082   -1904.6284     60.88419   -1843.7442 
 1401400    767.89719   -1906.1173    55.584761   -1850.5325 
 1401600    822.89468   -1908.3738    59.565792    -1848.808 
 1401800    790.56144   -1904.3974    57.225328   -1847.1721 
 1402000    808.54125   -1910.1052    58.526809   -1851.5784 
 1402200     802.7242   -1908.0192    58.105738   -1849.9135 
 1402400    781.35006   -1906.1656    56.558557    -1849.607 
 1402600    789.33279   -1902.5646    57.136392   -1845.4283 
 1402800    791.49911   -1904.5113    57.293203    -1847.218 
 1403000     743.5734    -1909.065    53.824067   -1855.2409 
 1403200    773.67429   -1901.5054    56.002941   -1845.5025 
 1403400    791.11726   -1900.6935    57.265562   -1843.4279 
 1403600    802.56406   -1910.1099    58.094146   -1852.0158 
 1403800    751.80368    -1904.508    54.419822   -1850.0882 
 1404000    832.26687   -1901.5201    60.244204   -1841.2759 
 1404200    773.54935   -1908.1209    55.993896    -1852.127 
 1404400    758.81345   -1906.9325    54.927228   -1852.0053 
 1404600    816.93649   -1903.7957    59.134504   -1844.6612 
 1404800    778.67122   -1904.5538    56.364647   -1848.1891 
 1405000    789.46005   -1904.2287    57.145604   -1847.0831 
 1405200      768.415   -1904.7147    55.622243   -1849.0924 
 1405400    786.03062   -1904.6534    56.897362    -1847.756 
 1405600    803.49459   -1903.6742    58.161503   -1845.5127 
 1405800    755.28898   -1906.7861    54.672107    -1852.114 
 1406000    796.01771   -1905.3421    57.620284   -1847.7218 
 1406200    830.52352   -1902.5827    60.118011   -1842.4647 
 1406400      761.528   -1905.0322    55.123723   -1849.9084 
 1406600    770.74592   -1904.0708    55.790968   -1848.2799 
 1406800    756.13552   -1904.6159    54.733385   -1849.8825 
 1407000    784.39647    -1903.627    56.779073   -1846.8479 
 1407200    824.02341    -1907.555    59.647496   -1847.9075 
 1407400    753.11616   -1907.7155    54.514826   -1853.2007 
 1407600    799.71151   -1904.6486    57.887662    -1846.761 
 1407800    828.81841   -1907.3776    59.994585    -1847.383 
 1408000    724.61167   -1904.1773     52.45151   -1851.7258 
 1408200    847.96403   -1903.8388    61.380454   -1842.4583 
 1408400    769.91054   -1903.9396    55.730499   -1848.2091 
 1408600    771.69259    -1910.095    55.859494   -1854.2355 
 1408800    809.93291   -1903.1659    58.627545   -1844.5383 
 1409000    849.42431   -1904.8084    61.486158   -1843.3223 
 1409200    766.44177   -1906.9304     55.47941    -1851.451 
 1409400     802.4985   -1908.8014      58.0894    -1850.712 
 1409600    833.33672   -1903.6234    60.321646   -1843.3018 
 1409800    823.41778   -1902.6798    59.603657   -1843.0761 
 1410000    778.90339   -1907.9302    56.381453   -1851.5487 
 1410200      804.114   -1906.5025    58.206339   -1848.2961 
 1410400    777.94114    -1900.828    56.311799   -1844.5162 
 1410600     797.9195   -1903.3872    57.757947   -1845.6293 
 1410800    794.05681    -1910.048    57.478343   -1852.5696 
 1411000    776.46544   -1905.6446     56.20498   -1849.4396 
 1411200    826.51116   -1902.7483    59.827573   -1842.9208 
 1411400    756.05319   -1904.8404    54.727425   -1850.1129 
 1411600    765.80235    -1907.923    55.433125   -1852.4899 
 1411800     816.2453   -1901.6877    59.084472   -1842.6032 
 1412000    797.00486   -1905.2991     57.69174   -1847.6074 
 1412200    776.42218   -1906.8024    56.201849   -1850.6006 
 1412400    782.81923   -1902.4744    56.664904   -1845.8095 
 1412600    763.40265     -1902.54    55.259421   -1847.2806 
 1412800    802.62253   -1906.7806    58.098379   -1848.6822 
 1413000    781.21309   -1903.4882    56.548642   -1846.9396 
 1413200    770.84276   -1904.1597    55.797978   -1848.3617 
 1413400    807.75552    -1906.094    58.469934    -1847.624 
 1413600     762.3799   -1903.7585    55.185388   -1848.5731 
 1413800    836.38537   -1903.9743    60.542325   -1843.4319 
 1414000     771.3396   -1903.7093    55.833942   -1847.8754 
 1414200    801.97165   -1905.7523    58.051264   -1847.7011 
 1414400    808.05547   -1901.6577    58.491646   -1843.1661 
 1414600    812.52062   -1904.5906    58.814859   -1845.7757 
 1414800    788.49554   -1903.5521    57.075787   -1846.4763 
 1415000    802.27638    -1902.734    58.073323   -1844.6607 
 1415200    784.90074   -1904.0861    56.815574   -1847.2706 
 1415400    729.99268   -1903.5127    52.841017   -1850.6716 
 1415600    810.68504   -1901.7667    58.681989   -1843.0847 
 1415800    793.32853   -1900.4472    57.425626   -1843.0215 
 1416000    779.46686   -1902.5565     56.42224   -1846.1343 
 1416200    812.25656   -1905.0498    58.795744   -1846.2541 
 1416400    746.62107   -1898.5969    54.044675   -1844.5522 
 1416600    788.65655   -1901.1837    57.087441   -1844.0963 
 1416800    763.12665   -1903.0291    55.239442   -1847.7897 
 1417000    765.61739   -1902.2114    55.419736   -1846.7916 
 1417200    814.05619   -1903.0971    58.926012   -1844.1711 
 1417400    793.89821   -1904.5442    57.466863   -1847.0773 
 1417600    807.04973   -1902.9031    58.418844   -1844.4842 
 1417800    801.48377   -1899.9923    58.015949   -1841.9764 
 1418000    797.97464   -1903.7577    57.761938   -1845.9957 
 1418200    776.36927      -1903.1    56.198019    -1846.902 
 1418400    825.06762   -1904.9071    59.723082    -1845.184 
 1418600    786.11096   -1905.5448    56.903177   -1848.6417 
 1418800     770.9663   -1902.4959    55.806921    -1846.689 
 1419000    859.31723   -1901.7238    62.202263   -1839.5215 
 1419200    740.73174   -1903.2085    53.618371   -1849.5901 
 1419400    797.53132   -1904.4415    57.729848   -1846.7116 
 1419600    845.14917   -1902.6846    61.176698   -1841.5079 
 1419800    772.08892   -1906.1632    55.888182    -1850.275 
 1420000    772.40845   -1904.4684    55.911312   -1848.5571 
 1420200    843.61758   -1903.0316    61.065833   -1841.9657 
 1420400    799.60803   -1905.0897    57.880172   -1847.2095 
 1420600      800.158   -1905.1541    57.919982   -1847.2341 
 1420800    812.88727   -1904.2013    58.841399   -1845.3599 
 1421000    782.76884   -1902.9938    56.661256   -1846.3325 
 1421200    770.90649   -1903.0935    55.802591   -1847.2909 
 1421400    833.07856   -1905.6807    60.302959   -1845.3778 
 1421600    815.88518   -1903.7485    59.058405   -1844.6901 
 1421800     802.7644   -1904.4879    58.108648   -1846.3793 
 1422000    770.22479    -1903.461    55.753246   -1847.7077 
 1422200    838.45018    -1902.907    60.691787   -1842.2152 
 1422400    828.38606   -1903.3895    59.963289   -1843.4263 
 1422600    751.75073   -1908.5788    54.415989   -1854.1628 
 1422800    826.36766   -1904.9374    59.817186   -1845.1202 
 1423000    813.22441   -1899.9779    58.865803   -1841.1121 
 1423200    772.70544   -1910.3034    55.932809   -1854.3705 
 1423400    805.03642   -1906.0759     58.27311   -1847.8028 
 1423600       841.39   -1902.5386    60.904589   -1841.6341 
 1423800    750.31561   -1904.2418    54.312107   -1849.9297 
 1424000    848.17265   -1905.4058    61.395555   -1844.0103 
 1424200    809.08774   -1903.1259    58.566367   -1844.5595 
 1424400    785.05075   -1905.3556    56.826433   -1848.5292 
 1424600    823.94223    -1905.739    59.641619   -1846.0974 
 1424800    825.58371   -1905.2954    59.760439    -1845.535 
 1425000    776.69009   -1905.3965    56.221241   -1849.1752 
 1425200    789.53327   -1904.0878    57.150904   -1846.9369 
 1425400    803.05265   -1903.1442    58.129513   -1845.0147 
 1425600    774.99272   -1904.7504    56.098376    -1848.652 
 1425800    805.12964   -1906.2392    58.279857   -1847.9594 
 1426000    742.38172    -1901.638    53.737807   -1847.9002 
 1426200    819.09772    -1905.327    59.290946    -1846.036 
 1426400    860.59916   -1908.9668    62.295056   -1846.6718 
 1426600    752.78785   -1907.7656    54.491061   -1853.2745 
 1426800    827.62928   -1903.7445    59.908509    -1843.836 
 1427000    822.09513   -1905.1882    59.507916   -1845.6803 
 1427200    744.75946   -1908.1612    53.909921   -1854.2513 
 1427400    852.09937   -1904.7799    61.679794   -1843.1001 
 1427600    833.58399   -1905.2137    60.339545   -1844.8741 
 1427800    774.28839     -1910.07    56.047392   -1854.0226 
 1428000    818.99347   -1906.8621      59.2834   -1847.5787 
 1428200    824.83962   -1902.3689    59.706578   -1842.6623 
 1428400    793.03226   -1904.0972     57.40418    -1846.693 
 1428600    793.78299   -1907.4056    57.458523   -1849.9471 
 1428800    812.26692   -1904.9078    58.796494   -1846.1113 
 1429000    794.35715    -1901.711    57.500084   -1844.2109 
 1429200    795.10559   -1904.7816    57.554259   -1847.2273 
 1429400    809.49479   -1905.8886    58.595831   -1847.2928 
 1429600    824.34493   -1902.9811    59.670769   -1843.3103 
 1429800    784.69833   -1901.0134    56.800923   -1844.2125 
 1430000    779.90569   -1904.9939    56.454005   -1848.5399 
 1430200    799.34472   -1900.7899    57.861112   -1842.9288 
 1430400    795.28207   -1901.7648    57.567034   -1844.1978 
 1430600    792.18915   -1909.4512    57.343151    -1852.108 
 1430800    804.27527   -1905.1838    58.218013   -1846.9658 
 1431000    797.45741   -1903.3819    57.724498   -1845.6574 
 1431200     792.6311    -1903.803    57.375142   -1846.4279 
 1431400    791.66413   -1905.3851    57.305147   -1848.0799 
 1431600    801.15474   -1905.8423    57.992132   -1847.8502 
 1431800    830.73823   -1905.2771    60.133553   -1845.1436 
 1432000    795.52029   -1906.5796    57.584278   -1848.9954 
 1432200    762.98033   -1906.2767    55.228851   -1851.0479 
 1432400    816.28534   -1901.0634    59.087371   -1841.9761 
 1432600    843.66249   -1906.1596    61.069084   -1845.0905 
 1432800    762.83771   -1907.4269    55.218527   -1852.2084 
 1433000    820.71882   -1904.4561    59.408291   -1845.0478 
 1433200    846.33883   -1903.5761    61.262812   -1842.3133 
 1433400     800.2017   -1906.9678    57.923145   -1849.0447 
 1433600    795.82134   -1909.6597     57.60607   -1852.0536 
 1433800     810.0747   -1904.2601    58.637809   -1845.6222 
 1434000    834.72991   -1903.4822    60.422493   -1843.0597 
 1434200    831.72982   -1907.9641     60.20533   -1847.7587 
 1434400    781.36222   -1904.6772    56.559437   -1848.1178 
 1434600    810.68939   -1902.0361    58.682304   -1843.3538 
 1434800    764.12422   -1902.1904    55.311653   -1846.8788 
 1435000    788.67908   -1902.8303    57.089072   -1845.7413 
 1435200    850.27689   -1903.7843    61.547872   -1842.2365 
 1435400     800.7931    -1906.474    57.965954    -1848.508 
 1435600    799.11655   -1906.4584    57.844596   -1848.6138 
 1435800     849.8355   -1899.2511    61.515921   -1837.7352 
 1436000    787.95609   -1901.1651    57.036738   -1844.1283 
 1436200    757.37443   -1905.6516    54.823064   -1850.8285 
 1436400    850.18925   -1906.0043    61.541528   -1844.4628 
 1436600     815.8164   -1904.9074    59.053426   -1845.8539 
 1436800    810.67974   -1904.7548    58.681605   -1846.0732 
 1437000    775.37264   -1902.2181    56.125877   -1846.0922 
 1437200    796.44211    -1903.055    57.651005    -1845.404 
 1437400    801.36226    -1903.261    58.007153   -1845.2539 
 1437600     779.3427   -1907.2953    56.413252    -1850.882 
 1437800    811.48522     -1902.97     58.73991   -1844.2301 
 1438000    852.25931   -1902.9357     61.69137   -1841.2443 
 1438200    788.42908   -1907.1167    57.070976   -1850.0457 
 1438400    788.88172    -1905.052    57.103741   -1847.9483 
 1438600    826.60496   -1903.0905    59.834363   -1843.2561 
 1438800    847.11724   -1905.3813    61.319158   -1844.0621 
 1439000       753.38   -1903.6713    54.533925   -1849.1374 
 1439200    812.67951   -1904.8528     58.82636   -1846.0264 
 1439400    822.15989   -1905.2375    59.512604   -1845.7249 
 1439600    810.45688   -1905.4675    58.665473    -1846.802 
 1439800    801.42054   -1905.1918    58.011372   -1847.1804 
 1440000    806.04439   -1902.5188    58.346072   -1844.1727 
 1440200    800.33741   -1901.8612    57.932968   -1843.9282 
 1440400    794.37381   -1905.7259    57.501289   -1848.2246 
 1440600    792.97432   -1905.9218    57.399986   -1848.5218 
 1440800    803.30009   -1901.6786    58.147424   -1843.5311 
 1441000    840.07165   -1906.6632    60.809159   -1845.8541 
 1441200    786.82082   -1906.2101    56.954561   -1849.2555 
 1441400    866.10058   -1905.0162     62.69328   -1842.3229 
 1441600    782.77459   -1902.7135    56.661672   -1846.0519 
 1441800    789.86949   -1908.6092    57.175241    -1851.434 
 1442000    819.33499   -1905.1235    59.308121   -1845.8154 
 1442200    816.37639   -1906.9347    59.093961   -1847.8407 
 1442400    816.49404   -1907.3897    59.102477   -1848.2872 
 1442600    785.05839   -1903.7888    56.826987   -1846.9618 
 1442800    819.71266   -1904.2993    59.335459   -1844.9638 
 1443000    802.47589   -1907.0857    58.087764   -1848.9979 
 1443200     771.8405     -1905.39      55.8702   -1849.5198 
 1443400    801.07951   -1905.4274    57.986686   -1847.4407 
 1443600    810.02814    -1902.021    58.634439   -1843.3866 
 1443800    810.81301   -1904.3763    58.691252   -1845.6851 
 1444000    839.81017   -1908.6601    60.790231   -1847.8698 
 1444200    814.45499   -1904.6803    58.954879   -1845.7255 
 1444400    811.14009   -1904.2083    58.714928   -1845.4934 
 1444600    843.85279   -1905.7453    61.082859   -1844.6624 
 1444800    787.95447   -1906.5737    57.036621   -1849.5371 
 1445000    837.15201   -1907.5016    60.597818   -1846.9038 
 1445200    873.32348   -1906.5954    63.216115   -1843.3793 
 1445400    762.14369   -1903.4053     55.16829    -1848.237 
 1445600    818.16266   -1903.5657    59.223261   -1844.3424 
 1445800    795.78876   -1904.9437    57.603711   -1847.3399 
 1446000    761.54317   -1903.6616    55.124821   -1848.5368 
 1446200     830.1493   -1901.0784    60.090922   -1840.9875 
 1446400    840.16955   -1907.4353    60.816245    -1846.619 
 1446600    807.32295   -1906.2347    58.438622   -1847.7961 
 1446800     818.9778   -1902.9307    59.282266   -1843.6484 
 1447000    805.65099    -1904.054    58.317596   -1845.7364 
 1447200     836.1074   -1905.8812    60.522203    -1845.359 
 1447400    811.15603    -1904.323    58.716082   -1845.6069 
 1447600    784.92515   -1904.4935    56.817342   -1847.6761 
 1447800    794.29788   -1901.7438    57.495793    -1844.248 
 1448000    821.24775     -1901.26    59.446578   -1841.8135 
 1448200    820.91275   -1906.5822    59.422329   -1847.1599 
 1448400    763.07213   -1901.8568    55.235496   -1846.6213 
 1448600    871.38481   -1904.8302    63.075783   -1841.7544 
 1448800    808.22282   -1903.5016     58.50376   -1844.9979 
 1449000    830.65395    -1906.043    60.127452   -1845.9155 
 1449200    773.98019   -1903.0447    56.025084   -1847.0196 
 1449400    831.11427   -1901.9766    60.160772   -1841.8158 
 1449600    783.02217   -1904.7743    56.679593   -1848.0947 
 1449800    778.32916   -1903.0112    56.339886   -1846.6713 
 1450000    845.36717   -1902.0631    61.192478   -1840.8707 
 1450200    800.26671   -1903.2955    57.927851   -1845.3676 
 1450400    838.01337   -1904.1612    60.660169   -1843.5011 
 1450600     782.0893   -1904.2852    56.612067   -1847.6731 
 1450800    798.04851   -1902.8177    57.767285   -1845.0504 
 1451000    824.28879   -1899.6009    59.666706   -1839.9341 
 1451200    806.86313   -1902.9432    58.405337   -1844.5378 
 1451400    777.80136   -1903.0717    56.301681     -1846.77 
 1451600     865.4441   -1901.5892     62.64576   -1838.9434 
 1451800    751.30299   -1897.2525    54.383579   -1842.8689 
 1452000     768.3204   -1903.6611    55.615395   -1848.0457 
 1452200    857.97185   -1901.3759    62.104877    -1839.271 
 1452400    830.01661   -1901.4607    60.081318   -1841.3794 
 1452600    770.64414   -1905.6314    55.783601   -1849.8478 
 1452800    814.14354   -1904.2865    58.932335   -1845.3541 
 1453000    835.82558   -1901.8471    60.501804   -1841.3453 
 1453200    791.23511   -1901.9205    57.274092   -1844.6464 
 1453400    775.15039   -1904.4437    56.109789   -1848.3339 
 1453600    801.49642   -1902.6238    58.016865   -1844.6069 
 1453800    807.12225   -1898.4466    58.424094   -1840.0225 
 1454000    814.33291   -1901.4422    58.946042   -1842.4962 
 1454200    821.09449   -1908.7427    59.435484   -1849.3072 
 1454400    808.86262   -1900.9899    58.550072   -1842.4398 
 1454600    854.86306   -1900.0384    61.879845   -1838.1585 
 1454800    772.46669   -1906.5833    55.915528   -1850.6678 
 1455000    784.50926   -1903.0663    56.787237   -1846.2791 
 1455200    829.96044   -1897.7777    60.077252   -1837.7004 
 1455400    814.84106    -1905.772    58.982825   -1846.7892 
 1455600    795.15854   -1908.0266    57.558092   -1850.4685 
 1455800    817.12142   -1900.6188     59.14789   -1841.4709 
 1456000    826.03782   -1904.6913     59.79331    -1844.898 
 1456200    780.98029   -1906.8934    56.531791   -1850.3617 
 1456400    837.40766   -1903.5091    60.616324   -1842.8927 
 1456600    838.28619   -1903.2813    60.679917   -1842.6013 
 1456800    808.60564   -1904.9408     58.53147   -1846.4093 
 1457000    767.57414   -1902.8282    55.561377   -1847.2669 
 1457200     815.7566   -1901.6145    59.049097   -1842.5654 
 1457400    850.82577   -1900.4064    61.587603   -1838.8188 
 1457600     786.0301   -1908.4878    56.897324   -1851.5905 
 1457800    806.33049   -1905.3458    58.366782    -1846.979 
 1458000    923.31361   -1899.8674    66.834685   -1833.0327 
 1458200    766.77623    -1906.728     55.50362   -1851.2244 
 1458400    749.87218   -1906.1802    54.280009   -1851.9001 
 1458600     874.6063   -1899.1312    63.308973   -1835.8222 
 1458800    789.78959   -1903.3238    57.169457   -1846.1543 
 1459000    781.72027    -1905.196    56.585354   -1848.6107 
 1459200     801.8828   -1901.5803    58.044833   -1843.5354 
 1459400    813.42856   -1902.9853    58.880581   -1844.1047 
 1459600    773.05928   -1902.6231    55.958422   -1846.6647 
 1459800     851.7827   -1906.9637    61.656871   -1845.3068 
 1460000    814.34026   -1904.3357    58.946574   -1845.3891 
 1460200    777.76109   -1898.4267    56.298766   -1842.1279 
 1460400    836.19873   -1904.5908    60.528814   -1844.0619 
 1460600    750.48369   -1904.0226    54.324273   -1849.6984 
 1460800    829.27461   -1904.3599    60.027607   -1844.3323 
 1461000    822.07157   -1903.0075    59.506211   -1843.5013 
 1461200    793.76458   -1902.9372     57.45719     -1845.48 
 1461400    838.34034    -1904.097    60.683837   -1843.4131 
 1461600    784.58924   -1902.8358    56.793027   -1846.0428 
 1461800    809.16304   -1902.8722    58.571818   -1844.3003 
 1462000    814.20963   -1903.4837    58.937119   -1844.5466 
 1462200    777.92443   -1902.0669     56.31059   -1845.7563 
 1462400    827.32653    -1900.346    59.886594   -1840.4594 
 1462600    807.35075    -1904.438    58.440634   -1845.9973 
 1462800    806.81409   -1906.8154    58.401788   -1848.4136 
 1463000     825.0322   -1901.0596    59.720518   -1841.3391 
 1463200    802.72391   -1903.7585    58.105717   -1845.6527 
 1463400    810.88722   -1904.9677    58.696624    -1846.271 
 1463600    802.22322   -1902.8866    58.069474   -1844.8171 
 1463800     791.8635   -1903.1953    57.319579   -1845.8757 
 1464000    809.84618    -1903.926    58.621267   -1845.3047 
 1464200    787.92968    -1902.637    57.034826   -1845.6021 
 1464400    810.93568   -1901.6715    58.700132   -1842.9713 
 1464600    804.11618   -1902.8848    58.206498   -1844.6783 
 1464800    757.23427   -1904.7298    54.812918   -1849.9168 
 1465000    860.43708   -1902.3845    62.283324   -1840.1012 
 1465200    815.83395   -1902.0796    59.054696   -1843.0249 
 1465400    775.22773   -1905.5022    56.115387   -1849.3868 
 1465600    810.64409    -1903.376    58.679025    -1844.697 
 1465800    819.20281   -1900.4055    59.298554   -1841.1069 
 1466000    800.12424   -1905.1375    57.917538     -1847.22 
 1466200     788.4065   -1904.8591    57.069342   -1847.7898 
 1466400     809.5559   -1897.2119    58.600256   -1838.6117 
 1466600    861.10619   -1904.9779    62.331758   -1842.6461 
 1466800    755.23407   -1906.9624    54.668132   -1852.2943 
 1467000    815.36799    -1899.285    59.020967    -1840.264 
 1467200     845.4514   -1899.3124    61.198576   -1838.1138 
 1467400    791.76452   -1905.1072    57.312414   -1847.7948 
 1467600    791.33219   -1906.6977     57.28112   -1849.4166 
 1467800    830.03272   -1900.1768    60.082484   -1840.0943 
 1468000    819.17428   -1902.9992    59.296488   -1843.7027 
 1468200    770.47853    -1903.246    55.771613   -1847.4743 
 1468400    867.39473    -1902.221    62.786958   -1839.4341 
 1468600    783.90312   -1902.8391    56.743362   -1846.0957 
 1468800    804.81278   -1904.5658    58.256921   -1846.3088 
 1469000    832.93019   -1901.9776    60.292219   -1841.6853 
 1469200    803.23045   -1902.1357    58.142383   -1843.9933 
 1469400     848.1536   -1903.8325    61.394176   -1842.4383 
 1469600    821.94887   -1905.4025    59.497329   -1845.9051 
 1469800    776.82862    -1903.762    56.231269   -1847.5308 
 1470000    878.32613   -1903.3833    63.578235   -1839.8051 
 1470200    774.84971   -1901.8289    56.088024   -1845.7408 
 1470400    794.18992   -1905.9687    57.487979   -1848.4807 
 1470600    797.57588   -1900.1426    57.733073   -1842.4095 
 1470800      811.402   -1900.6211    58.733886   -1841.8872 
 1471000    792.52837   -1902.8079    57.367706   -1845.4402 
 1471200    844.18068   -1904.1434    61.106594   -1843.0368 
 1471400    836.48314   -1901.9141    60.549402   -1841.3647 
 1471600    807.40558   -1904.1155    58.444603   -1845.6709 
 1471800    770.97047   -1903.0718    55.807223   -1847.2645 
 1472000    826.78151   -1903.8532    59.847143   -1844.0061 
 1472200    812.72205   -1902.6909    58.829439   -1843.8614 
 1472400    822.02686   -1906.0845    59.502974   -1846.5815 
 1472600    839.80185   -1904.6342    60.789629   -1843.8445 
 1472800    810.51377   -1901.8648    58.669592   -1843.1952 
 1473000    763.37843   -1900.4033    55.257668   -1845.1457 
 1473200    832.08344   -1904.1812    60.230926   -1843.9503 
 1473400    818.38019   -1903.1053    59.239008   -1843.8663 
 1473600    794.79868   -1903.5897    57.532044   -1846.0577 
 1473800    823.73843   -1902.2251    59.626868   -1842.5982 
 1474000     848.1917   -1904.9098    61.396934   -1843.5128 
 1474200    792.37078   -1905.3217    57.356298   -1847.9654 
 1474400    820.26226   -1902.7929    59.375242   -1843.4177 
 1474600    779.50288   -1899.1372    56.424847   -1842.7124 
 1474800    788.44174   -1905.0101    57.071893   -1847.9382 
 1475000    839.24589   -1906.1363    60.749386    -1845.387 
 1475200    777.33307   -1901.0828    56.267784    -1844.815 
 1475400    848.25448   -1902.6557    61.401478   -1841.2542 
 1475600    770.75924    -1903.423    55.791933   -1847.6311 
 1475800    835.05286   -1903.9032     60.44587   -1843.4574 
 1476000    824.51496   -1899.9327    59.683077   -1840.2496 
 1476200    785.26766   -1902.6741    56.842135    -1845.832 
 1476400    840.41105    -1904.489    60.833726   -1843.6553 
 1476600    823.03182   -1905.6312    59.575719   -1846.0555 
 1476800    799.13032   -1903.7541    57.845593   -1845.9085 
 1477000    845.08419   -1899.6765    61.171995   -1838.5045 
 1477200    810.35487   -1902.2033     58.65809   -1843.5452 
 1477400    814.29489   -1905.4864    58.943291   -1846.5431 
 1477600    832.83988   -1905.1888    60.285682   -1844.9031 
 1477800    819.14367   -1902.2446    59.294273   -1842.9503 
 1478000     826.1504   -1901.4707    59.801459   -1841.6692 
 1478200    813.59434   -1906.5027    58.892581   -1847.6101 
 1478400    850.71663   -1905.8354    61.579703   -1844.2557 
 1478600    791.32148   -1899.4632    57.280345   -1842.1828 
 1478800    817.58097   -1904.0792    59.181155   -1844.8981 
 1479000     794.4316    -1904.325    57.505473   -1846.8196 
 1479200    819.00284   -1904.2708    59.284079   -1844.9867 
 1479400    832.64472   -1901.7141    60.271555   -1841.4426 
 1479600     812.7815   -1902.1382    58.833743   -1843.3045 
 1479800    794.31801    -1905.293     57.49725   -1847.7958 
 1480000    838.86534   -1902.4475    60.721839   -1841.7256 
 1480200    813.67664   -1904.8918    58.898538   -1845.9932 
 1480400    836.04589   -1907.4541    60.517751   -1846.9364 
 1480600    827.92391   -1902.1332    59.929836   -1842.2033 
 1480800    831.20385   -1899.9693    60.167257    -1839.802 
 1481000    796.32343   -1899.6011    57.642414   -1841.9587 
 1481200    799.34699   -1906.2379    57.861276   -1848.3767 
 1481400    823.24784   -1904.0438    59.591355   -1844.4524 
 1481600    865.35148   -1900.9168    62.639056   -1838.2777 
 1481800    788.74644    -1905.956    57.093948   -1848.8621 
 1482000    825.29727   -1904.9822    59.739705   -1845.2425 
 1482200    829.59744   -1900.4283    60.050976   -1840.3773 
 1482400    789.57635   -1901.4082    57.154022   -1844.2542 
 1482600    850.50095   -1903.5641    61.564091        -1842 
 1482800    782.83359   -1903.7409    56.665943   -1847.0749 
 1483000     859.2493   -1903.9816    62.197346   -1841.7843 
 1483200    809.15693   -1900.7602    58.571375   -1842.1888 
 1483400    829.25721   -1904.7393    60.026348    -1844.713 
 1483600    850.89589     -1901.59    61.592679   -1839.9974 
 1483800    779.72596   -1904.6282    56.440995   -1848.1872 
 1484000    802.30789   -1903.0323    58.075603   -1844.9567 
 1484200    846.29828   -1900.3744    61.259877   -1839.1145 
 1484400    795.30945   -1904.9815    57.569016   -1847.4125 
 1484600    809.65219   -1902.1535    58.607225   -1843.5463 
 1484800    853.20662   -1901.1474    61.759943   -1839.3874 
 1485000    785.37366   -1902.7612    56.849807   -1845.9114 
 1485200    846.72261   -1903.7443    61.290593   -1842.4537 
 1485400    861.71176   -1904.3233    62.375593   -1841.9477 
 1485600    790.02374   -1903.5313    57.186407   -1846.3449 
 1485800    838.68806   -1901.5796    60.709006   -1840.8706 
 1486000    817.50616   -1902.0391    59.175741   -1842.8633 
 1486200    810.77954   -1903.0905    58.688829   -1844.4017 
 1486400    783.16681   -1903.7213    56.690063   -1847.0312 
 1486600    825.10179   -1906.2025    59.725555    -1846.477 
 1486800     843.0546   -1902.5466    61.025082   -1841.5216 
 1487000    801.33968   -1904.8572    58.005518   -1846.8517 
 1487200    810.39452   -1905.5052     58.66096   -1846.8443 
 1487400    885.93317   -1903.9728    64.128876   -1839.8439 
 1487600    806.78909   -1901.8114    58.399978   -1843.4114 
 1487800    817.58785   -1905.6768    59.181654   -1846.4951 
 1488000     812.9486   -1903.3038    58.845838   -1844.4579 
 1488200    825.60855   -1900.8069    59.762237   -1841.0446 
 1488400    843.55257   -1904.6315    61.061127   -1843.5703 
 1488600    765.01174   -1903.5776    55.375896   -1848.2017 
 1488800    843.26557   -1901.2742    61.040353   -1840.2339 
 1489000    841.84286   -1901.0844    60.937369   -1840.1471 
 1489200    826.60974   -1906.6652    59.834709   -1846.8305 
 1489400    847.04191   -1903.2744    61.313706   -1841.9607 
 1489600    822.52631   -1899.7342    59.539127   -1840.1951 
 1489800    809.70228   -1904.4336    58.610851   -1845.8227 
 1490000    810.45416   -1905.1085    58.665276   -1846.4432 
 1490200    870.83918   -1904.8733    63.036288    -1841.837 
 1490400    844.00792   -1902.5272    61.094088   -1841.4331 
 1490600    830.42174   -1907.9044    60.110643   -1847.7937 
 1490800    829.25647   -1905.2042    60.026295   -1845.1779 
 1491000    860.79162   -1900.2867    62.308988   -1837.9777 
 1491200    802.20338   -1902.6008    58.068038   -1844.5327 
 1491400    827.41556    -1907.052    59.893039    -1847.159 
 1491600    843.76094   -1907.8968     61.07621   -1846.8206 
 1491800    815.31718   -1902.6018    59.017289   -1843.5845 
 1492000    876.44406   -1903.7777       63.442   -1840.3357 
 1492200    777.10211   -1905.9895    56.251066   -1849.7385 
 1492400    844.32579   -1902.9671    61.117098     -1841.85 
 1492600    849.93114   -1901.0285    61.522845   -1839.5056 
 1492800     763.1532   -1904.6833    55.241364   -1849.4419 
 1493000    810.50639   -1903.2886    58.669057   -1844.6196 
 1493200    819.03928   -1901.2629    59.286716   -1841.9762 
 1493400    772.30654   -1901.1888    55.903935   -1845.2849 
 1493600    830.37223   -1902.2528     60.10706   -1842.1458 
 1493800    841.78449   -1905.5155    60.933144   -1844.5824 
 1494000    791.43588   -1904.5393    57.288625   -1847.2507 
 1494200     867.4615   -1901.1318    62.791792     -1838.34 
 1494400    786.86044    -1903.351    56.957429   -1846.3936 
 1494600    856.58796   -1908.8836    62.004703   -1846.8789 
 1494800    848.23324   -1905.3068    61.399941   -1843.9069 
 1495000    823.93982    -1905.153    59.641445   -1845.5116 
 1495200    836.33926   -1903.8044    60.538987   -1843.2654 
 1495400    786.55709   -1904.1038    56.935471   -1847.1683 
 1495600    829.71334   -1905.9519    60.059365   -1845.8926 
 1495800    832.92033   -1903.6475    60.291505    -1843.356 
 1496000    839.57616   -1907.5273    60.773292    -1846.754 
 1496200     807.6367   -1903.6688    58.461332   -1845.2075 
 1496400    878.74223   -1904.9507    63.608355   -1841.3424 
 1496600    815.30403   -1904.5272    59.016337   -1845.5109 
 1496800    826.18036   -1904.2682    59.803628   -1844.4646 
 1497000    836.54801   -1902.6544    60.554098   -1842.1003 
 1497200    801.82947   -1902.5563    58.040972   -1844.5153 
 1497400    819.45246   -1903.8094    59.316625   -1844.4927 
 1497600    842.49797   -1904.0342    60.984789   -1843.0494 
 1497800    820.55589   -1902.7374    59.396497   -1843.3409 
 1498000     826.3923   -1906.1084     59.81897   -1846.2894 
 1498200    815.29127   -1906.4148    59.015414   -1847.3994 
 1498400    859.28003   -1903.9573    62.199571   -1841.7578 
 1498600    796.43973   -1899.7494    57.650832   -1842.0985 
 1498800    824.57368   -1905.2775    59.687327   -1845.5902 
 1499000    819.55913    -1901.056    59.324346   -1841.7317 
 1499200    836.90795   -1902.8353    60.580152   -1842.2552 
 1499400    851.17993   -1906.4817    61.613239   -1844.8685 
 1499600     835.8783   -1903.4602     60.50562   -1842.9545 
 1499800    835.49861   -1903.9919    60.478136   -1843.5137 
 1500000    818.13463    -1903.389    59.221233   -1844.1678 
 1500200    823.06566   -1905.7674    59.578168   -1846.1892 
 1500400    819.36371   -1901.7666      59.3102   -1842.4564 
 1500600    816.38985    -1898.988    59.094936   -1839.8931 
 1500800    864.83875   -1902.3029    62.601942    -1839.701 
 1501000    833.88089   -1902.2653    60.361036   -1841.9042 
 1501200    813.15157   -1904.2546     58.86053   -1845.3941 
 1501400    816.41321   -1902.3693    59.096626   -1843.2726 
 1501600    809.74646   -1899.3104    58.614049   -1840.6964 
 1501800    831.52714    -1905.163    60.190658   -1844.9723 
 1502000    798.94387   -1904.0677    57.832096   -1846.2356 
 1502200    867.08032   -1906.0131    62.764199   -1843.2489 
 1502400    825.32804   -1902.7944    59.741932   -1843.0525 
 1502600    854.61359   -1903.9662    61.861787   -1842.1044 
 1502800    806.90775   -1901.3375    58.408567   -1842.9289 
 1503000    835.43445   -1905.7548    60.473492   -1845.2813 
 1503200    804.07371   -1902.0283    58.203423   -1843.8249 
 1503400     860.5275   -1899.7996    62.289869   -1837.5097 
 1503600    845.86622   -1904.8126    61.228603    -1843.584 
 1503800    842.94461    -1907.285     61.01712   -1846.2679 
 1504000    839.31935   -1902.7661    60.754703   -1842.0114 
 1504200    821.76398   -1901.7794    59.483946   -1842.2954 
 1504400    819.02011   -1901.7996    59.285329   -1842.5142 
 1504600    837.59513   -1903.3443    60.629894   -1842.7144 
 1504800    815.41527   -1902.1071     59.02439   -1843.0827 
 1505000    857.25296   -1902.0254    62.052839   -1839.9726 
 1505200    799.77249   -1901.0803    57.892076   -1843.1882 
 1505400    799.95853    -1905.066    57.905543   -1847.1605 
 1505600    832.85537   -1902.4966    60.286803   -1842.2098 
 1505800    865.67693   -1901.5594    62.662614   -1838.8968 
 1506000    769.59852   -1901.1787    55.707913   -1845.4708 
 1506200    828.33304   -1900.4728    59.959451   -1840.5134 
 1506400    817.27426   -1899.1939    59.158954   -1840.0349 
 1506600    801.78118   -1902.8028    58.037477   -1844.7653 
 1506800    843.87123   -1903.7008    61.084194   -1842.6166 
 1507000    841.58883   -1903.3441    60.918981   -1842.4251 
 1507200    811.56106   -1901.3619      58.7454   -1842.6165 
 1507400    834.96844   -1900.0795     60.43976   -1839.6398 
 1507600    814.46916   -1898.9389    58.955905    -1839.983 
 1507800     829.0972   -1900.7411    60.014766   -1840.7263 
 1508000    801.36426   -1899.2706    58.007298   -1841.2633 
 1508200       833.05   -1901.9355    60.300892   -1841.6346 
 1508400     825.9414   -1901.0292    59.786331   -1841.2428 
 1508600    793.81803   -1903.2369    57.461059   -1845.7758 
 1508800    818.40143   -1902.7277    59.240545   -1843.4872 
 1509000    863.06075   -1899.1046     62.47324   -1836.6313 
 1509200    768.10529   -1903.9038    55.599824    -1848.304 
 1509400    828.59324   -1903.6192    59.978286   -1843.6409 
 1509600    879.86916   -1900.1881    63.689929   -1836.4982 
 1509800    789.39257    -1905.525    57.140719   -1848.3842 
 1510000    836.24505   -1904.1804    60.532167   -1843.6483 
 1510200    820.39964   -1902.8398    59.385187   -1843.4547 
 1510400    836.51861   -1903.8523    60.551969   -1843.3003 
 1510600    841.28596   -1901.4139    60.897057   -1840.5169 
 1510800     827.0853   -1903.7387    59.869133   -1843.8696 
 1511000    837.47654   -1900.7057     60.62131   -1840.0844 
 1511200     811.3674   -1901.8479    58.731382   -1843.1165 
 1511400    824.74125   -1903.0384    59.699457    -1843.339 
 1511600    818.85041   -1899.7103    59.273045   -1840.4373 
 1511800    816.20962   -1898.8159    59.081889    -1839.734 
 1512000    787.57766   -1899.2097    57.009345   -1842.2004 
 1512200    910.53473    -1901.775    65.909677   -1835.8654 
 1512400    799.17518   -1901.5849     57.84884   -1843.7361 
 1512600    803.80915   -1903.4893    58.184273    -1845.305 
 1512800    840.31417   -1899.7374    60.826714   -1838.9107 
 1513000    788.84127   -1902.7125    57.100813   -1845.6117 
 1513200     840.4378   -1905.1286    60.835662   -1844.2929 
 1513400    844.74089   -1903.5568    61.147145   -1842.4096 
 1513600    843.43329   -1903.1707    61.052494   -1842.1182 
 1513800    867.61335   -1904.3557    62.802783    -1841.553 
 1514000    808.57292    -1903.633    58.529102   -1845.1038 
 1514200    833.56299    -1900.243    60.338025   -1839.9049 
 1514400    886.98149   -1899.6754    64.204759   -1835.4706 
 1514600    769.69476   -1902.3365    55.714879   -1846.6216 
 1514800    792.13303   -1900.7423    57.339089   -1843.4032 
 1515000     880.8913   -1898.6784    63.763917   -1834.9145 
 1515200    799.70524    -1903.732    57.887209   -1845.8447 
 1515400    787.17101   -1902.9477     56.97991   -1845.9678 
 1515600    838.21839   -1897.8962    60.675009   -1837.2212 
 1515800    831.46543   -1901.6676    60.186192   -1841.4814 
 1516000     846.7492   -1908.4256    61.292518    -1847.133 
 1516200    835.61864    -1902.981    60.486824   -1842.4942 
 1516400    840.64037    -1898.361    60.850326   -1837.5107 
 1516600     839.3758   -1904.0643    60.758789   -1843.3055 
 1516800    766.29485    -1904.266    55.468775   -1848.7972 
 1517000    884.04823   -1902.3428    63.992434   -1838.3503 
 1517200    838.67252   -1901.6769    60.707882    -1840.969 
 1517400    772.84701   -1905.3243    55.943057   -1849.3812 
 1517600    839.46373   -1901.9428    60.765154   -1841.1776 
 1517800    844.28746   -1902.5595    61.114323   -1841.4452 
 1518000    764.09053   -1905.4679    55.309214   -1850.1587 
 1518200    848.04611   -1904.5061    61.386396   -1843.1197 
 1518400    853.84094   -1898.8275    61.805858   -1837.0217 
 1518600    799.63321   -1905.3583    57.881995   -1847.4763 
 1518800    818.72752   -1907.5064    59.264149   -1848.2422 
 1519000    814.92635    -1900.973    58.988999    -1841.984 
 1519200    856.12017   -1904.2715    61.970842   -1842.3006 
 1519400    814.60671   -1902.1948    58.965861   -1843.2289 
 1519600     786.4249   -1906.3114    56.925902   -1849.3855 
 1519800    835.08273   -1901.5805    60.448032   -1841.1324 
 1520000    865.55144   -1902.3791    62.653531   -1839.7256 
 1520200    802.98289   -1907.7464    58.124464    -1849.622 
 1520400    887.29636   -1904.5418    64.227551   -1840.3142 
 1520600    855.94422   -1902.0759    61.958105   -1840.1178 
 1520800    800.93741   -1903.8234      57.9764    -1845.847 
 1521000    852.50598   -1903.4691    61.709226   -1841.7598 
 1521200    810.85459   -1905.1408    58.694262   -1846.4465 
 1521400    789.03783   -1900.0692    57.115041   -1842.9541 
 1521600     866.1204   -1900.5159    62.694715   -1837.8212 
 1521800    789.16946   -1905.6459    57.124569   -1848.5214 
 1522000    869.47311   -1904.6733    62.937403   -1841.7359 
 1522200    830.35258   -1900.1597    60.105637    -1840.054 
 1522400    823.99799    -1903.873    59.645656   -1844.2274 
 1522600    817.78237   -1903.7457    59.195734     -1844.55 
 1522800    785.87119   -1904.5103    56.885822   -1847.6245 
 1523000    845.30365   -1901.0888     61.18788    -1839.901 
 1523200    864.57671   -1901.5329    62.582974     -1838.95 
 1523400    821.26673   -1908.4267    59.447951   -1848.9788 
 1523600    804.32146   -1901.4707    58.221356   -1843.2494 
 1523800    855.47809   -1900.2568    61.924364   -1838.3324 
 1524000    828.54312   -1903.6471    59.974658   -1843.6724 
 1524200    786.50365   -1903.9147    56.931603   -1846.9831 
 1524400    861.90065   -1903.4635    62.389266   -1841.0742 
 1524600    884.62054   -1906.8418     64.03386   -1842.8079 
 1524800    813.12525   -1904.6228    58.858625   -1845.7642 
 1525000    840.35309   -1903.8422    60.829531   -1843.0127 
 1525200    772.51765   -1898.8206    55.919217   -1842.9014 
 1525400    872.16761   -1908.4811    63.132446   -1845.3486 
 1525600    822.18454     -1905.69    59.514388   -1846.1756 
 1525800    864.60221   -1904.7273     62.58482   -1842.1425 
 1526000     837.0116   -1904.3743    60.587655   -1843.7866 
 1526200    841.89984    -1907.357    60.941493   -1846.4155 
 1526400    837.58584   -1907.3416    60.629222   -1846.7123 
 1526600    865.02987    -1905.203    62.615776   -1842.5872 
 1526800    816.65839    -1901.928    59.114374   -1842.8136 
 1527000    818.60472    -1901.581     59.25526   -1842.3258 
 1527200    827.11359   -1902.8145    59.871181   -1842.9433 
 1527400    798.72112   -1900.9588    57.815972   -1843.1428 
 1527600    834.10534   -1899.7891    60.377283   -1839.4118 
 1527800    815.06352   -1902.0656    58.998928   -1843.0667 
 1528000    791.05213   -1905.4064    57.260847   -1848.1455 
 1528200    882.95427   -1902.3484    63.913246   -1838.4352 
 1528400    855.97809   -1903.1871    61.960557   -1841.2266 
 1528600    762.30125   -1904.5046    55.179696   -1849.3249 
 1528800    865.54056   -1906.2658    62.652743   -1843.6131 
 1529000    838.43599   -1900.7534     60.69076   -1840.0627 
 1529200    828.30495   -1906.4589    59.957418   -1846.5015 
 1529400    846.30841   -1907.9459     61.26061   -1846.6853 
 1529600    846.49835   -1902.1771     61.27436   -1840.9027 
 1529800    818.64247   -1907.0934    59.257993   -1847.8354 
 1530000    824.99111   -1906.9918    59.717543   -1847.2743 
 1530200     847.9748    -1904.711    61.381234   -1843.3297 
 1530400    853.30949    -1900.637    61.767389   -1838.8696 
 1530600    840.21777   -1904.1013    60.819736   -1843.2816 
 1530800    792.59222   -1902.2426    57.372328   -1844.8702 
 1531000    808.60161    -1896.862    58.531178   -1838.3308 
 1531200    823.82079   -1898.8293    59.632829   -1839.1964 
 1531400    809.40871   -1902.1156    58.589601    -1843.526 
 1531600    848.80786   -1902.6875    61.441535   -1841.2459 
 1531800    837.96058    -1900.614    60.656347   -1839.9577 
 1532000    851.40489   -1906.0497    61.629523   -1844.4202 
 1532200    819.12172   -1901.4116    59.292683   -1842.1189 
 1532400    877.42562   -1898.7097    63.513051   -1835.1967 
 1532600    804.66244    -1899.525    58.246039    -1841.279 
 1532800    837.06408   -1906.7419    60.591454   -1846.1504 
 1533000    841.81295   -1904.1015    60.935204   -1843.1663 
 1533200    861.92636   -1903.6196    62.391127   -1841.2285 
 1533400    837.42954   -1906.3947    60.617908   -1845.7768 
 1533600    845.19312   -1903.0113     61.17988   -1841.8314 
 1533800    916.55228   -1903.3126    66.345261   -1836.9674 
 1534000    839.37099   -1908.1593    60.758441   -1847.4008 
 1534200    803.49955    -1905.768    58.161862   -1847.6061 
 1534400    907.52543   -1903.3414    65.691846   -1837.6496 
 1534600    811.38407   -1901.8306    58.732589    -1843.098 
 1534800    812.13272   -1904.3919     58.78678   -1845.6051 
 1535000    829.01827   -1902.0006    60.009052   -1841.9916 
 1535200    831.02481   -1905.8351    60.154297   -1845.6808 
 1535400    791.02351   -1900.7215    57.258776   -1843.4627 
 1535600     868.7459   -1904.2138    62.884764    -1841.329 
 1535800    791.29187   -1903.7192    57.278201    -1846.441 
 1536000    830.97778   -1900.9359    60.150893    -1840.785 
 1536200    837.30454   -1902.0813     60.60886   -1841.4724 
 1536400    816.06827   -1904.4335    59.071658   -1845.3618 
 1536600    861.05255   -1902.8369    62.327875    -1840.509 
 1536800    817.87803   -1902.1615    59.202658   -1842.9588 
 1537000    853.68283   -1906.6203    61.794413   -1844.8259 
 1537200      855.785   -1904.2473    61.946581   -1842.3007 
 1537400    843.03876   -1902.3956    61.023935   -1841.3716 
 1537600     826.5319   -1899.8856    59.829075   -1840.0565 
 1537800    835.14552   -1904.8243    60.452577   -1844.3718 
 1538000    830.53053   -1905.8049    60.118519   -1845.6864 
 1538200    863.68599   -1903.7132    62.518499   -1841.1947 
 1538400    849.82923   -1907.5586    61.515468   -1846.0431 
 1538600    862.39038   -1906.4812    62.424715   -1844.0565 
 1538800    820.56404   -1902.3071    59.397087     -1842.91 
 1539000    855.98408    -1905.849    61.960991    -1843.888 
 1539200    849.46645   -1906.6918    61.489208   -1845.2025 
 1539400    841.28989    -1903.395    60.897342   -1842.4977 
 1539600    881.10447   -1903.9756    63.779347   -1840.1962 
 1539800    841.92513    -1901.829    60.943324   -1840.8856 
 1540000    798.69175   -1900.7861    57.813847   -1842.9723 
 1540200    842.23174   -1902.3817    60.965518   -1841.4162 
 1540400    801.17716    -1900.912    57.993755   -1842.9182 
 1540600    827.95477   -1903.4309     59.93207   -1843.4988 
 1540800    848.11307   -1901.6391    61.391243   -1840.2479 
 1541000    814.74985   -1903.9065    58.976223   -1844.9303 
 1541200    811.81193   -1904.1666     58.76356    -1845.403 
 1541400    863.36165   -1900.5309    62.495021   -1838.0358 
 1541600    812.22885   -1901.4652    58.793738   -1842.6714 
 1541800    826.79405   -1902.8924    59.848051   -1843.0443 
 1542000    850.20711   -1900.8786    61.542821   -1839.3358 
 1542200    835.86428   -1902.7751    60.504605   -1842.2705 
 1542400    861.85697   -1905.6395    62.386104   -1843.2534 
 1542600    815.40911   -1901.3454    59.023944   -1842.3214 
 1542800    822.51672   -1901.2219    59.538433   -1841.6835 
 1543000    850.30587   -1903.0562     61.54997   -1841.5063 
 1543200    785.06164   -1905.1866    56.827222   -1848.3593 
 1543400      829.273   -1901.6627    60.027491   -1841.6352 
 1543600    896.28437    -1902.513    64.878155   -1837.6349 
 1543800    851.77499      -1905.4    61.656313   -1843.7437 
 1544000    835.91179   -1906.7882    60.508045   -1846.2802 
 1544200    853.21915    -1901.807    61.760849   -1840.0462 
 1544400    855.47849   -1902.9271    61.924393   -1841.0027 
 1544600    871.43237   -1906.8012    63.079226    -1843.722 
 1544800    798.07613   -1903.5458    57.769284   -1845.7765 
 1545000     863.8093   -1904.1887    62.527424   -1841.6613 
 1545200     836.0157   -1900.0991    60.515566   -1839.5835 
 1545400    840.77901   -1904.0687    60.860361   -1843.2083 
 1545600    798.37246   -1901.1047    57.790734    -1843.314 
 1545800    885.77449   -1898.7435     64.11739   -1834.6261 
 1546000    833.73548   -1903.9787    60.350511   -1843.6282 
 1546200    807.98531   -1908.2504    58.486567   -1849.7638 
 1546400    913.81626   -1904.5223    66.147213   -1838.3751 
 1546600    844.01557   -1903.5451    61.094642   -1842.4504 
 1546800    868.00762    -1910.932    62.831323   -1848.1007 
 1547000    844.61029    -1904.248    61.137691   -1843.1103 
 1547200    806.62708   -1902.2925    58.388251   -1843.9042 
 1547400    865.93993   -1904.2984    62.681651   -1841.6168 
 1547600    826.62649   -1904.2978    59.835922   -1844.4619 
 1547800     830.9839    -1905.043    60.151336   -1844.8917 
 1548000    855.59672   -1900.5758    61.932951   -1838.6428 
 1548200    834.78219   -1908.8421    60.426278   -1848.4158 
 1548400    784.05308   -1902.1041    56.754217   -1845.3499 
 1548600    907.41315   -1899.6764    65.683719   -1833.9927 
 1548800    822.29233   -1904.0296    59.522191   -1844.5074 
 1549000       863.56   -1904.8754    62.509379   -1842.3661 
 1549200    870.71336   -1903.0116    63.027179   -1839.9844 
 1549400    834.10162   -1906.9696    60.377014   -1846.5926 
 1549600    860.81534   -1905.4073    62.310705   -1843.0966 
 1549800    839.02246   -1903.3158    60.733212   -1842.5826 
 1550000    875.92348   -1907.0677    63.404318   -1843.6633 
 1550200    859.76374   -1908.6234    62.234584   -1846.3889 
 1550400    880.18681   -1907.8018    63.712922   -1844.0888 
 1550600    873.07424   -1904.3241    63.198074    -1841.126 
 1550800    848.53609   -1907.8423    61.421863   -1846.4205 
 1551000    829.38392   -1903.7612     60.03552   -1843.7257 
 1551200    905.84355   -1904.4378    65.570102   -1838.8677 
 1551400    803.06412    -1905.847    58.130343   -1847.7167 
 1551600    818.61644   -1902.0279    59.256109   -1842.7718 
 1551800    885.26641   -1907.3361    64.080612   -1843.2555 
 1552000    841.92027   -1907.0488    60.942972   -1846.1058 
 1552200    871.37203    -1905.649    63.074858   -1842.5741 
 1552400    848.63855   -1904.3167     61.42928   -1842.8875 
 1552600    814.99828   -1905.4026    58.994205   -1846.4084 
 1552800    844.16722   -1903.7024    61.105619   -1842.5968 
 1553000    815.68709   -1901.9288    59.044066   -1842.8848 
 1553200    905.99602   -1902.5536    65.581139   -1836.9724 
 1553400    810.72249   -1906.5637      58.6847    -1847.879 
 1553600    850.32814   -1904.2322    61.551581   -1842.6806 
 1553800    876.27164   -1900.2506    63.429519   -1836.8211 
 1554000    826.09348   -1905.2024    59.797339   -1845.4051 
 1554200     843.6672   -1905.9416    61.069425   -1844.8722 
 1554400    855.32595   -1900.0263    61.913352   -1838.1129 
 1554600    834.79751   -1902.9693    60.427386   -1842.5419 
 1554800    835.30899   -1904.9699     60.46441   -1844.5055 
 1555000     869.5719    -1901.978    62.944554   -1839.0335 
 1555200     864.9681   -1900.7257    62.611305   -1838.1144 
 1555400    823.12087   -1903.0749    59.582165   -1843.4927 
 1555600    866.54298   -1905.0295    62.725304   -1842.3042 
 1555800    808.97127    -1900.274    58.557937   -1841.7161 
 1556000    867.32678   -1902.6283     62.78204   -1839.8463 
 1556200    820.53599   -1902.5686    59.395057   -1843.1735 
 1556400    894.78542   -1905.9285    64.769652   -1841.1589 
 1556600    869.67239   -1904.0044    62.951828   -1841.0526 
 1556800    832.71715   -1900.5545    60.276798   -1840.2777 
 1557000    884.39985   -1902.6702    64.017886   -1838.6523 
 1557200    783.26257   -1901.6381    56.696995   -1844.9411 
 1557400    851.26156   -1903.7199    61.619148   -1842.1007 
 1557600     870.1687    -1901.951    62.987754   -1838.9632 
 1557800    828.57603   -1898.2054     59.97704   -1838.2283 
 1558000    836.68126   -1902.7548    60.563743   -1842.1911 
 1558200    810.05048   -1903.4449    58.636056   -1844.8088 
 1558400    890.10717    -1898.132    64.431014    -1833.701 
 1558600    865.77506   -1903.0153    62.669718   -1840.3456 
 1558800    800.61656   -1905.1181    57.953175   -1847.1649 
 1559000    843.87798   -1897.1917    61.084682    -1836.107 
 1559200    837.91908   -1901.1025    60.653344   -1840.4491 
 1559400     838.6288   -1906.8409    60.704717   -1846.1362 
 1559600    904.81579   -1902.3707    65.495707    -1836.875 
 1559800    853.46053   -1899.6754    61.778322   -1837.8971 
 1560000    844.32139   -1903.2698    61.116779    -1842.153 
 1560200    827.13328   -1902.6113    59.872606   -1842.7387 
 1560400    900.55649   -1902.6714    65.187395    -1837.484 
 1560600    871.90921   -1901.4052    63.113742   -1838.2915 
 1560800    801.27605   -1902.9389    58.000913    -1844.938 
 1561000    843.41097   -1901.5195    61.050877   -1840.4686 
 1561200    897.71445   -1897.2128    64.981672   -1832.2312 
 1561400    847.42945   -1905.4371    61.341758   -1844.0953 
 1561600    791.90211   -1906.2786    57.322374   -1848.9562 
 1561800    880.61706   -1901.0948    63.744066   -1837.3507 
 1562000    866.32244   -1904.5935     62.70934   -1841.8842 
 1562200    800.54887   -1907.2362    57.948275   -1849.2879 
 1562400    839.84476   -1901.9148    60.792735   -1841.1221 
 1562600    844.51937   -1899.0462     61.13111   -1837.9151 
 1562800    827.75581   -1901.8182    59.917668   -1841.9005 
 1563000    828.74319   -1904.3921     59.98914    -1844.403 
 1563200    848.25017   -1902.8419    61.401166   -1841.4407 
 1563400    893.21901   -1900.7306    64.656266   -1836.0743 
 1563600    842.88465   -1902.4075    61.012779   -1841.3947 
 1563800    798.09444   -1905.7583     57.77061   -1847.9877 
 1564000    860.79043   -1901.8113    62.308902   -1839.5024 
 1564200    816.35532   -1897.6215    59.092436   -1838.5291 
 1564400    821.40409   -1905.3368    59.457895   -1845.8789 
 1564600    857.28563   -1904.4488    62.055205   -1842.3935 
 1564800    839.56752   -1903.9088    60.772667   -1843.1361 
 1565000    871.15591   -1905.4947    63.059214   -1842.4354 
 1565200    844.21775   -1901.9164    61.109277   -1840.8071 
 1565400     831.1444   -1906.3693    60.162954   -1846.2063 
 1565600    855.58359   -1903.4755    61.932001   -1841.5435 
 1565800    826.26378   -1902.6642    59.809666   -1842.8545 
 1566000    831.46242   -1903.8578    60.185974   -1843.6718 
 1566200    835.96031   -1902.7185    60.511556   -1842.2069 
 1566400    872.39437   -1905.7417    63.148861   -1842.5929 
 1566600    846.75085   -1903.1391    61.292637   -1841.8464 
 1566800    877.65994    -1900.076    63.530013    -1836.546 
 1567000    864.60304   -1905.3939     62.58488    -1842.809 
 1567200    812.67915   -1903.4809    58.826334   -1844.6546 
 1567400     869.5596   -1901.6006    62.943664   -1838.6569 
 1567600    868.29436   -1903.0836    62.852078   -1840.2315 
 1567800    829.09601   -1903.3271    60.014679   -1843.3124 
 1568000    855.23142   -1904.0632    61.906509   -1842.1566 
 1568200    868.62959   -1901.3712    62.876344   -1838.4949 
 1568400    828.70631   -1902.5257    59.986471   -1842.5392 
 1568600     847.3037   -1906.1532    61.332655   -1844.8206 
 1568800    870.94307   -1903.2234    63.043807   -1840.1796 
 1569000    853.04431    -1902.521    61.748193   -1840.7728 
 1569200    865.62829   -1904.1635    62.659094   -1841.5044 
 1569400    819.73475   -1903.3512    59.337059   -1844.0141 
 1569600    871.59078   -1903.0986    63.090693   -1840.0079 
 1569800    865.29047   -1900.6391     62.63464   -1838.0045 
 1570000    818.65003   -1902.9794     59.25854   -1843.7208 
 1570200    857.22116   -1900.9794    62.050538   -1838.9289 
 1570400    870.13103   -1903.4146    62.985028   -1840.4296 
 1570600    837.33698    -1903.388    60.611207   -1842.7768 
 1570800     879.2492   -1903.6049    63.645052   -1839.9598 
 1571000       836.86   -1900.1045    60.576681   -1839.5279 
 1571200    848.32377   -1900.3237    61.406494   -1838.9172 
 1571400    849.60027   -1903.6278    61.498894   -1842.1289 
 1571600    853.49457   -1907.0879    61.780786   -1845.3071 
 1571800    863.15694   -1901.1252    62.480203    -1838.645 
 1572000    856.95326    -1902.648    62.031146   -1840.6168 
 1572200    830.02754   -1905.1783    60.082109   -1845.0962 
 1572400    891.31929   -1903.3919    64.518754   -1838.8732 
 1572600    790.17375   -1899.8875    57.197265   -1842.6902 
 1572800    849.24474   -1903.1897    61.473159   -1841.7165 
 1573000    870.17422   -1904.6047    62.988153   -1841.6165 
 1573200    863.45452   -1904.5129    62.501744   -1842.0112 
 1573400    878.66528   -1902.5541    63.602785   -1838.9513 
 1573600    841.28416   -1907.2172    60.896927   -1846.3203 
 1573800    843.19821   -1903.6149    61.035477   -1842.5794 
 1574000    902.99777   -1901.0525    65.364108   -1835.6884 
 1574200     833.8028   -1903.1326    60.355383   -1842.7772 
 1574400    858.88107   -1905.9224    62.170691   -1843.7517 
 1574600    877.63553   -1904.8902    63.528246   -1841.3619 
 1574800    841.20073   -1903.7047    60.890888   -1842.8138 
 1575000    794.61352   -1901.3909    57.518641   -1843.8723 
 1575200    871.59819    -1905.906    63.091229   -1842.8148 
 1575400    837.70303   -1902.0744    60.637705   -1841.4367 
 1575600     854.6548   -1900.9966     61.86477   -1839.1318 
 1575800    828.88385   -1902.4245    59.999322   -1842.4252 
 1576000    867.34118    -1903.414    62.783082   -1840.6309 
 1576200    844.60263   -1900.4829    61.137137   -1839.3458 
 1576400    835.27691    -1902.613    60.462088   -1842.1509 
 1576600    862.28553   -1901.1027    62.417125   -1838.6856 
 1576800    868.21188   -1901.5368    62.846108   -1838.6907 
 1577000    848.06681   -1903.1559    61.387893    -1841.768 
 1577200    876.29312   -1903.6366    63.431074   -1840.2055 
 1577400    867.50477   -1906.5824    62.794924   -1843.7875 
 1577600    819.96821   -1901.3527    59.353957   -1841.9987 
 1577800    891.81641   -1899.3207    64.554739    -1834.766 
 1578000    853.70892   -1904.3946    61.796301   -1842.5983 
 1578200    813.05649   -1905.2125    58.853648   -1846.3588 
 1578400    902.20878   -1900.8184    65.306997   -1835.5114 
 1578600    821.25298   -1901.5778    59.446956   -1842.1308 
 1578800    853.54835   -1905.1051    61.784679   -1843.3205 
 1579000    863.42718   -1902.8676    62.499765   -1840.3678 
 1579200    860.19765   -1904.0753    62.265993   -1841.8093 
 1579400    859.01084   -1903.8347    62.180085   -1841.6546 
 1579600    827.55227   -1905.3742    59.902935   -1845.4713 
 1579800    812.42467   -1900.3821    58.807913   -1841.5742 
 1580000      909.082   -1900.3986     65.80452   -1834.5941 
 1580200    853.21222   -1906.8721    61.760348   -1845.1117 
 1580400     829.1764   -1905.2305    60.020499     -1845.21 
 1580600    903.77282   -1902.6347    65.420211   -1837.2144 
 1580800    842.34421   -1905.7524     60.97366   -1844.7788 
 1581000     836.8486   -1904.7591    60.575856   -1844.1833 
 1581200    890.72748   -1900.0362    64.475915   -1835.5603 
 1581400    809.30469   -1901.2407    58.582071   -1842.6586 
 1581600    847.27298   -1906.4713    61.330432   -1845.1408 
 1581800    844.24051   -1900.2932    61.110924   -1839.1823 
 1582000    875.22853    -1902.195    63.354013    -1838.841 
 1582200    858.39893   -1905.0265    62.135792   -1842.8907 
 1582400    851.53261    -1903.599    61.638768   -1841.9602 
 1582600    876.96087   -1902.9752     63.47941   -1839.4958 
 1582800    833.43727   -1902.4711    60.328924   -1842.1422 
 1583000     856.8893   -1902.5529    62.026516   -1840.5264 
 1583200    846.30335   -1902.3921    61.260244   -1841.1319 
 1583400    836.78643   -1899.1184    60.571355    -1838.547 
 1583600    882.89995   -1906.3174    63.909314   -1842.4081 
 1583800    841.91796   -1904.7621    60.942805   -1843.8193 
 1584000    866.53874   -1902.2497    62.724997   -1839.5247 
 1584200    829.79595   -1904.4694    60.065345    -1844.404 
 1584400    839.77308   -1902.6886    60.787546    -1841.901 
 1584600    915.34657   -1904.0682    66.257985   -1837.8102 
 1584800    867.21056   -1905.6835    62.773627   -1842.9099 
 1585000    862.71162   -1905.4883    62.447968   -1843.0403 
 1585200      883.912    -1901.303    63.982572   -1837.3204 
 1585400    851.99116   -1901.7658     61.67196   -1840.0938 
 1585600    837.43172   -1906.0125    60.618066   -1845.3944 
 1585800    884.74404    -1903.675      64.0428   -1839.6322 
 1586000    872.23807   -1900.3307    63.137547   -1837.1932 
 1586200    871.63069   -1903.0019    63.093582   -1839.9083 
 1586400    821.90559   -1904.8593    59.494196   -1845.3651 
 1586600    827.21764   -1900.2246    59.878712   -1840.3459 
 1586800    928.83463   -1902.7525    67.234327   -1835.5182 
 1587000    808.58806   -1904.8668    58.530198   -1846.3366 
 1587200    829.01127   -1902.2934    60.008545   -1842.2848 
 1587400    947.97396    -1900.477    68.619741   -1831.8572 
 1587600    800.58621   -1904.8264    57.950978   -1846.8754 
 1587800     821.8392   -1905.9605    59.489391   -1846.4712 
 1588000    898.77452   -1901.0495    65.058406   -1835.9911 
 1588200    812.94169    -1902.248    58.845338   -1843.4026 
 1588400    822.44507   -1904.0927    59.533246   -1844.5594 
 1588600    899.80845    -1901.834    65.133248   -1836.7008 
 1588800    846.59543   -1901.4735    61.281387   -1840.1921 
 1589000    870.14375    -1906.056    62.985948     -1843.07 
 1589200    843.44483   -1903.7975    61.053328   -1842.7442 
 1589400    811.92538   -1901.7667    58.771772   -1842.9949 
 1589600    862.20381   -1900.5796     62.41121   -1838.1684 
 1589800    873.74601   -1906.9776      63.2467   -1843.7309 
 1590000    840.33756   -1905.3926    60.828407   -1844.5642 
 1590200    897.21621    -1903.548    64.945606   -1838.6024 
 1590400    837.10249    -1905.419    60.594234   -1844.8247 
 1590600    840.57808   -1906.2308    60.845817    -1845.385 
 1590800    843.77794   -1901.5428    61.077441   -1840.4654 
 1591000    826.61849   -1901.9768    59.835342   -1842.1415 
 1591200    879.57186   -1905.7762    63.668408   -1842.1078 
 1591400    825.96392   -1901.8514    59.787961   -1842.0635 
 1591600    857.11474   -1901.4564    62.042834   -1839.4135 
 1591800     844.0188   -1903.1046    61.094876   -1842.0098 
 1592000    901.19696   -1906.3341    65.233756   -1841.1004 
 1592200    861.55868    -1903.326    62.364512   -1840.9615 
 1592400    863.47634   -1902.4767    62.503323   -1839.9733 
 1592600    814.57937   -1901.9581    58.963883   -1842.9942 
 1592800    846.31341   -1904.6785    61.260973   -1843.4175 
 1593000    872.93003   -1903.3188    63.187635   -1840.1311 
 1593200    838.21348    -1898.809    60.674654   -1838.1343 
 1593400    855.97559   -1902.8175    61.960376   -1840.8571 
 1593600    795.75869   -1902.1185    57.601535   -1844.5169 
 1593800    869.86443   -1902.5176     62.96573   -1839.5518 
 1594000    882.53104   -1903.9856    63.882611    -1840.103 
 1594200    856.56705   -1905.4835    62.003189   -1843.4803 
 1594400    903.86289   -1905.1404    65.426731   -1839.7137 
 1594600    889.21213   -1900.1909    64.366226   -1835.8247 
 1594800    812.00263   -1901.0207    58.777364   -1842.2434 
 1595000    859.20945   -1906.0295    62.194461    -1843.835 
 1595200    876.31057   -1900.7307    63.432337   -1837.2983 
 1595400    859.63508   -1902.3138    62.225271   -1840.0885 
 1595600    841.13302   -1903.0776    60.885986   -1842.1916 
 1595800    848.01423   -1902.2385    61.384088   -1840.8544 
 1596000    909.05504   -1901.4223    65.802568   -1835.6197 
 1596200     866.5559   -1905.2557    62.726239   -1842.5294 
 1596400    833.69846   -1907.8359    60.347831    -1847.488 
 1596600    885.52472   -1902.6756     64.09931   -1838.5763 
 1596800    889.90221   -1901.2023    64.416177   -1836.7861 
 1597000    803.54624   -1904.8008    58.165242   -1846.6355 
 1597200    856.22166   -1901.9739    61.978188   -1839.9957 
 1597400    892.21141   -1899.4951    64.583331   -1834.9118 
 1597600     830.7566   -1901.9415    60.134883   -1841.8066 
 1597800    799.15558    -1901.051    57.847421   -1843.2036 
 1598000    856.66727   -1901.6054    62.010444    -1839.595 
 1598200    891.43122   -1899.6719    64.526856   -1835.1451 
 1598400    855.74883   -1899.3446    61.943962   -1837.4007 
 1598600    836.48992   -1903.3133    60.549892   -1842.7635 
 1598800     886.1533   -1901.9897     64.14481   -1837.8449 
 1599000    879.47085   -1902.1541    63.661096    -1838.493 
 1599200    795.01965   -1903.1614    57.548039   -1845.6134 
 1599400     851.5202     -1904.75    61.637869   -1843.1121 
 1599600    917.00076   -1901.1255    66.377725   -1834.7477 
 1599800    834.68383   -1903.1189    60.419157   -1842.6997 
 1600000    838.01118   -1903.1205     60.66001   -1842.4605 
 1600200    840.72449    -1899.935    60.856415   -1839.0785 
 1600400    858.51504   -1902.1784    62.144196   -1840.0342 
 1600600    817.27652   -1901.5638    59.159118   -1842.4047 
 1600800    809.57601   -1899.2601    58.601711   -1840.6583 
 1601000    879.35334   -1899.5553     63.65259   -1835.9027 
 1601200    824.78421   -1902.2836    59.702567   -1842.5811 
 1601400    853.32014   -1902.2752     61.76816   -1840.5071 
 1601600     933.1015   -1901.5343    67.543188   -1833.9912 
 1601800    879.29405   -1903.3821    63.648299   -1839.7338 
 1602000    822.92846   -1900.3338    59.568237   -1840.7656 
 1602200    873.25477   -1898.2151    63.211141   -1835.0039 
 1602400    893.94461   -1903.9226     64.70879   -1839.2138 
 1602600    852.84699   -1903.9007     61.73391   -1842.1668 
 1602800    860.85239   -1901.3868    62.313387   -1839.0734 
 1603000    860.49085   -1899.4068    62.287217   -1837.1196 
 1603200    864.02643   -1902.6097    62.543142   -1840.0665 
 1603400    852.91486     -1903.47    61.738823   -1841.7311 
 1603600    897.49862   -1898.8041    64.966049   -1833.8381 
 1603800    831.21849   -1901.0085    60.168316   -1840.8402 
 1604000    835.23703   -1903.8774    60.459202   -1843.4181 
 1604200    851.79902   -1900.9199    61.658052   -1839.2619 
 1604400    875.31109   -1900.8407     63.35999   -1837.4807 
 1604600    876.69083   -1903.7933    63.459863   -1840.3334 
 1604800    852.23931    -1902.458    61.689923   -1840.7681 
 1605000    845.86126   -1898.2145    61.228244   -1836.9862 
 1605200    874.28014   -1901.7149    63.285364   -1838.4295 
 1605400    856.98756   -1904.7827    62.033628    -1842.749 
 1605600    846.03635   -1903.6111    61.240917   -1842.3701 
 1605800      843.543   -1904.6354    61.060435    -1843.575 
 1606000    835.38059   -1899.1629    60.469593   -1838.6933 
 1606200    878.21761   -1902.3699     63.57038   -1838.7996 
 1606400    847.14591   -1904.7501    61.321234   -1843.4289 
 1606600     877.4096   -1899.6351    63.511892   -1836.1232 
 1606800    887.76411   -1901.9796     64.26141   -1837.7182 
 1607000    801.85912   -1905.9832    58.043118   -1847.9401 
 1607200     888.8963   -1900.5058    64.343364   -1836.1625 
 1607400     885.8022   -1899.3391    64.119396   -1835.2197 
 1607600    805.63877   -1900.7269    58.316711   -1842.4102 
 1607800    886.42676   -1904.7203    64.164605   -1840.5557 
 1608000    832.88175    -1902.105    60.288713   -1841.8163 
 1608200    882.81802   -1902.5564    63.903384    -1838.653 
 1608400    882.92055   -1906.5997    63.910805   -1842.6889 
 1608600    875.86854   -1905.4932    63.400341   -1842.0928 
 1608800    850.67134   -1900.6631    61.576424   -1839.0867 
 1609000    832.01797   -1900.6954    60.226188   -1840.4692 
 1609200     884.4789   -1904.4951    64.023608   -1840.4715 
 1609400    889.61578   -1901.4834    64.395444    -1837.088 
 1609600    865.51523   -1904.6893    62.650909   -1842.0384 
 1609800    873.73454   -1904.1095     63.24587   -1840.8637 
 1610000    890.84914   -1903.4615    64.484722   -1838.9767 
 1610200    820.78961   -1902.1172    59.413415   -1842.7038 
 1610400    879.75506   -1899.9793     63.68167   -1836.2976 
 1610600    885.78899   -1902.7352    64.118439   -1838.6168 
 1610800    809.37909   -1905.1934    58.587457    -1846.606 
 1611000    907.02534   -1904.6802    65.655647   -1839.0245 
 1611200    885.89733   -1904.5762    64.126282   -1840.4499 
 1611400    852.55576   -1903.7219    61.712829   -1842.0091 
 1611600    883.02545   -1902.3135    63.918398   -1838.3951 
 1611800    846.57909   -1903.7127    61.280204   -1842.4325 
 1612000    834.43857   -1900.4578    60.401404   -1840.0564 
 1612200    884.22252   -1903.8764    64.005049   -1839.8713 
 1612400    849.36861   -1905.5683    61.482125   -1844.0862 
 1612600    866.35176   -1901.4764    62.711462   -1838.7649 
 1612800     855.6577   -1901.2511    61.937365   -1839.3137 
 1613000    800.31718   -1903.6687    57.931504   -1845.7372 
 1613200    912.13226   -1905.8748    66.025315   -1839.8495 
 1613400    862.79415   -1902.4983    62.453942   -1840.0444 
 1613600    831.00573    -1901.629    60.152916    -1841.476 
 1613800    845.69024   -1903.0356    61.215864   -1841.8198 
 1614000    881.85098   -1902.1344    63.833384    -1838.301 
 1614200    883.91621   -1904.5935    63.982877   -1840.6106 
 1614400    855.43036   -1904.0175    61.920909   -1842.0966 
 1614600    858.43135   -1904.3543    62.138138   -1842.2162 
 1614800    954.36607   -1905.9796    69.082438   -1836.8971 
 1615000    850.99025   -1903.4205    61.599509    -1841.821 
 1615200    854.83262   -1904.8248    61.877641   -1842.9472 
 1615400    953.16043   -1904.9043    68.995167   -1835.9091 
 1615600    842.49105   -1904.1521    60.984288   -1843.1678 
 1615800    869.90845   -1905.8795    62.968916   -1842.9106 
 1616000    884.55318   -1898.9129    64.028984    -1834.884 
 1616200    909.23666   -1905.9856    65.815715   -1840.1698 
 1616400    810.22864   -1905.7226    58.648952   -1847.0736 
 1616600     873.9357   -1903.6366    63.260431   -1840.3762 
 1616800    872.02893   -1901.3559    63.122408   -1838.2335 
 1617000     912.5334   -1906.1154    66.054351   -1840.0611 
 1617200    833.06051   -1905.0706    60.301653   -1844.7689 
 1617400     880.1303   -1902.9675    63.708832   -1839.2587 
 1617600    886.55248    -1903.619    64.173705   -1839.4453 
 1617800    832.85861   -1907.9041    60.287038    -1847.617 
 1618000    883.66516   -1902.9482    63.964705   -1838.9835 
 1618200     858.0671   -1902.8773    62.111772   -1840.7656 
 1618400    841.48514    -1906.415    60.911475   -1845.5036 
 1618600    887.70952   -1901.6597    64.257459   -1837.4022 
 1618800    870.87757   -1902.7825    63.039066   -1839.7434 
 1619000    835.13993   -1905.7067    60.452173   -1845.2545 
 1619200    883.42137   -1905.0657    63.947058   -1841.1186 
 1619400    865.58805   -1906.2529    62.656181   -1843.5967 
 1619600    859.54448   -1908.0908    62.218713   -1845.8721 
 1619800    885.05016   -1904.1215    64.064959   -1840.0565 
 1620000    813.18551   -1904.2697    58.862987   -1845.4067 
 1620200    899.35543   -1909.6752    65.100455   -1844.5748 
 1620400    911.08508   -1904.3531    65.949514   -1838.4035 
 1620600    842.75814   -1902.5238    61.003622   -1841.5202 
 1620800    890.43543   -1905.9328    64.454775   -1841.4781 
 1621000    834.35589    -1904.351     60.39542   -1843.9556 
 1621200    830.77287   -1901.9882     60.13606   -1841.8522 
 1621400    909.10989   -1902.7677    65.806538   -1836.9612 
 1621600    897.61398    -1907.299    64.974399   -1842.3246 
 1621800    864.35072   -1906.8762    62.566616   -1844.3096 
 1622000    911.48104   -1904.8098    65.978176   -1838.8316 
 1622200     874.8638   -1905.5876    63.327612     -1842.26 
 1622400     834.4926    -1905.135    60.405315   -1844.7297 
 1622600    855.63743   -1902.9214    61.935899   -1840.9855 
 1622800    840.14706   -1903.3605    60.814617   -1842.5458 
 1623000     884.3568   -1903.8224    64.014769   -1839.8076 
 1623200    850.25911   -1903.8331    61.546585   -1842.2865 
 1623400     847.0247   -1907.5956     61.31246   -1846.2831 
 1623600    906.07805   -1904.8436    65.587077   -1839.2565 
 1623800    851.36761    -1903.628    61.626825   -1842.0012 
 1624000    848.15918   -1903.7976     61.39458    -1842.403 
 1624200    877.60098   -1900.0528    63.525745    -1836.527 
 1624400    894.23003   -1905.0494     64.72945     -1840.32 
 1624600    868.95625   -1907.2412     62.89999   -1844.3412 
 1624800    907.32696   -1907.2789     65.67748   -1841.6014 
 1625000    833.19511   -1901.5933    60.311395   -1841.2819 
 1625200    843.98539   -1900.7711    61.092457   -1839.6786 
 1625400    856.23025   -1907.5669     61.97881   -1845.5881 
 1625600    837.05574   -1903.9926     60.59085   -1843.4018 
 1625800    919.84546   -1900.4005     66.58364   -1833.8169 
 1626000     833.8242   -1907.9447    60.356933   -1847.5877 
 1626200    847.74582   -1905.6279    61.364658   -1844.2633 
 1626400    875.40942   -1900.2674    63.367107   -1836.9003 
 1626600    826.95581    -1903.423    59.859759   -1843.5632 
 1626800     864.7041   -1906.7662    62.592195    -1844.174 
 1627000    879.99076   -1905.0244    63.698731   -1841.3257 
 1627200    830.32386   -1902.3142    60.103558   -1842.2107 
 1627400    878.84846   -1904.3031    63.616044   -1840.6871 
 1627600    883.98884   -1905.4922    63.988134   -1841.5041 
 1627800    916.28554   -1906.4274    66.325953   -1840.1015 
 1628000    904.72152   -1906.0598    65.488884    -1840.571 
 1628200    840.96263   -1905.2156    60.873653   -1844.3419 
 1628400    889.34432   -1903.3058    64.375794     -1838.93 
 1628600    856.32182    -1903.732    61.985438   -1841.7466 
 1628800    863.86846   -1904.4303    62.531707   -1841.8985 
 1629000    916.97768   -1903.6185    66.376054   -1837.2425 
 1629200    838.78046   -1905.9751    60.715695   -1845.2594 
 1629400     854.9334   -1907.2819    61.884936   -1845.3969 
 1629600    869.67127   -1901.1822    62.951747   -1838.2305 
 1629800    825.10177   -1904.9022    59.725554   -1845.1767 
 1630000    862.71598    -1903.624    62.448284   -1841.1757 
 1630200    872.68031   -1903.0836    63.169559    -1839.914 
 1630400    846.80116   -1904.7482    61.296279   -1843.4519 
 1630600    859.88059   -1902.2993    62.243042   -1840.0562 
 1630800      893.105   -1904.7265    64.648014   -1840.0784 
 1631000    849.55133   -1905.8773    61.495352    -1844.382 
 1631200     936.4785   -1909.4871    67.787634   -1841.6995 
 1631400    869.06647    -1904.431    62.907968    -1841.523 
 1631600    824.61249   -1902.1888    59.690137   -1842.4986 
 1631800    873.26447   -1904.2925    63.211844   -1841.0807 
 1632000    865.31211   -1905.1169    62.636206   -1842.4807 
 1632200    903.37331   -1907.2166    65.391292   -1841.8253 
 1632400    884.66243   -1907.8344    64.036893   -1843.7975 
 1632600    834.75861    -1905.102    60.424571   -1844.6774 
 1632800     882.4709    -1898.652    63.878257   -1834.7737 
 1633000    860.11071   -1903.2907      62.2597    -1841.031 
 1633200    855.75233   -1907.4518    61.944215   -1845.5076 
 1633400    894.57034   -1901.3017    64.754083   -1836.5476 
 1633600    918.22231   -1901.3853    66.466147   -1834.9191 
 1633800    860.49249   -1907.1276    62.287335   -1844.8403 
 1634000    902.85182   -1906.4614    65.353544   -1841.1078 
 1634200    928.99493   -1903.2202    67.245931   -1835.9742 
 1634400    843.19052   -1900.5848     61.03492   -1839.5499 
 1634600    860.83919   -1904.0463    62.312431   -1841.7339 
 1634800    878.81908   -1900.9822    63.613918   -1837.3683 
 1635000    844.49341   -1901.2368    61.129231   -1840.1076 
 1635200    881.22283   -1906.6298    63.787914   -1842.8419 
 1635400    847.11673   -1902.4321    61.319122    -1841.113 
 1635600    853.93619   -1901.4614    61.812753   -1839.6487 
 1635800    851.51042   -1901.7055    61.637162   -1840.0684 
 1636000    893.92651    -1903.529    64.707479   -1838.8215 
 1636200    846.12195   -1903.5777    61.247114   -1842.3306 
 1636400    879.11109    -1906.103    63.635055   -1842.4679 
 1636600    881.88674   -1903.9378    63.835973   -1840.1018 
 1636800    903.95095   -1905.7997    65.433105   -1840.3666 
 1637000    848.45342   -1904.9827    61.415879   -1843.5669 
 1637200    890.00981    -1905.222    64.423966    -1840.798 
 1637400    854.18931   -1903.0015    61.831075   -1841.1704 
 1637600    884.53188   -1904.6004    64.027443    -1840.573 
 1637800    867.01749   -1902.5182    62.759651   -1839.7586 
 1638000    889.07953   -1904.0064    64.356628   -1839.6498 
 1638200     868.9108   -1903.6162      62.8967   -1840.7195 
 1638400    872.13383   -1903.9496    63.130002   -1840.8195 
 1638600    869.32486    -1901.654    62.926672   -1838.7274 
 1638800    915.42762   -1906.9313    66.263852   -1840.6674 
 1639000    840.27714   -1903.5801    60.824033   -1842.7561 
 1639200     922.8627   -1903.4089    66.802045   -1836.6069 
 1639400    902.57334   -1906.0416    65.333386   -1840.7082 
 1639600    823.40473    -1904.128    59.602712   -1844.5252 
 1639800    917.87295   -1904.0105    66.440858   -1837.5696 
 1640000    912.95784   -1902.0408    66.085075   -1835.9557 
 1640200     845.9047   -1902.7741    61.231388   -1841.5427 
 1640400    869.55035   -1904.7466    62.942994   -1841.8036 
 1640600    881.12989   -1903.7698    63.781187   -1839.9887 
 1640800    932.04034   -1905.8171    67.466375   -1838.3507 
 1641000    875.50962   -1906.8446     63.37436   -1843.4703 
 1641200    863.44199   -1906.7416    62.500837   -1844.2408 
 1641400    883.14581   -1902.8856    63.927111   -1838.9585 
 1641600    871.56634   -1903.0508    63.088923   -1839.9619 
 1641800    852.93215   -1904.4007    61.740075   -1842.6606 
 1642000    902.38566   -1902.4663    65.319801   -1837.1465 
 1642200    884.17767   -1901.1848    64.001803    -1837.183 
 1642400    857.92828    -1905.736    62.101723   -1843.6343 
 1642600    862.54363   -1903.8916    62.435808   -1841.4558 
 1642800    881.33403   -1906.1552    63.795964   -1842.3592 
 1643000    875.21689   -1904.4527    63.353171   -1841.0995 
 1643200    868.64286   -1902.2777    62.877305   -1839.4004 
 1643400    869.74135    -1907.532     62.95682   -1844.5752 
 1643600    862.16657   -1902.5734    62.408514   -1840.1649 
 1643800    909.42647   -1902.1324    65.829454   -1836.3029 
 1644000    834.17018   -1902.5918    60.381976   -1842.2099 
 1644200    846.41396   -1903.3771    61.268251   -1842.1089 
 1644400    869.48293   -1902.8349    62.938114   -1839.8968 
 1644600    860.84413   -1902.4704    62.312789   -1840.1576 
 1644800     874.7333   -1906.7597    63.318166   -1843.4415 
 1645000    912.69633   -1907.8911    66.066146   -1841.8249 
 1645200    893.59993   -1906.4839     64.68384   -1841.8001 
 1645400    874.95434   -1905.0562    63.334166    -1841.722 
 1645600    908.85019   -1904.3125     65.78774   -1838.5248 
 1645800    887.62098   -1903.7231     64.25105    -1839.472 
 1646000    868.95576   -1907.7323    62.899954   -1844.8323 
 1646200    921.33708   -1906.5626    66.691612    -1839.871 
 1646400    890.30358   -1903.4872    64.445231    -1839.042 
 1646600      845.145   -1905.0268    61.176397   -1843.8504 
 1646800    867.69505   -1904.1036    62.808697   -1841.2949 
 1647000    862.48896   -1898.1638    62.431851    -1835.732 
 1647200    899.05225   -1902.8879     65.07851   -1837.8094 
 1647400    827.16128   -1903.8037    59.874632    -1843.929 
 1647600    872.60036   -1899.5424    63.163771   -1836.3786 
 1647800    883.96017   -1894.5936    63.986059   -1830.6075 
 1648000    861.40018   -1902.9688    62.353039   -1840.6158 
 1648200    845.03194   -1906.9915    61.168213   -1845.8233 
 1648400    921.96349   -1902.0019    66.736955   -1835.2649 
 1648600    954.44371    -1903.507    69.088058    -1834.419 
 1648800    840.61161   -1905.1022    60.848244   -1844.2539 
 1649000    864.04751   -1900.6744    62.544668   -1838.1298 
 1649200    899.87089   -1902.8049    65.137767   -1837.6671 
 1649400    798.54041   -1903.6861    57.802892   -1845.8832 
 1649600    903.43965   -1903.4117    65.396095   -1838.0156 
 1649800     903.0114   -1898.7999    65.365095   -1833.4348 
 1650000    896.45265   -1904.4196    64.890336   -1839.5293 
 1650200     913.6842   -1906.9892    66.137654   -1840.8516 
 1650400      869.354   -1896.4656    62.928781   -1833.5368 
 1650600    885.50529   -1901.3746    64.097904   -1837.2767 
 1650800    804.25495   -1904.0776    58.216542   -1845.8611 
 1651000    909.29648   -1904.1922    65.820045   -1838.3722 
 1651200    890.72821   -1898.4979    64.475968   -1834.0219 
 1651400    850.12364   -1904.2346    61.536779   -1842.6978 
 1651600    881.78248    -1901.003    63.828426   -1837.1746 
 1651800    913.00021   -1900.9737    66.088142   -1834.8856 
 1652000    852.00703   -1904.7544    61.673109   -1843.0813 
 1652200    930.44982   -1906.7802    67.351244    -1839.429 
 1652400    928.88184    -1901.364    67.237744   -1834.1262 
 1652600    844.65595   -1900.0212    61.140996   -1838.8802 
 1652800    860.11074   -1901.1323    62.259702   -1838.8726 
 1653000    868.66824   -1898.5576    62.879142   -1835.6785 
 1653200    905.31095   -1900.4347     65.53155   -1834.9032 
 1653400    818.92833   -1900.6294    59.278685   -1841.3507 
 1653600    865.10067   -1901.2923    62.620902   -1838.6714 
 1653800    883.57408   -1900.9021    63.958112    -1836.944 
 1654000    871.41062   -1904.3738    63.077652   -1841.2961 
 1654200     909.1877   -1904.1032    65.812171   -1838.2911 
 1654400    872.30732   -1905.8978    63.142559   -1842.7552 
 1654600    861.57673   -1900.0031    62.365818   -1837.6372 
 1654800    923.77719   -1898.8337    66.868241   -1831.9655 
 1655000     847.9083   -1906.2278     61.37642   -1844.8514 
 1655200    863.07558   -1904.1617    62.474314   -1841.6874 
 1655400    910.08548    -1899.841    65.877157   -1833.9639 
 1655600    827.86476   -1903.1785    59.925555   -1843.2529 
 1655800    877.30069    -1902.802    63.504008    -1839.298 
 1656000    874.50162   -1900.0526    63.301395   -1836.7512 
 1656200    881.66603   -1902.4091    63.819996   -1838.5891 
 1656400     896.7257   -1905.7844      64.9101   -1840.8743 
 1656600    840.46757   -1903.1033    60.837818   -1842.2655 
 1656800    847.08828   -1900.4432    61.317062   -1839.1261 
 1657000    901.24478   -1902.4732    65.237217    -1837.236 
 1657200    840.23308   -1904.6359    60.820844   -1843.8151 
 1657400    872.62172   -1901.7307    63.165318   -1838.5654 
 1657600    909.90322   -1901.2923    65.863965   -1835.4284 
 1657800    824.78693   -1905.9021    59.702764   -1846.1993 
 1658000    918.91432   -1901.5452    66.516239    -1835.029 
 1658200    912.32948   -1904.0365    66.039591   -1837.9969 
 1658400    812.42193   -1906.1596    58.807715   -1847.3519 
 1658600    953.91927   -1903.4581    69.050096    -1834.408 
 1658800     894.7552   -1905.8104    64.767464   -1841.0429 
 1659000     862.0231   -1906.3441    62.398129    -1843.946 
 1659200     939.7205   -1907.0975    68.022309   -1839.0752 
 1659400    826.90659    -1905.456    59.856197   -1845.5998 
 1659600    842.08792   -1902.7889    60.955108   -1841.8338 
 1659800    911.69989   -1904.6815    65.994018   -1838.6875 
 1660000     897.0912   -1908.8138    64.936558   -1843.8773 
 1660200    902.89411   -1907.0763    65.356605   -1841.7197 
 1660400    862.18515   -1900.2075    62.409859   -1837.7976 
 1660600    901.02603   -1903.2465    65.221383   -1838.0251 
 1660800    854.96974   -1906.2722    61.887567   -1844.3846 
 1661000     864.0093   -1904.5998    62.541902   -1842.0579 
 1661200    944.19447   -1902.6264     68.34616   -1834.2802 
 1661400    835.59859   -1904.6106    60.485373   -1844.1252 
 1661600    840.15885   -1904.7145    60.815471    -1843.899 
 1661800    949.05893   -1903.0244    68.698277   -1834.3262 
 1662000    886.81067   -1905.4096    64.192395   -1841.2172 
 1662200    882.21211   -1906.7394    63.859524   -1842.8799 
 1662400    836.90604   -1900.6338    60.580014   -1840.0538 
 1662600    907.13621   -1903.7033    65.663672   -1838.0396 
 1662800    861.38368   -1902.6221    62.351845   -1840.2703 
 1663000    873.30204   -1903.7458    63.214563   -1840.5312 
 1663200    891.17864   -1904.3997    64.508573   -1839.8911 
 1663400    888.87747   -1904.4416    64.342002   -1840.0996 
 1663600    881.67994   -1906.3092    63.821003   -1842.4882 
 1663800    871.40981   -1906.6338    63.077593   -1843.5562 
 1664000    921.33771   -1907.0395    66.691658   -1840.3478 
 1664200    868.49436   -1902.7907    62.866556   -1839.9241 
 1664400     896.5356   -1904.4679     64.89634   -1839.5715 
 1664600    856.61307   -1905.2466    62.006521     -1843.24 
 1664800    877.93537   -1904.2915     63.54995   -1840.7416 
 1665000    892.53187   -1905.4766    64.606527     -1840.87 
 1665200    878.84733   -1906.4376    63.615963   -1842.8217 
 1665400    912.30736    -1907.122    66.037989    -1841.084 
 1665600    843.80514   -1900.0926     61.07941   -1839.0132 
 1665800     919.1497   -1902.1969    66.533277   -1835.6636 
 1666000    868.33959   -1904.3453    62.855353   -1841.4899 
 1666200    835.37127   -1904.2528    60.468919   -1843.7839 
 1666400    868.04004   -1903.2816     62.83367    -1840.448 
 1666600    943.89598   -1904.3614    68.324554   -1836.0369 
 1666800    863.95018   -1905.2345    62.537623   -1842.6969 
 1667000    846.05231   -1907.1444    61.242073   -1845.9023 
 1667200    973.51767   -1906.3574     70.46874   -1835.8887 
 1667400    892.25819   -1906.5081    64.586717   -1841.9214 
 1667600    854.07179   -1908.4523    61.822568   -1846.6297 
 1667800    888.23312   -1902.1132    64.295359   -1837.8179 
 1668000    917.82028   -1904.5757    66.437046   -1838.1386 
 1668200    876.60384   -1907.2142    63.453566   -1843.7607 
 1668400    854.23313   -1903.8284    61.834247   -1841.9941 
 1668600    908.33638     -1903.01    65.750547   -1837.2595 
 1668800    934.56834     -1905.99    67.649366   -1838.3406 
 1669000    837.76815   -1906.9887    60.642418   -1846.3463 
 1669200    880.63747   -1903.1774    63.745543   -1839.4318 
 1669400    925.52641   -1899.5371     66.99486   -1832.5423 
 1669600    804.08216   -1901.7619    58.204035   -1843.5579 
 1669800    886.85346   -1907.9798    64.195492   -1843.7843 
 1670000    919.06636   -1906.1357    66.527245   -1839.6084 
 1670200    902.63633   -1904.9318    65.337946   -1839.5938 
 1670400     901.3697   -1903.9279     65.24626   -1838.6816 
 1670600     893.0507   -1903.2706    64.644083   -1838.6265 
 1670800     870.1905   -1906.2379    62.989332   -1843.2486 
 1671000    847.96136   -1905.4058    61.380261   -1844.0256 
 1671200    932.18701   -1904.5377    67.476991   -1837.0607 
 1671400    861.79866   -1902.8887    62.381883   -1840.5068 
 1671600    892.69461   -1904.1965    64.618307   -1839.5782 
 1671800    872.48381   -1902.4246    63.155335   -1839.2693 
 1672000     895.2515   -1901.8406     64.80339   -1837.0372 
 1672200    888.77383   -1903.5277    64.334499   -1839.1932 
 1672400    883.73648   -1906.5521    63.969867   -1842.5822 
 1672600     872.0586   -1904.9151    63.124556   -1841.7906 
 1672800    868.18654   -1900.0935    62.844274   -1837.2492 
 1673000    874.29362   -1905.9045    63.286339   -1842.6181 
 1673200    831.87217   -1905.6459    60.215634   -1845.4303 
 1673400    949.82435   -1907.9646    68.753682   -1839.2109 
 1673600     883.6621   -1903.6298    63.964483   -1839.6653 
 1673800    870.83735   -1901.1915    63.036155   -1838.1553 
 1674000    917.53412   -1905.4598    66.416332   -1839.0435 
 1674200    845.68449   -1905.1253    61.215448   -1843.9099 
 1674400    867.01166   -1901.8301    62.759229   -1839.0709 
 1674600    887.67918   -1901.3296    64.255262   -1837.0743 
 1674800    829.64249    -1903.725    60.054237   -1843.6707 
 1675000     877.9394   -1902.6021    63.550242   -1839.0519 
 1675200    912.63404   -1908.0443    66.061637   -1841.9826 
 1675400    859.91797   -1905.5356    62.245748   -1843.2898 
 1675600    888.02951   -1900.5432    64.280621   -1836.2626 
 1675800    924.78713     -1906.84    66.941346   -1839.8986 
 1676000    839.30211   -1904.1335    60.753455     -1843.38 
 1676200    959.97919   -1903.7599    69.488748   -1834.2711 
 1676400    860.59341   -1903.8209    62.294641   -1841.5263 
 1676600    866.90655   -1906.1687    62.751621    -1843.417 
 1676800    895.53139   -1899.5477    64.823649   -1834.7241 
 1677000    878.97358   -1901.2017    63.625101   -1837.5766 
 1677200    897.87956   -1906.3192    64.993624   -1841.3256 
 1677400     880.1505   -1904.2629    63.710293   -1840.5527 
 1677600    881.66642   -1902.2584    63.820025   -1838.4383 
 1677800    872.04254   -1900.9897    63.123394   -1837.8663 
 1678000    885.67005   -1906.9477     64.10983   -1842.8379 
 1678200    839.08971   -1904.8867     60.73808   -1844.1486 
 1678400    908.55339   -1903.5876    65.766256   -1837.8213 
 1678600    881.94918    -1906.388    63.840492   -1842.5475 
 1678800     902.8941   -1903.9249    65.356605   -1838.5683 
 1679000    930.10729    -1904.902     67.32645   -1837.5756 
 1679200    880.36428   -1906.4082    63.725768   -1842.6824 
 1679400    855.72735   -1903.7184    61.942407    -1841.776 
 1679600    936.73079   -1903.6496    67.805897   -1835.8437 
 1679800    869.51702   -1903.4328    62.940582   -1840.4922 
 1680000    920.23617   -1908.2561    66.611922   -1841.6442 
 1680200     881.4276   -1906.2226    63.802737   -1842.4199 
 1680400    908.30544   -1905.4093    65.748308    -1839.661 
 1680600    903.15475   -1900.7981    65.375472   -1835.4226 
 1680800    796.70537   -1904.2074    57.670061   -1846.5373 
 1681000    870.97332   -1901.0991    63.045997   -1838.0531 
 1681200    949.11777   -1901.0971    68.702536   -1832.3946 
 1681400    930.65733   -1910.7599    67.366265   -1843.3937 
 1681600    849.01914    -1905.086    61.456829   -1843.6291 
 1681800    898.56604   -1900.3959    65.043315   -1835.3526 
 1682000    901.29111   -1901.7217    65.240571   -1836.4811 
 1682200    873.71364   -1901.4831    63.244357   -1838.2388 
 1682400    875.11095   -1903.1318    63.345503   -1839.7863 
 1682600    849.66686   -1902.1112    61.503714   -1840.6075 
 1682800    922.57232   -1902.8183    66.781026   -1836.0373 
 1683000    891.49596   -1902.1147    64.531542   -1837.5831 
 1683200     849.2514   -1899.7613    61.473641   -1838.2876 
 1683400    966.26286   -1902.0529    69.943595   -1832.1093 
 1683600    923.47824    -1903.202    66.846601   -1836.3554 
 1683800     863.5215    -1901.419    62.506592   -1838.9124 
 1684000    925.58888   -1904.6601    66.999381   -1837.6607 
 1684200    898.06426   -1904.7969    65.006994   -1839.7899 
 1684400    927.45065    -1904.042    67.134147   -1836.9079 
 1684600    902.12509   -1904.3959    65.300939    -1839.095 
 1684800    908.87326   -1902.7325     65.78941   -1836.9431 
 1685000     900.3163   -1901.9272    65.170009   -1836.7572 
 1685200    870.52102   -1904.1577    63.013257   -1841.1444 
 1685400    925.23791   -1902.5196    66.973977   -1835.5457 
 1685600    899.73817   -1899.5329     65.12816   -1834.4047 
 1685800    873.32224   -1898.3993    63.216025   -1835.1833 
 1686000    871.35574   -1902.6829    63.073679   -1839.6092 
 1686200    881.53826   -1905.3031    63.810748   -1841.4923 
 1686400    870.70665   -1893.8089    63.026694   -1830.7822 
 1686600     894.7311   -1899.5886     64.76572   -1834.8229 
 1686800    840.33766   -1904.6855    60.828414   -1843.8571 
 1687000    951.67368   -1900.7101    68.887547   -1831.8226 
 1687200    843.88661   -1899.1653    61.085307     -1838.08 
 1687400    887.98402   -1907.6876    64.277328   -1843.4103 
 1687600    893.61484   -1905.2474    64.684919   -1840.5624 
 1687800    876.52125   -1903.1414    63.447588   -1839.6938 
 1688000      937.107   -1903.8034    67.833128   -1835.9703 
 1688200    873.08499   -1902.3204    63.198852   -1839.1216 
 1688400    898.73884   -1903.8989    65.055823    -1838.843 
 1688600    908.44187    -1901.161    65.758184   -1835.4028 
 1688800    871.60431   -1905.2155    63.091672   -1842.1238 
 1689000     877.9229   -1906.2622    63.549047   -1842.7132 
 1689200    899.56524   -1898.3031    65.115642   -1833.1875 
 1689400    885.16376   -1898.8481    64.073182   -1834.7749 
 1689600    854.06275   -1903.2789    61.821914    -1841.457 
 1689800    913.33891   -1904.5128    66.112659   -1838.4001 
 1690000    907.83571   -1900.5749    65.714306   -1834.8606 
 1690200    897.36186   -1900.6834    64.956149   -1835.7273 
 1690400    913.85468   -1908.1304    66.149994   -1841.9804 
 1690600    901.59411   -1905.8993    65.262504   -1840.6368 
 1690800     929.1235    -1900.452    67.255237   -1833.1968 
 1691000    847.17166   -1904.0985    61.323098   -1842.7754 
 1691200    851.79992   -1906.1725    61.658118   -1844.5144 
 1691400    906.19078   -1901.9219    65.595237   -1836.3267 
 1691600    915.62628   -1902.3093    66.278232    -1836.031 
 1691800    844.66433   -1902.1131    61.141603   -1840.9715 
 1692000    908.61622   -1905.0014    65.770804   -1839.2306 
 1692200    896.99907   -1900.6996    64.929889   -1835.7697 
 1692400    896.92453   -1901.3135    64.924493    -1836.389 
 1692600    869.77232   -1903.1091    62.959062     -1840.15 
 1692800    896.06084   -1904.6242    64.861974   -1839.7623 
 1693000    916.01782   -1901.5567    66.306574   -1835.2501 
 1693200    907.44385    -1901.712    65.685941   -1836.0261 
 1693400    818.99195   -1903.4692     59.28329    -1844.186 
 1693600    872.01317   -1904.5801    63.121267   -1841.4589 
 1693800    956.89514   -1899.7759    69.265507   -1830.5104 
 1694000    884.43065   -1903.8453    64.020115   -1839.8252 
 1694200    860.29415   -1906.1411    62.272978   -1843.8681 
 1694400    929.12704   -1897.1073    67.255494   -1829.8518 
 1694600    893.05474   -1901.3467    64.644376   -1836.7023 
 1694800    858.16252   -1908.1517    62.118679    -1846.033 
 1695000    934.60766   -1901.5774    67.652212   -1833.9252 
 1695200    862.34928   -1900.3481     62.42174   -1837.9263 
 1695400    915.82469   -1907.3369    66.292594   -1841.0443 
 1695600    943.16581   -1904.6634    68.271699   -1836.3917 
 1695800    874.16579   -1903.6736    63.277086   -1840.3965 
 1696000    905.37631   -1901.0226    65.536281   -1835.4863 
 1696200    923.56792     -1902.32    66.853093   -1835.4669 
 1696400    850.45398   -1902.3025    61.560691   -1840.7418 
 1696600     977.0456    -1905.643    70.724111   -1834.9189 
 1696800     858.7383   -1900.6474    62.160357   -1838.4871 
 1697000    910.56322   -1904.4736    65.911739   -1838.5619 
 1697200    941.49882   -1903.5679    68.151034   -1835.4168 
 1697400    932.99324   -1902.2148    67.535352   -1834.6795 
 1697600    939.05232   -1907.0292    67.973942   -1839.0553 
 1697800     897.4637   -1898.9059    64.963521   -1833.9424 
 1698000    905.38328   -1897.8801    65.536786   -1832.3433 
 1698200     860.9455   -1902.6059    62.320127   -1840.2858 
 1698400    847.64673   -1897.5063    61.357486   -1836.1489 
 1698600    892.32552     -1895.09     64.59159   -1830.4984 
 1698800    862.89878   -1897.2015    62.461516     -1834.74 
 1699000    895.10086   -1902.7579    64.792486   -1837.9654 
 1699200    844.86712    -1900.377    61.156282   -1839.2207 
 1699400    924.80217   -1897.7739    66.942435   -1830.8315 
 1699600    920.43214   -1904.6392    66.626107   -1838.0131 
 1699800    880.60249   -1905.9758    63.743011   -1842.2328 
 1700000    933.63004   -1898.6996    67.581447   -1831.1182 
 1700200    903.15425   -1900.8048    65.375435   -1835.4294 
 1700400    864.14666   -1905.1958    62.551845    -1842.644 
 1700600    868.92788   -1898.0828    62.897936   -1835.1849 
 1700800    876.06752    -1898.117    63.414744   -1834.7022 
 1701000    890.38284   -1905.0973    64.450969   -1840.6463 
 1701200    899.05904   -1905.0622    65.079001   -1839.9832 
 1701400    922.71049    -1900.326    66.791028    -1833.535 
 1701600    898.59176   -1903.2864    65.045177   -1838.2412 
 1701800    852.05914   -1901.2975    61.676881   -1839.6206 
 1702000    911.68568   -1899.0157    65.992989   -1833.0227 
 1702200     892.0882   -1904.5594    64.574412    -1839.985 
 1702400    880.95647   -1905.1075    63.768634   -1841.3389 
 1702600    891.76813   -1899.9167    64.551244   -1835.3655 
 1702800    884.78413   -1900.7476    64.045702   -1836.7019 
 1703000     910.2194   -1904.2248    65.886852   -1838.3379 
 1703200    902.18078   -1902.4822     65.30497   -1837.1772 
 1703400    918.73581   -1903.1713    66.503317    -1836.668 
 1703600    878.46057   -1903.5284    63.587967   -1839.9404 
 1703800    924.77105   -1901.1826    66.940182   -1834.2425 
 1704000    898.37183   -1903.9176    65.029257   -1838.8884 
 1704200     871.5965   -1902.5423    63.091106   -1839.4512 
 1704400    905.06172   -1900.0943    65.513509   -1834.5808 
 1704600    890.46073   -1901.9537    64.456606   -1837.4971 
 1704800    888.18188   -1902.6041     64.29165   -1838.3125 
 1705000    937.45632   -1903.3505    67.858414   -1835.4921 
 1705200    901.26829   -1899.0377    65.238919   -1833.7988 
 1705400    904.43367   -1899.3867    65.468047   -1833.9187 
 1705600    901.81202   -1903.6381    65.278278   -1838.3598 
 1705800    876.67613   -1898.5478    63.458799    -1835.089 
 1706000    936.24322   -1896.8948    67.770603   -1829.1242 
 1706200    857.54593   -1900.0421    62.074046   -1837.9681 
 1706400     873.2882   -1900.7023    63.213562   -1837.4888 
 1706600    934.16701   -1896.6975    67.620315   -1829.0772 
 1706800    925.70279   -1901.5952    67.007627   -1834.5876 
 1707000    836.10137   -1901.3267    60.521768   -1840.8049 
 1707200    945.39874   -1896.4657    68.433331   -1828.0324 
 1707400    924.59072   -1899.5043    66.927129   -1832.5772 
 1707600    839.94157   -1903.2489    60.799743   -1842.4491 
 1707800    923.85581   -1901.7493    66.873932   -1834.8754 
 1708000    917.10631   -1895.6412    66.385365   -1829.2558 
 1708200     839.6476   -1896.6514    60.778463   -1835.8729 
 1708400    884.69869   -1899.8097    64.039517   -1835.7702 
 1708600    917.77837   -1894.6562    66.434013   -1828.2222 
 1708800    876.01028   -1898.8482    63.410601   -1835.4376 
 1709000    923.34916   -1901.2752    66.837258    -1834.438 
 1709200    923.91911   -1901.5325    66.878514   -1834.6539 
 1709400    861.51957   -1898.3959    62.361681   -1836.0342 
 1709600    874.41413   -1896.7284    63.295062   -1833.4334 
 1709800    876.17799   -1901.1546    63.422741   -1837.7319 
 1710000    916.02333    -1904.174    66.306973    -1837.867 
 1710200    960.77914   -1905.0561    69.546653   -1835.5094 
 1710400    874.14345   -1900.2421    63.275469   -1836.9667 
 1710600    891.99426   -1898.0822    64.567612   -1833.5146 
 1710800    873.82991   -1901.0782    63.252773   -1837.8255 
 1711000    878.87007   -1899.4859    63.617609   -1835.8683 
 1711200    912.70111   -1897.8678    66.066491   -1831.8014 
 1711400    870.20147   -1901.6994    62.990126   -1838.7093 
 1711600    906.81953   -1902.7974    65.640749   -1837.1567 
 1711800    910.82576   -1898.0585    65.930743   -1832.1278 
 1712000    859.69639   -1901.2362    62.229709   -1839.0065 
 1712200    868.67466   -1899.8268    62.879607   -1836.9472 
 1712400    916.96204   -1900.1872    66.374922   -1833.8123 
 1712600    890.95264   -1895.7188    64.492214   -1831.2266 
 1712800    920.72958   -1897.4556    66.647638    -1830.808 
 1713000    873.15143   -1904.2567    63.203661    -1841.053 
 1713200    881.50579   -1901.4044    63.808397    -1837.596 
 1713400    922.93098   -1894.9363    66.806988   -1828.1293 
 1713600    901.31417   -1904.9856     65.24224   -1839.7434 
 1713800    874.71424   -1904.0907    63.316786   -1840.7739 
 1714000     979.4335   -1898.7533    70.896961   -1827.8564 
 1714200    836.34187   -1898.0626    60.539176   -1837.5234 
 1714400    869.08806   -1902.3914    62.909531   -1839.4819 
 1714600    907.13625   -1896.9867    65.663676    -1831.323 
 1714800    896.66341   -1897.5454    64.905592   -1832.6398 
 1715000    889.93555   -1900.4634    64.418591   -1836.0448 
 1715200    889.39014   -1902.2178    64.379111   -1837.8387 
 1715400    919.44448   -1900.0676    66.554615    -1833.513 
 1715600    924.85501    -1903.106     66.94626   -1836.1598 
 1715800    881.72784   -1898.4186     63.82447   -1834.5941 
 1716000     929.3718    -1899.944    67.273211   -1832.6708 
 1716200    852.65769   -1903.3605    61.720208   -1841.6403 
 1716400     884.2342   -1902.0018    64.005895    -1837.996 
 1716600    967.38366   -1900.7901    70.024725   -1830.7654 
 1716800    878.05171    -1900.826    63.558371   -1837.2676 
 1717000    863.00178   -1900.8471    62.468972   -1838.3781 
 1717200    907.06929   -1897.9204    65.658829   -1832.2615 
 1717400    962.01706   -1906.3777     69.63626   -1836.7415 
 1717600    864.49706   -1903.6653    62.577208   -1841.0881 
 1717800    909.76075   -1900.2978    65.853651   -1834.4442 
 1718000    894.89635   -1896.1939    64.777682   -1831.4162 
 1718200    891.39837   -1899.1402    64.524478   -1834.6157 
 1718400    832.24114   -1898.9067    60.242342   -1838.6644 
 1718600    872.83373   -1896.3608    63.180664   -1833.1802 
 1718800    918.83176   -1898.0179    66.510263   -1831.5076 
 1719000    870.96001   -1904.6366    63.045033   -1841.5916 
 1719200    882.78843   -1900.9904    63.901242   -1837.0892 
 1719400    928.62258   -1896.8942    67.218978   -1829.6752 
 1719600     884.9721   -1901.4187    64.059308   -1837.3594 
 1719800    887.68914   -1903.4775    64.255983   -1839.2215 
 1720000     944.1921   -1901.0048    68.345988   -1832.6588 
 1720200    872.65526   -1897.8274    63.167745   -1834.6597 
 1720400    874.94748   -1898.3596    63.333669    -1835.026 
 1720600    884.83865   -1902.1992    64.049649   -1838.1495 
 1720800    857.81734    -1896.409    62.093693   -1834.3154 
 1721000    891.57487   -1898.5372    64.537254   -1833.9999 
 1721200     898.1418   -1899.4277    65.012606   -1834.4151 
 1721400    928.58155     -1898.83    67.216008    -1831.614 
 1721600    907.02796   -1900.2711    65.655837   -1834.6153 
 1721800    905.10597    -1899.966    65.516712   -1834.4493 
 1722000    915.60245   -1899.7442    66.276507   -1833.4677 
 1722200    837.26764   -1899.2531    60.606188   -1838.6469 
 1722400    962.60016   -1900.4936    69.678469   -1830.8151 
 1722600     879.6666   -1896.7878    63.675266   -1833.1125 
 1722800    833.49939   -1899.6025    60.333421    -1839.269 
 1723000    922.58864   -1897.7809    66.782207   -1830.9987 
 1723200    873.29247   -1898.1722     63.21387   -1834.9583 
 1723400    882.39423   -1900.4005    63.872707   -1836.5277 
 1723600    923.84752   -1896.3181    66.873332   -1829.4448 
 1723800    909.56694   -1903.5881    65.839623   -1837.7485 
 1724000    923.09542   -1904.6176    66.818891   -1837.7987 
 1724200     928.8853   -1903.2821    67.237995   -1836.0441 
 1724400    861.16767   -1898.8612    62.336208    -1836.525 
 1724600    933.50371   -1900.1897    67.572302   -1832.6174 
 1724800    860.84788   -1900.0033     62.31306   -1837.6902 
 1725000     933.8883   -1904.1704    67.600141   -1836.5703 
 1725200    888.35518   -1895.4747    64.304195   -1831.1706 
 1725400    926.91626   -1904.8412    67.095465   -1837.7458 
 1725600    921.52466     -1902.05     66.70519   -1835.3449 
 1725800    911.97591   -1897.9204    66.013998   -1831.9064 
 1726000    877.30258   -1901.1177    63.504145   -1837.6135 
 1726200    900.39914   -1901.6447    65.176005   -1836.4687 
 1726400    917.43807   -1902.4169     66.40938   -1836.0075 
 1726600    858.70947   -1904.5415     62.15827   -1842.3833 
 1726800    931.47592   -1901.3934    67.425519   -1833.9679 
 1727000    941.08219   -1899.6392    68.120876   -1831.5183 
 1727200    906.85037   -1905.9435    65.642982   -1840.3006 
 1727400    908.94382   -1903.6988    65.794518   -1837.9043 
 1727600    919.08096   -1901.1541    66.528301   -1834.6258 
 1727800    904.73368   -1902.1928    65.489763    -1836.703 
 1728000    931.21797   -1907.2476    67.406847   -1839.8408 
 1728200    911.69201   -1903.7795    65.993447   -1837.7861 
 1728400    949.03842   -1901.9408    68.696793    -1833.244 
 1728600    874.60688   -1904.6279    63.309014   -1841.3189 
 1728800    888.54989   -1904.6835    64.318289   -1840.3652 
 1729000    921.16858   -1900.1888    66.679415   -1833.5094 
 1729200    924.36182    -1901.058     66.91056   -1834.1474 
 1729400    882.27613   -1903.2844    63.864159   -1839.4202 
 1729600    900.15406   -1900.7022    65.158265   -1835.5439 
 1729800    916.89998   -1900.9431     66.37043   -1834.5727 
 1730000    886.25121   -1901.3166    64.151898   -1837.1647 
 1730200    855.51572   -1900.6776    61.927088   -1838.7505 
 1730400    932.13561   -1900.2512    67.473271   -1832.7779 
 1730600    901.59055   -1901.0324    65.262246   -1835.7701 
 1730800    858.11763   -1903.5554    62.115429     -1841.44 
 1731000    938.96674   -1902.6748    67.967747    -1834.707 
 1731200    952.59404    -1904.599    68.954168   -1835.6448 
 1731400    914.59727   -1901.8468    66.203746    -1835.643 
 1731600      925.407   -1906.6386    66.986216   -1839.6524 
 1731800     893.6125   -1903.8514    64.684749   -1839.1667 
 1732000    960.99217   -1900.1547    69.562073   -1830.5927 
 1732200    928.90392   -1900.6595    67.239343   -1833.4202 
 1732400    886.04871   -1901.6208     64.13724   -1837.4835 
 1732600    931.51283    -1897.929    67.428191   -1830.5009 
 1732800    888.00586   -1898.9264    64.278909   -1834.6475 
 1733000    886.27086   -1905.3431     64.15332   -1841.1898 
 1733200    965.09907   -1903.3163    69.859354    -1833.457 
 1733400     891.4565   -1901.3287    64.528686      -1836.8 
 1733600    884.94406   -1904.1878    64.057278   -1840.1305 
 1733800    887.08995   -1901.8248     64.21261   -1837.6122 
 1734000    903.56345   -1898.1724    65.405056   -1832.7673 
 1734200    961.59369   -1904.0618    69.605615   -1834.4561 
 1734400    871.40107   -1908.0131     63.07696   -1844.9361 
 1734600    915.49694   -1900.8922     66.26887   -1834.6234 
 1734800    974.36097   -1902.9101    70.529782   -1832.3804 
 1735000    883.55381   -1904.8661    63.956644   -1840.9094 
 1735200    948.05409   -1905.3927    68.625541   -1836.7672 
 1735400    878.63035   -1899.0402    63.600256   -1835.4399 
 1735600    915.34312      -1901.9    66.257736   -1835.6422 
 1735800    903.67945   -1904.0679    65.413452   -1838.6544 
 1736000    905.08477   -1904.2537    65.515177   -1838.7385 
 1736200    909.00674   -1900.4471    65.799072    -1834.648 
 1736400    909.06311   -1901.4091    65.803153   -1835.6059 
 1736600     867.6642   -1903.3802    62.806464   -1840.5737 
 1736800    911.09745   -1898.0626    65.950409   -1832.1122 
 1737000    920.04791   -1902.3519    66.598295   -1835.7536 
 1737200    878.25327   -1906.3687    63.572961   -1842.7957 
 1737400    945.55561   -1900.7444    68.444687   -1832.2997 
 1737600    919.92496   -1903.4052    66.589395   -1836.8158 
 1737800    905.73945   -1902.2071    65.562567   -1836.6445 
 1738000    920.98766   -1902.2654    66.666319   -1835.5991 
 1738200    881.16757   -1905.0307    63.783915   -1841.2467 
 1738400    996.59464   -1902.5413    72.139182   -1830.4021 
 1738600    888.20007   -1900.2418    64.292967   -1835.9488 
 1738800    893.06772   -1905.0097    64.645315   -1840.3644 
 1739000    936.90505   -1900.5026     67.81851   -1832.6841 
 1739200    847.91713   -1900.3777    61.377059   -1839.0007 
 1739400     925.1079   -1895.3401    66.964565   -1828.3756 
 1739600    952.70952   -1899.1317    68.962527   -1830.1692 
 1739800    873.18718   -1902.0488    63.206249   -1838.8426 
 1740000    988.98551   -1901.1458    71.588389   -1829.5574 
 1740200    879.41294   -1898.9403    63.656905   -1835.2834 
 1740400    929.40797   -1904.9226    67.275829   -1837.6467 
 1740600    939.28129     -1900.09    67.990516   -1832.0995 
 1740800    905.86162   -1896.6991     65.57141   -1831.1277 
 1741000    939.38501   -1898.7164    67.998024   -1830.7183 
 1741200    876.36532   -1900.8827    63.436301   -1837.4464 
 1741400    897.60865   -1899.5502    64.974014   -1834.5762 
 1741600    951.35594   -1899.9703    68.864548   -1831.1057 
 1741800    870.33873   -1902.1967    63.000062   -1839.1966 
 1742000     906.2095   -1903.3714    65.596592   -1837.7748 
 1742200    946.29412   -1899.4553    68.498145   -1830.9572 
 1742400    919.14227   -1899.4866    66.532739   -1832.9538 
 1742600    899.69867   -1902.1534    65.125301   -1837.0281 
 1742800    908.47453   -1902.5527    65.760548   -1836.7922 
 1743000    943.63512   -1900.6461    68.305671   -1832.3404 
 1743200    930.68071   -1904.4551    67.367957   -1837.0871 
 1743400    883.67797   -1903.6922    63.965632   -1839.7266 
 1743600    929.07549   -1899.6569    67.251762   -1832.4051 
 1743800    939.61701   -1898.7936    68.014817   -1830.7788 
 1744000    836.93322   -1901.4285    60.581981   -1840.8465 
 1744200    885.92916   -1900.8196    64.128585    -1836.691 
 1744400    946.20192   -1899.6122    68.491471   -1831.1207 
 1744600     934.5311   -1901.9414     67.64667   -1834.2947 
 1744800    862.62906   -1902.2868    62.441992   -1839.8448 
 1745000    929.58653   -1902.4731    67.288754   -1835.1843 
 1745200    933.89759   -1903.1122    67.600813   -1835.5114 
 1745400    903.60545   -1904.6291    65.408096    -1839.221 
 1745600    910.62524   -1902.1325    65.916228   -1836.2163 
 1745800    928.30108   -1899.3707    67.195706    -1832.175 
 1746000    907.41646   -1903.6219    65.683958   -1837.9379 
 1746200     909.1837   -1902.3025    65.811881   -1836.4906 
 1746400    925.38525   -1897.8403    66.984642   -1830.8556 
 1746600    903.87568   -1901.9621    65.427657   -1836.5344 
 1746800    922.23146   -1906.3403    66.756352    -1839.584 
 1747000     923.5191   -1903.2952    66.849559   -1836.4457 
 1747200    890.84825    -1895.109    64.484657   -1830.6243 
 1747400    900.93092   -1902.5014    65.214499   -1837.2869 
 1747600    876.97608   -1904.6295    63.480511    -1841.149 
 1747800    1036.0465   -1900.9875    74.994935   -1825.9926 
 1748000    939.76888   -1901.9228    68.025811    -1833.897 
 1748200    868.11417   -1907.5972    62.839035   -1844.7582 
 1748400    952.10955   -1900.5615    68.919099   -1831.6424 
 1748600    978.54562   -1900.1694    70.832691   -1829.3367 
 1748800     873.2099   -1899.8732    63.207893   -1836.6653 
 1749000    931.30664   -1903.6174    67.413266   -1836.2042 
 1749200    914.58892   -1897.2059    66.203142   -1831.0028 
 1749400     924.8283   -1895.2926    66.944327   -1828.3483 
 1749600    888.09733   -1901.6062     64.28553   -1837.3207 
 1749800    915.09805   -1903.9122    66.239996   -1837.6722 
 1750000    954.90224   -1896.8082    69.121249   -1827.6869 
 1750200    844.78712   -1899.0687    61.150491   -1837.9182 
 1750400    889.39173    -1899.467    64.379226   -1835.0878 
 1750600    942.79164   -1894.6369    68.244615   -1826.3923 
 1750800    950.49123    -1903.567    68.801955   -1834.7651 
 1751000    848.49944   -1902.5622     61.41921    -1841.143 
 1751200    958.94354   -1898.1989    69.413781   -1828.7851 
 1751400    894.58986    -1894.742    64.755496   -1829.9866 
 1751600    874.07373   -1902.2075    63.270423   -1838.9371 
 1751800    877.24671   -1897.7678    63.500101   -1834.2677 
 1752000    910.18456    -1898.206    65.884329   -1832.3216 
 1752200    913.14997   -1904.6762    66.098983   -1838.5772 
 1752400    886.50796   -1900.6741    64.170483   -1836.5036 
 1752600    968.46964   -1897.6362    70.103334   -1827.5329 
 1752800    917.59899   -1905.6059    66.421028   -1839.1849 
 1753000    873.83591   -1905.3938    63.253208   -1842.1406 
 1753200    950.15022   -1897.0063    68.777271    -1828.229 
 1753400    918.40467   -1898.7017    66.479348   -1832.2224 
 1753600    867.06359    -1900.563    62.762988      -1837.8 
 1753800    910.36398   -1898.8795    65.897317   -1832.9822 
 1754000     922.0373   -1899.8255    66.742298   -1833.0832 
 1754200    910.59258   -1901.0053    65.913864   -1835.0915 
 1754400    906.90338   -1901.0265    65.646819   -1835.3797 
 1754600    910.94735   -1894.7317    65.939544   -1828.7921 
 1754800    918.05701   -1900.6272    66.454182    -1834.173 
 1755000    885.07616    -1902.211     64.06684   -1838.1442 
 1755200    911.57985   -1895.7778    65.985328   -1829.7924 
 1755400    901.70883   -1897.1693    65.270808   -1831.8985 
 1755600    880.57958   -1901.4794    63.741353   -1837.7381 
 1755800    910.09558   -1902.5849    65.877889    -1836.707 
 1756000    937.08023   -1899.0149     67.83119   -1831.1837 
 1756200    924.70941   -1898.6384     66.93572   -1831.7027 
 1756400     939.3265   -1906.2821    67.993788   -1838.2883 
 1756600    926.23081   -1903.6977    67.045848   -1836.6518 
 1756800    914.38299   -1899.7351    66.188236   -1833.5469 
 1757000    915.51308   -1899.9744    66.270038   -1833.7044 
 1757200    884.13815   -1900.0748    63.998942   -1836.0758 
 1757400    882.72752   -1897.1423    63.896833   -1833.2454 
 1757600     951.2086   -1899.3659    68.853883    -1830.512 
 1757800    911.65302   -1898.8486    65.990625    -1832.858 
 1758000    902.80851   -1900.4937    65.350409   -1835.1433 
 1758200    877.21379    -1896.171    63.497718   -1832.6732 
 1758400    880.52883   -1898.1472    63.737679   -1834.4095 
 1758600     895.4861   -1903.8852    64.820371   -1839.0648 
 1758800    950.84813   -1902.2365    68.827789   -1833.4088 
 1759000    923.11945   -1900.9228     66.82063   -1834.1021 
 1759200    909.00512    -1903.499    65.798954      -1837.7 
 1759400     932.6501   -1900.8783    67.510513   -1833.3678 
 1759600    891.63391   -1896.8766    64.541528   -1832.3351 
 1759800    903.65051   -1903.8446    65.411358   -1838.4332 
 1760000    889.59125   -1902.8833    64.393669   -1838.4896 
 1760200    936.15525   -1899.4832    67.764236    -1831.719 
 1760400     906.8293   -1900.4798    65.641457   -1834.8383 
 1760600    914.46502   -1904.6429    66.194173   -1838.4488 
 1760800     901.4417   -1902.6716    65.251471   -1837.4202 
 1761000     954.1327   -1900.1638    69.065546   -1831.0982 
 1761200    910.82837   -1902.1794    65.930932   -1836.2485 
 1761400    887.53385   -1902.9564    64.244742   -1838.7116 
 1761600    923.39922   -1900.5052    66.840881   -1833.6643 
 1761800    902.09052   -1902.3024    65.298437    -1837.004 
 1762000    893.87308    -1901.744    64.703612   -1837.0404 
 1762200    946.60736    -1899.314    68.520819   -1830.7931 
 1762400    940.42969   -1901.5424    68.073644   -1833.4688 
 1762600    893.02828    -1901.572     64.64246   -1836.9295 
 1762800    937.30191   -1900.6761    67.847237   -1832.8289 
 1763000    944.91058   -1901.4351    68.397996   -1833.0371 
 1763200    944.41891   -1902.8944    68.362406    -1834.532 
 1763400    918.77188   -1902.3586    66.505928   -1835.8527 
 1763600    921.59519   -1898.5512    66.710295   -1831.8409 
 1763800    946.44473     -1904.24    68.509047    -1835.731 
 1764000    870.50503   -1904.4946      63.0121   -1841.4825 
 1764200    935.59529   -1896.5646    67.723702   -1828.8409 
 1764400    978.77316   -1900.2434    70.849162   -1829.3943 
 1764600    878.27891   -1907.0388    63.574817    -1843.464 
 1764800    925.23252   -1902.1499    66.973586   -1835.1764 
 1765000    982.19128   -1898.3535    71.096585   -1827.2569 
 1765200     882.1074   -1905.1042    63.851945   -1841.2523 
 1765400    873.57428   -1904.4744    63.234269   -1841.2401 
 1765600    968.19028   -1899.4783    70.083113   -1829.3952 
 1765800    868.71728   -1898.3688    62.882692   -1835.4861 
 1766000    910.20337   -1898.7667    65.885691    -1832.881 
 1766200    972.41703   -1895.3389    70.389069   -1824.9498 
 1766400    911.52599   -1903.5658     65.98143   -1837.5843 
 1766600    887.11085   -1905.5874    64.214123   -1841.3733 
 1766800    975.28997   -1899.4513    70.597029   -1828.8543 
 1767000    961.55155   -1899.2421    69.602564   -1829.6395 
 1767200    914.40243   -1904.0251    66.189643   -1837.8354 
 1767400    906.88944    -1900.973     65.64581   -1835.3272 
 1767600    896.77148   -1897.8788    64.913415   -1832.9654 
 1767800    898.47375    -1900.153    65.036634   -1835.1164 
 1768000    899.63363   -1901.4023    65.120593   -1836.2818 
 1768200    929.30209   -1903.0371    67.268165   -1835.7689 
 1768400     912.5109   -1896.2459    66.052723   -1830.1932 
 1768600    910.98488   -1900.2737    65.942261   -1834.3314 
 1768800    944.34955   -1902.7477    68.357386   -1834.3904 
 1769000    962.80615   -1899.7932    69.693379   -1830.0999 
 1769200    922.98706   -1904.9507    66.811047   -1838.1397 
 1769400    935.49018   -1902.1728    67.716094   -1834.4567 
 1769600    906.00666   -1895.9921     65.58191   -1830.4102 
 1769800    882.59737   -1899.3921    63.887412   -1835.5047 
 1770000    906.93914   -1903.8945    65.649407   -1838.2451 
 1770200    906.85311   -1902.8225     65.64318   -1837.1793 
 1770400    936.07695   -1898.9432    67.758568   -1831.1846 
 1770600    954.16438   -1900.4965    69.067839   -1831.4287 
 1770800    868.77393   -1900.6201    62.886793   -1837.7333 
 1771000    963.39283   -1901.5762    69.735846   -1831.8404 
 1771200    943.18968   -1900.3102    68.273428   -1832.0368 
 1771400    932.75848   -1902.9177    67.518358   -1835.3994 
 1771600    959.26887   -1900.0239    69.437331   -1830.5866 
 1771800    875.98941   -1901.2897     63.40909   -1837.8807 
 1772000    927.07473   -1898.2483    67.106936   -1831.1413 
 1772200    922.98765   -1896.8834     66.81109   -1830.0723 
 1772400    865.97515   -1897.3393    62.684201   -1834.6551 
 1772600    924.97677   -1897.7202    66.955074   -1830.7651 
 1772800    908.91024    -1900.562    65.792087   -1834.7699 
 1773000    881.04827   -1898.4341    63.775279   -1834.6588 
 1773200    960.71666   -1896.0942     69.54213   -1826.5521 
 1773400    948.31535    -1904.395    68.644453   -1835.7505 
 1773600     884.7007   -1901.8877    64.039663   -1837.8481 
 1773800      905.796   -1890.9865    65.566661   -1825.4198 
 1774000    942.23959   -1895.7804    68.204654   -1827.5758 
 1774200    917.78118   -1901.6288    66.434216   -1835.1945 
 1774400    921.41844   -1901.9858    66.697501   -1835.2883 
 1774600    921.93989   -1894.9178    66.735247   -1828.1825 
 1774800    903.12019   -1898.3957     65.37297   -1833.0228 
 1775000     900.2997   -1904.0541    65.168807   -1838.8853 
 1775200    960.09998   -1900.0535    69.497491    -1830.556 
 1775400    922.50929   -1895.1854    66.776463   -1828.4089 
 1775600    894.50523    -1901.607    64.749371   -1836.8576 
 1775800    922.44476    -1903.488    66.771792   -1836.7162 
 1776000    1027.1606   -1898.3945    74.351723   -1824.0428 
 1776200    902.73166   -1901.2912    65.344846   -1835.9463 
 1776400    914.36685   -1907.7971    66.187067     -1841.61 
 1776600    941.54118   -1896.8571      68.1541    -1828.703 
 1776800    918.98685   -1898.6866    66.521489   -1832.1651 
 1777000    873.66055   -1904.4424    63.240514   -1841.2019 
 1777200    934.64524   -1901.6503    67.654932   -1833.9953 
 1777400    968.56724   -1900.8114    70.110399    -1830.701 
 1777600    917.49774   -1900.8669    66.413699   -1834.4532 
 1777800    923.55995   -1899.8424    66.852516   -1832.9899 
 1778000    920.41323   -1898.6212    66.624739   -1831.9965 
 1778200    973.23165   -1901.6463    70.448036   -1831.1982 
 1778400    899.90461   -1901.2708    65.140208   -1836.1306 
 1778600    923.94589   -1900.7507    66.880452   -1833.8702 
 1778800    958.26547   -1903.2559    69.364699   -1833.8912 
 1779000    905.83491   -1902.6972    65.569477   -1837.1277 
 1779200    891.97127     -1900.88    64.565948   -1836.3141 
 1779400    899.28924    -1901.029    65.095665   -1835.9333 
 1779600    888.54315   -1897.6382    64.317801   -1833.3204 
 1779800    926.59188   -1900.4563    67.071984   -1833.3843 
 1780000    925.59303   -1904.5742    66.999682   -1837.5745 
 1780200    938.53699   -1901.4387     67.93664   -1833.5021 
 1780400    907.43954   -1897.3226    65.685629    -1831.637 
 1780600    952.87132   -1903.6288    68.974239   -1834.6546 
 1780800    957.56162   -1905.2592     69.31375   -1835.9454 
 1781000     906.9333   -1900.1635    65.648985   -1834.5145 
 1781200    957.96565   -1899.2309    69.342996   -1829.8879 
 1781400    900.87303   -1901.7297    65.210308   -1836.5194 
 1781600    872.92801   -1899.3084    63.187489   -1836.1209 
 1781800     951.2049   -1895.7107    68.853615   -1826.8571 
 1782000    951.48039   -1899.8269    68.873556   -1830.9533 
 1782200    899.35373     -1901.32    65.100333   -1836.2196 
 1782400    918.94926   -1903.0275    66.518768   -1836.5088 
 1782600    911.42313   -1898.0124    65.973984   -1832.0384 
 1782800    973.10291   -1899.0939    70.438717   -1828.6551 
 1783000    862.40043   -1900.6471    62.425442   -1838.2216 
 1783200     977.1659     -1904.51     70.73282   -1833.7771 
 1783400    929.46271   -1902.4561    67.279791   -1835.1763 
 1783600    906.68955   -1900.8503    65.631341    -1835.219 
 1783800    1010.8544   -1899.4395    73.171386   -1826.2681 
 1784000    922.10624     -1901.35    66.747289   -1834.6027 
 1784200    966.55104   -1903.2596    69.964456   -1833.2951 
 1784400    886.32433   -1896.8473     64.15719   -1832.6902 
 1784600    911.53011   -1899.5635    65.981728   -1833.5818 
 1784800    955.49086   -1897.4016    69.163857   -1828.2377 
 1785000    923.44255   -1900.4063    66.844018   -1833.5623 
 1785200    894.25311   -1902.3304    64.731121   -1837.5993 
 1785400    962.33333   -1899.2408    69.659154   -1829.5817 
 1785600    889.29561   -1895.9913    64.372269    -1831.619 
 1785800     892.6629   -1900.2615    64.616012   -1835.6455 
 1786000    928.54669   -1899.1844    67.213485   -1831.9709 
 1786200    954.95541   -1897.3873    69.125098   -1828.2622 
 1786400    932.38944   -1905.1727    67.491645   -1837.6811 
 1786600    878.13609   -1898.9541    63.564479   -1835.3897 
 1786800    999.84602   -1897.2836    72.374535   -1824.9091 
 1787000    910.67585   -1902.2791    65.919892   -1836.3592 
 1787200    916.12333   -1902.5896    66.314212   -1836.2754 
 1787400    907.14502   -1895.8837     65.66431   -1830.2194 
 1787600    909.50492   -1894.9257    65.835133   -1829.0905 
 1787800    953.07441   -1903.1557     68.98894   -1834.1668 
 1788000    896.84012   -1905.5848    64.918383   -1840.6664 
 1788200    974.89387   -1898.8983    70.568357     -1828.33 
 1788400    909.80829   -1897.4261    65.857093    -1831.569 
 1788600    866.22564   -1901.7204    62.702333   -1839.0181 
 1788800    958.35786   -1895.5222    69.371386   -1826.1508 
 1789000    908.99285   -1898.3371    65.798067    -1832.539 
 1789200    885.86162   -1902.0083    64.123697   -1837.8847 
 1789400    1018.8386   -1904.2322    73.749326   -1830.4829 
 1789600    890.71032   -1896.3346    64.474674   -1831.8599 
 1789800     990.7761   -1898.1235    71.718003   -1826.4054 
 1790000    907.14315   -1901.6046    65.664175   -1835.9404 
 1790200    932.78242   -1899.7878    67.520091   -1832.2677 
 1790400    958.18646   -1896.0804     69.35898   -1826.7214 
 1790600    892.97503   -1903.2157    64.638606   -1838.5771 
 1790800    949.86849   -1900.0157    68.756878   -1831.2588 
 1791000    947.68101   -1895.3876    68.598536    -1826.789 
 1791200    916.27898   -1898.6292    66.325478   -1832.3037 
 1791400    923.27648   -1902.2322    66.831997   -1835.4002 
 1791600     968.8948   -1896.5236     70.13411   -1826.3895 
 1791800    938.18437   -1898.6025    67.911115   -1830.6914 
 1792000    885.33543   -1903.5148    64.085609   -1839.4292 
 1792200    924.73388   -1896.2862    66.937492   -1829.3487 
 1792400    928.64661   -1894.2551    67.220718   -1827.0344 
 1792600    896.94894    -1901.749     64.92626   -1836.8228 
 1792800    882.55941   -1898.8329    63.884664   -1834.9482 
 1793000     930.6007   -1893.7063    67.362165   -1826.3441 
 1793200    926.70524   -1898.7112     67.08019   -1831.6311 
 1793400    922.12273   -1901.8984    66.748482   -1835.1499 
 1793600    905.29938   -1897.7037    65.530712   -1832.1729 
 1793800    938.14584   -1898.0813    67.908326    -1830.173 
 1794000    936.23163   -1900.1617    67.769764   -1832.3919 
 1794200    893.88615   -1898.7548    64.704558   -1834.0503 
 1794400     897.2657   -1897.4747    64.949189   -1832.5255 
 1794600    914.84807   -1897.5576    66.221901   -1831.3357 
 1794800    975.31879   -1902.1221    70.599115    -1831.523 
 1795000    917.95519   -1901.2499    66.446812    -1834.803 
 1795200    965.39747   -1902.1572    69.880954   -1832.2763 
 1795400    916.81538   -1899.7087    66.364306   -1833.3444 
 1795600    948.14967   -1901.0818     68.63246   -1832.4493 
 1795800    918.06622   -1900.1046    66.454849   -1833.6497 
 1796000    932.43577   -1899.1796    67.494999   -1831.6846 
 1796200    936.34793   -1898.7615    67.778183   -1830.9833 
 1796400    895.43978   -1896.7015    64.817018   -1831.8845 
 1796600    973.92289   -1900.8339    70.498072   -1830.3358 
 1796800    919.95413   -1895.9864    66.591506   -1829.3949 
 1797000    976.96851   -1899.0913    70.718531   -1828.3727 
 1797200    926.08032   -1902.2642    67.034955   -1835.2293 
 1797400    959.61592   -1901.8074    69.462452   -1832.3449 
 1797600    978.93384   -1899.4139    70.860793   -1828.5532 
 1797800    900.52453   -1901.0095    65.185082   -1835.8244 
 1798000    941.63646   -1904.6912    68.160997   -1836.5302 
 1798200    977.91122   -1899.1693     70.78677   -1828.3825 
 1798400    912.45909   -1901.6723    66.048973   -1835.6234 
 1798600    931.13422    -1901.344    67.400785   -1833.9432 
 1798800    924.06162   -1900.9954     66.88883   -1834.1066 
 1799000    906.62817   -1899.9065    65.626898   -1834.2796 
 1799200    945.63236   -1896.5809    68.450242   -1828.1307 
 1799400    915.86289   -1900.6753    66.295359     -1834.38 
 1799600    963.16027   -1901.5913    69.719013   -1831.8723 
 1799800    1010.6245   -1904.7267    73.154742    -1831.572 
 1800000    889.03854   -1900.1647    64.353661   -1835.8111 
 1800200    978.09019   -1897.3028    70.799725   -1826.5031 
 1800400      885.156   -1900.5406     64.07262    -1836.468 
 1800600    925.13641   -1901.8114    66.966629   -1834.8448 
 1800800    963.63423   -1898.0334     69.75332   -1828.2801 
 1801000    931.83096   -1901.2348    67.451219   -1833.7836 
 1801200    918.42468   -1898.7606    66.480796   -1832.2798 
 1801400    943.73588   -1891.6099    68.312965   -1823.2969 
 1801600    906.23074    -1899.879    65.598129   -1834.2809 
 1801800    908.45058   -1899.7124    65.758814   -1833.9536 
 1802000    994.15786   -1893.7146    71.962794   -1821.7518 
 1802200    919.12271   -1893.8265    66.531324   -1827.2951 
 1802400    889.11172   -1895.6054    64.358958   -1831.2465 
 1802600    951.53061   -1900.0603    68.877191   -1831.1831 
 1802800    958.62872   -1897.4108    69.390993   -1828.0198 
 1803000     939.8068    -1897.973    68.028555   -1829.9445 
 1803200    903.04857   -1902.7853    65.367786   -1837.4175 
 1803400    973.35189   -1901.4552    70.456739   -1830.9985 
 1803600    974.11407   -1898.4057    70.511911   -1827.8938 
 1803800    913.48398   -1900.7714    66.123161   -1834.6483 
 1804000    943.19259   -1903.2913    68.273638   -1835.0177 
 1804200    931.67089   -1896.4574    67.439632   -1829.0177 
 1804400     933.7917   -1895.4993    67.593148   -1827.9062 
 1804600    912.16655    -1902.316    66.027797   -1836.2882 
 1804800    954.30271   -1905.0303    69.077852   -1835.9524 
 1805000    947.19719   -1900.2428    68.563513   -1831.6793 
 1805200    957.08885   -1898.5514    69.279528   -1829.2719 
 1805400    981.90907   -1902.9523    71.076157   -1831.8762 
 1805600     930.7026   -1903.9447    67.369542   -1836.5751 
 1805800     935.6501   -1897.8137     67.72767   -1830.0861 
 1806000    949.52032   -1900.2466    68.731675   -1831.5149 
 1806200    908.38218    -1902.218    65.753863   -1836.4641 
 1806400    968.90458   -1899.5416    70.134818   -1829.4068 
 1806600    950.79865   -1898.7368    68.824208   -1829.9126 
 1806800    900.48584   -1897.9397    65.182281   -1832.7574 
 1807000    938.82536    -1897.045    67.957513   -1829.0875 
 1807200    950.68932   -1896.6509    68.816294   -1827.8346 
 1807400     924.1468   -1897.9714    66.894996   -1831.0764 
 1807600    935.46473   -1895.9965    67.714251   -1828.2822 
 1807800    936.66646   -1897.7232    67.801239   -1829.9219 
 1808000    919.59872   -1899.1394     66.56578   -1832.5736 
 1808200    957.09173   -1895.4587    69.279737    -1826.179 
 1808400    927.30257   -1896.3164    67.123428    -1829.193 
 1808600    890.30709   -1899.5496    64.445485   -1835.1041 
 1808800    952.44738   -1900.9422    68.943553   -1831.9986 
 1809000    902.48984   -1894.7441    65.327342   -1829.4167 
 1809200    925.20974    -1899.897    66.971938   -1832.9251 
 1809400    926.79763   -1900.3983    67.086878   -1833.3114 
 1809600    881.24137     -1898.57    63.789257   -1834.7807 
 1809800    981.34345   -1897.1461    71.035214   -1826.1109 
 1810000    946.85643   -1901.2309    68.538848   -1832.6921 
 1810200    880.57099   -1900.0347    63.740731    -1836.294 
 1810400     980.7893   -1895.2907    70.995101   -1824.2956 
 1810600    914.15238   -1897.4628    66.171543   -1831.2913 
 1810800    901.07161   -1900.9791    65.224682   -1835.7545 
 1811000    926.61686   -1894.7498    67.073792    -1827.676 
 1811200    954.36899    -1897.759     69.08265   -1828.6764 
 1811400    912.35579   -1899.4745    66.041496    -1833.433 
 1811600    926.95253   -1897.6841     67.09809    -1830.586 
 1811800    926.30216   -1896.3818    67.051013   -1829.3307 
 1812000    959.46857   -1896.8464    69.451786   -1827.3947 
 1812200    969.47942   -1899.8188    70.176428   -1829.6423 
 1812400    902.38387   -1898.5018    65.319671   -1833.1821 
 1812600    973.13579    -1897.268    70.441097   -1826.8269 
 1812800     952.6055   -1892.1327    68.954998   -1823.1777 
 1813000    970.73987   -1896.6043    70.267667   -1826.3366 
 1813200    891.50287   -1898.9289    64.532042   -1834.3969 
 1813400    918.66534   -1893.6645    66.498216   -1827.1663 
 1813600    1003.0455   -1897.2363    72.606131   -1824.6302 
 1813800    888.00413   -1900.8215    64.278784   -1836.5427 
 1814000    947.74862   -1901.5053    68.603429   -1832.9018 
 1814200     927.3771   -1893.4733    67.128823   -1826.3445 
 1814400    893.00069   -1899.5049    64.640463   -1834.8644 
 1814600    913.81256   -1896.3988    66.146944   -1830.2519 
 1814800    982.86062   -1895.4384    71.145036   -1824.2933 
 1815000    946.30551   -1898.5651    68.498969   -1830.0661 
 1815200    951.57202   -1897.3884    68.880189   -1828.5082 
 1815400    973.67098   -1901.5957    70.479837   -1831.1159 
 1815600    899.81066   -1896.1108    65.133408   -1830.9774 
 1815800    939.26072   -1891.8368    67.989027   -1823.8478 
 1816000    915.62291   -1901.2749    66.277988    -1834.997 
 1816200     928.8907   -1900.9849    67.238386   -1833.7465 
 1816400    958.12209   -1891.5592     69.35432   -1822.2049 
 1816600     936.3904   -1896.2544    67.781257   -1828.4731 
 1816800    937.86344   -1899.0024    67.887884   -1831.1146 
 1817000    934.73575   -1897.2461    67.661484   -1829.5846 
 1817200     975.5709   -1897.4111    70.617364   -1826.7937 
 1817400    961.36649   -1898.2017    69.589168   -1828.6126 
 1817600    887.73402   -1897.4324    64.259232   -1833.1731 
 1817800    914.76812   -1895.8823    66.216114   -1829.6662 
 1818000    1004.3705   -1896.5145    72.702041   -1823.8124 
 1818200    894.37166   -1900.2219    64.739702   -1835.4822 
 1818400    953.82982   -1898.3652    69.043621   -1829.3216 
 1818600    976.73565   -1893.5483    70.701675   -1822.8466 
 1818800    909.29222   -1899.5601    65.819737   -1833.7404 
 1819000    932.88807   -1901.5679    67.527739   -1834.0401 
 1819200    944.33213   -1896.9052    68.356124   -1828.5491 
 1819400    929.46154    -1903.204    67.279706   -1835.9243 
 1819600    974.20681   -1901.9099    70.518624   -1831.3913 
 1819800    970.00639    -1895.829    70.214573   -1825.6144 
 1820000    931.05886   -1897.2967     67.39533   -1829.9014 
 1820200    957.31374   -1902.8323    69.295807   -1833.5365 
 1820400    949.26767   -1901.9686    68.713387   -1833.2552 
 1820600    930.32803   -1897.7633    67.342429   -1830.4209 
 1820800    932.26739   -1896.3569     67.48281   -1828.8741 
 1821000    950.43211   -1900.3954    68.797676   -1831.5977 
 1821200    925.26514   -1899.3006    66.975947   -1832.3246 
 1821400    970.31097   -1898.7372    70.236621   -1828.5006 
 1821600    951.81355   -1897.4464    68.897672   -1828.5488 
 1821800    970.46898   -1896.7257    70.248058   -1826.4776 
 1822000    948.68879   -1899.4353    68.671485   -1830.7638 
 1822200    916.45191   -1897.7435    66.337996   -1831.4055 
 1822400       951.26   -1894.4426    68.857603    -1825.585 
 1822600    903.30106   -1898.5273    65.386063   -1833.1413 
 1822800    953.77374    -1898.527    69.039562   -1829.4875 
 1823000    988.16031   -1896.1304    71.528657   -1824.6017 
 1823200    875.48395   -1897.9926    63.372502   -1834.6201 
 1823400    883.51211   -1895.6457    63.953626   -1831.6921 
 1823600    986.90629   -1895.2257    71.437884   -1823.7879 
 1823800    946.95282   -1900.1619    68.545825   -1831.6161 
 1824000    926.21374   -1898.5899    67.044612   -1831.5453 
 1824200    933.45383   -1894.0244    67.568692   -1826.4557 
 1824400    929.86876   -1894.9397    67.309184   -1827.6306 
 1824600    917.05221   -1896.3186    66.381449   -1829.9371 
 1824800    894.08069   -1897.1002     64.71864   -1832.3816 
 1825000    952.60427   -1898.1021    68.954909   -1829.1472 
 1825200    943.62436   -1898.2514    68.304892   -1829.9465 
 1825400    929.50688   -1898.5536    67.282988   -1831.2706 
 1825600    935.72053   -1899.7731    67.732768   -1832.0404 
 1825800    952.15263   -1901.3664    68.922217   -1832.4442 
 1826000    957.82012   -1899.0408    69.332462   -1829.7083 
 1826200    929.46798   -1898.2937    67.280173   -1831.0136 
 1826400    924.23653   -1899.2284    66.901491   -1832.3269 
 1826600    972.77359   -1893.6051    70.414879   -1823.1902 
 1826800    927.95814    -1895.103    67.170882   -1827.9321 
 1827000    903.79288   -1897.5854    65.421663   -1832.1637 
 1827200    964.91045   -1893.5933      69.8457   -1823.7476 
 1827400     944.4383    -1900.749     68.36381   -1832.3852 
 1827600    931.90544   -1896.2467     67.45661   -1828.7901 
 1827800    973.17113   -1893.2008    70.443655   -1822.7571 
 1828000     893.0707   -1893.7326    64.645531   -1829.0871 
 1828200    916.98619   -1895.1764     66.37667   -1828.7998 
 1828400     890.9149   -1896.0034    64.489482    -1831.514 
 1828600    978.20651   -1895.7146    70.808145   -1824.9064 
 1828800    975.01289    -1899.872    70.576972    -1829.295 
 1829000    874.53349   -1897.5567    63.303702    -1834.253 
 1829200     1017.486   -1895.5392    73.651417   -1821.8878 
 1829400    954.04344   -1898.2342    69.059085   -1829.1751 
 1829600    909.54985   -1900.5913    65.838385   -1834.7529 
 1829800    926.03263   -1897.0213    67.031503   -1829.9898 
 1830000    919.07022   -1893.0287    66.527524   -1826.5012 
 1830200    925.88557   -1896.7759    67.020858    -1829.755 
 1830400    901.93908   -1895.8118    65.287475   -1830.5243 
 1830600    947.12898   -1893.0617    68.558576   -1824.5032 
 1830800    946.44379   -1892.8572    68.508978   -1824.3483 
 1831000    939.27109     -1896.89    67.989777   -1828.9002 
 1831200    963.71476   -1898.0656     69.75915   -1828.3065 
 1831400    906.72781   -1893.9746     65.63411   -1828.3405 
 1831600    953.54354   -1899.8103    69.022899   -1830.7874 
 1831800    929.53063   -1894.5831    67.284708   -1827.2984 
 1832000    978.31007   -1898.3883    70.815641   -1827.5727 
 1832200    911.05756   -1901.0035    65.947522    -1835.056 
 1832400    959.68036   -1900.8029    69.467117   -1831.3357 
 1832600    970.58335   -1895.2033    70.256337    -1824.947 
 1832800      928.736     -1892.91    67.227188   -1825.6828 
 1833000    938.76103   -1895.1615    67.952857   -1827.2087 
 1833200    906.28579   -1896.2535    65.602114   -1830.6514 
 1833400    973.06195   -1894.3074    70.435752   -1823.8717 
 1833600    929.02371   -1894.6732    67.248014   -1827.4252 
 1833800    902.66021   -1898.5715    65.339674   -1833.2318 
 1834000    978.85836    -1892.041    70.855329   -1821.1856 
 1834200    927.06548   -1893.5988    67.106266   -1826.4925 
 1834400    888.96035   -1894.6089       64.348   -1830.2609 
 1834600    977.50707   -1892.1397    70.757515   -1821.3822 
 1834800    939.63575   -1894.8911    68.016174   -1826.8749 
 1835000    932.88499   -1897.1385    67.527515    -1829.611 
 1835200    935.78658   -1892.0132    67.737549   -1824.2757 
 1835400    914.44939   -1892.1849    66.193042   -1825.9918 
 1835600    927.81302   -1888.8369    67.160378   -1821.6765 
 1835800    957.86249   -1897.6002    69.335529   -1828.2647 
 1836000    942.93409   -1896.5977    68.254926   -1828.3428 
 1836200     1014.023   -1894.2323    73.400744   -1820.8315 
 1836400     925.3947   -1893.0124    66.985326   -1826.0271 
 1836600    964.89808   -1896.1744    69.844805   -1826.3296 
 1836800    945.39249   -1889.9851     68.43288   -1821.5522 
 1837000    889.40988   -1895.0289     64.38054   -1830.6484 
 1837200    975.46267   -1897.9271     70.60953   -1827.3175 
 1837400    970.95672   -1892.9793    70.283363    -1822.696 
 1837600    943.26775   -1896.6034    68.279078   -1828.3243 
 1837800    933.23707   -1897.8789    67.553001   -1830.3259 
 1838000    939.49936    -1892.544    68.006301   -1824.5377 
 1838200     955.8268   -1894.0859    69.188174   -1824.8977 
 1838400    905.80324   -1895.2571    65.567184   -1829.6899 
 1838600    951.90753   -1900.6858    68.904475   -1831.7814 
 1838800    912.93281   -1892.0519    66.083264   -1825.9686 
 1839000    1001.2665   -1896.0019    72.477355   -1823.5245 
 1839200    862.38826   -1897.6275    62.424562   -1835.2029 
 1839400    917.88724   -1894.8853    66.441893   -1828.4434 
 1839600    994.17221   -1892.6555    71.963833   -1820.6916 
 1839800     919.4924   -1898.9463    66.558084   -1832.3882 
 1840000     908.0532   -1899.8256    65.730049   -1834.0955 
 1840200    964.12817   -1895.1106    69.789075   -1825.3215 
 1840400    880.87803    -1892.554    63.762956   -1828.7911 
 1840600    1000.1403   -1900.5754     72.39584   -1828.1795 
 1840800    912.70274   -1895.1491     66.06661   -1829.0824 
 1841000    944.78772   -1896.0274    68.389103   -1827.6383 
 1841200     947.1301   -1893.8119    68.558658   -1825.2532 
 1841400    1023.5686    -1897.747     74.09171   -1823.6553 
 1841600    898.84291   -1896.5487    65.063357   -1831.4853 
 1841800    947.17448    -1894.695     68.56187   -1826.1331 
 1842000    939.02387   -1893.0994    67.971883   -1825.1276 
 1842200    894.45261    -1896.097    64.745561   -1831.3514 
 1842400    971.30198   -1894.4791    70.308356   -1824.1708 
 1842600    934.71696   -1896.5346    67.660124   -1828.8744 
 1842800    877.04111   -1896.5545    63.485218   -1833.0692 
 1843000    1014.9486   -1899.5097    73.467749   -1826.0419 
 1843200    872.87509   -1894.3105    63.183658   -1831.1269 
 1843400    927.42383   -1895.5736    67.132206   -1828.4414 
 1843600    911.09691   -1895.4522    65.950371   -1829.5019 
 1843800    939.38236   -1899.9608    67.997832    -1831.963 
 1844000    969.32702   -1897.4314    70.165397    -1827.266 
 1844200    956.28763   -1897.5142    69.221532   -1828.2927 
 1844400    951.44701   -1900.2654     68.87114   -1831.3942 
 1844600    956.72067   -1901.3096    69.252877   -1832.0568 
 1844800    966.37449    -1899.358    69.951676   -1829.4063 
 1845000    981.72751   -1892.5312    71.063014   -1821.4682 
 1845200    907.31888   -1895.1513    65.676895   -1829.4744 
 1845400    919.59517   -1900.4152    66.565523   -1833.8497 
 1845600    951.20087   -1895.7519    68.853323   -1826.8985 
 1845800    945.99802   -1894.8476    68.476711   -1826.3709 
 1846000    965.80333   -1899.0901    69.910332   -1829.1797 
 1846200    950.48335   -1902.0434    68.801385    -1833.242 
 1846400    945.59295    -1896.634     68.44739   -1828.1866 
 1846600    971.54413   -1895.1162    70.325884   -1824.7903 
 1846800    873.90995   -1899.1881    63.258567   -1835.9296 
 1847000    916.40333   -1895.6242    66.334479   -1829.2897 
 1847200    1014.3664   -1896.9731    73.425602   -1823.5475 
 1847400    899.69633   -1901.4343    65.125132   -1836.3091 
 1847600    914.78819   -1899.7754    66.217566   -1833.5578 
 1847800    1004.2282   -1896.0823    72.691742   -1823.3905 
 1848000     930.8607   -1899.8177    67.380986   -1832.4367 
 1848200    970.03549   -1901.3669     70.21668   -1831.1503 
 1848400    921.79648   -1895.7867    66.724866   -1829.0618 
 1848600    940.11534   -1896.6928    68.050889   -1828.6419 
 1848800     945.2537   -1893.3539    68.422833   -1824.9311 
 1849000    938.94694   -1901.5938    67.966314   -1833.6275 
 1849200    934.24129   -1898.6907    67.625692    -1831.065 
 1849400    989.31512   -1896.9524    71.612249   -1825.3401 
 1849600     925.0054      -1895.6    66.957146   -1828.6429 
 1849800    982.25404   -1899.5313    71.101128   -1828.4302 
 1850000    924.73181   -1896.0598    66.937342   -1829.1224 
 1850200    984.70682   -1901.4896    71.278674   -1830.2109 
 1850400     936.7414   -1894.2503    67.806664   -1826.4436 
 1850600    898.63909   -1893.0702    65.048603   -1828.0216 
 1850800    934.41447   -1895.9005    67.638228   -1828.2623 
 1851000    949.22412   -1895.3876    68.710235   -1826.6773 
 1851200    940.50213   -1898.5155    68.078888   -1830.4366 
 1851400    902.53853   -1900.6419    65.330866   -1835.3111 
 1851600    1002.4255   -1898.5774     72.56125   -1826.0162 
 1851800     943.6203   -1899.4718    68.304598   -1831.1672 
 1852000    960.25343   -1904.4602    69.508599   -1834.9516 
 1852200    949.28533   -1900.0626    68.714665   -1831.3479 
 1852400    972.01898   -1897.8965    70.360256   -1827.5363 
 1852600    952.47227   -1898.8545    68.945354   -1829.9091 
 1852800    901.20992   -1896.9482    65.234694   -1831.7135 
 1853000    935.83843   -1893.0738    67.741302   -1825.3325 
 1853200    923.77681   -1894.9492    66.868214    -1828.081 
 1853400    931.99617    -1904.433    67.463178   -1836.9699 
 1853600    964.36098     -1899.31    69.805927   -1829.5041 
 1853800    928.50438   -1892.0433    67.210422   -1824.8329 
 1854000     968.6849   -1900.5786    70.118916   -1830.4597 
 1854200    972.32695   -1901.5017    70.382549   -1831.1192 
 1854400    881.02283   -1893.1056    63.773437   -1829.3322 
 1854600    973.88774    -1892.769    70.495527   -1822.2735 
 1854800    985.28777   -1896.8078    71.320726    -1825.487 
 1855000    899.94188   -1900.5281    65.142906   -1835.3852 
 1855200    969.05164   -1893.8224    70.145463   -1823.6769 
 1855400    1000.3745   -1892.0294    72.412792   -1819.6166 
 1855600    937.13504   -1898.9932    67.835158    -1831.158 
 1855800    949.58676   -1901.0117    68.736484   -1832.2752 
 1856000    926.52327   -1892.7398    67.067018   -1825.6727 
 1856200     1007.226   -1896.3757    72.908737   -1823.4669 
 1856400    924.00075   -1898.2558    66.884424   -1831.3713 
 1856600    898.87008   -1898.8299    65.065323   -1833.7646 
 1856800    958.92161   -1895.6163    69.412194   -1826.2041 
 1857000    943.99382   -1897.5455    68.331636   -1829.2138 
 1857200    870.10765   -1894.9792    62.983335   -1831.9958 
 1857400    1004.3902    -1897.218    72.703469   -1824.5145 
 1857600    925.39585   -1895.2226    66.985409   -1828.2372 
 1857800     968.1701   -1897.7569    70.081652   -1827.6753 
 1858000    945.95909   -1894.7787    68.473893   -1826.3048 
 1858200     970.0388   -1898.9203     70.21692   -1828.7034 
 1858400    959.86635    -1898.439     69.48058   -1828.9585 
 1858600    958.94116   -1900.8919    69.413609   -1831.4783 
 1858800    947.65713    -1898.649    68.596807   -1830.0522 
 1859000    984.29344   -1894.3987    71.248751   -1823.1499 
 1859200    963.04017   -1898.4176    69.710318   -1828.7073 
 1859400     940.5638   -1898.4815    68.083351   -1830.3981 
 1859600    995.34412   -1899.9299    72.048662   -1827.8813 
 1859800    935.76461   -1900.8712    67.735959   -1833.1352 
 1860000    1026.3512   -1898.0412    74.293131   -1823.7481 
 1860200    990.12326   -1897.3904    71.670747   -1825.7196 
 1860400    901.90813   -1899.1662    65.285235    -1833.881 
 1860600    924.18695   -1896.1154    66.897902   -1829.2175 
 1860800    987.47767   -1894.9043    71.479244   -1823.4251 
 1861000    910.72565   -1894.2292    65.923497   -1828.3057 
 1861200    976.42819   -1899.8137    70.679419   -1829.1343 
 1861400     930.3918   -1897.5328    67.347045   -1830.1858 
 1861600    933.11128   -1895.6617    67.543896   -1828.1178 
 1861800    1027.4276   -1901.8701    74.371045   -1827.4991 
 1862000    931.51883    -1899.987    67.428625   -1832.5584 
 1862200    957.39901   -1894.7987    69.301979   -1825.4967 
 1862400    934.31312   -1895.8348    67.630892   -1828.2039 
 1862600    930.93026   -1899.2795    67.386021   -1831.8935 
 1862800    980.97065   -1894.7799    71.008229   -1823.7716 
 1863000    949.22032    -1898.204     68.70996    -1829.494 
 1863200    927.58769   -1898.6577    67.144067   -1831.5136 
 1863400    982.27129   -1895.6722    71.102376   -1824.5698 
 1863600    952.09933   -1896.7475    68.918359   -1827.8291 
 1863800    928.39437   -1899.7006    67.202459   -1832.4981 
 1864000    951.26566   -1895.0672    68.858013   -1826.2092 
 1864200    951.05433   -1896.0775    68.842715   -1827.2348 
 1864400    956.05836   -1895.5445    69.204936   -1826.3395 
 1864600    1011.9887   -1898.8708    73.253492   -1825.6173 
 1864800    938.41121   -1899.5308    67.927534   -1831.6032 
 1865000     1014.352   -1900.0672    73.424564   -1826.6427 
 1865200    952.34637   -1895.0889    68.936241   -1826.1527 
 1865400    923.98458   -1894.3013    66.883253    -1827.418 
 1865600    972.08521   -1896.3611     70.36505   -1825.9961 
 1865800    925.08163   -1898.3986    66.962664   -1831.4359 
 1866000    944.92845   -1898.5588     68.39929   -1830.1595 
 1866200    1021.7111    -1895.147    73.957255   -1821.1898 
 1866400    953.46214   -1894.0488    69.017006   -1825.0318 
 1866600    895.90182   -1896.9102    64.850464   -1832.0597 
 1866800    976.73722   -1896.0611    70.701789   -1825.3593 
 1867000    965.34115   -1895.5727    69.876877   -1825.6958 
 1867200    878.86026   -1899.5101    63.616898   -1835.8932 
 1867400     927.5514   -1896.4123     67.14144   -1829.2709 
 1867600    1001.3003   -1897.0885    72.479804   -1824.6087 
 1867800    936.95238   -1896.7905    67.821936   -1828.9686 
 1868000    942.75351   -1897.5359    68.241855   -1829.2941 
 1868200    963.53581   -1897.1268    69.746196   -1827.3806 
 1868400    926.82161    -1894.671    67.088614   -1827.5824 
 1868600    966.56396   -1897.9931    69.965391   -1828.0277 
 1868800    949.24339   -1898.1622    68.711629   -1829.4505 
 1869000    1006.4181   -1896.2326    72.850257   -1823.3824 
 1869200    939.90812   -1894.0907     68.03589   -1826.0548 
 1869400    932.71984   -1897.6978    67.515561   -1830.1822 
 1869600    953.62001   -1895.2679    69.028434   -1826.2395 
 1869800    970.87107   -1893.8645    70.277164   -1823.5874 
 1870000    976.30495   -1895.0953    70.670499   -1824.4248 
 1870200    978.39133   -1898.8851    70.821523   -1828.0635 
 1870400    963.35328    -1902.181    69.732983    -1832.448 
 1870600    944.38244    -1899.126    68.359766   -1830.7662 
 1870800    952.70287   -1894.7218    68.962046   -1825.7598 
 1871000    976.88878   -1897.9358     70.71276    -1827.223 
 1871200    969.33928   -1897.5301    70.166284   -1827.3638 
 1871400    956.59024   -1900.7378    69.243436   -1831.4944 
 1871600     883.5856   -1898.7666    63.958946   -1834.8077 
 1871800    988.92366   -1901.8979    71.583912    -1830.314 
 1872000    948.62645   -1899.0184    68.666972   -1830.3514 
 1872200    955.58196   -1902.3548    69.170451   -1833.1844 
 1872400    993.01647   -1899.1375    71.880174   -1827.2573 
 1872600    875.06651    -1891.274    63.342286   -1827.9317 
 1872800    950.40645   -1898.2139    68.795818    -1829.418 
 1873000    991.14031   -1901.1789    71.744367   -1829.4345 
 1873200    1001.6333   -1903.3495    72.503907   -1830.8456 
 1873400    988.65051   -1900.7487     71.56414   -1829.1846 
 1873600    961.62975   -1900.2215    69.608225   -1830.6133 
 1873800    951.38991   -1900.9027    68.867007   -1832.0357 
 1874000    981.57825   -1900.2801     71.05221   -1829.2279 
 1874200    970.33973   -1896.8933    70.238702   -1826.6546 
 1874400    940.02071   -1897.2912     68.04404   -1829.2472 
 1874600    995.12997   -1899.1817    72.033161   -1827.1486 
 1874800    960.13504   -1894.6472    69.500029   -1825.1472 
 1875000    984.74921   -1894.6338    71.281743   -1823.3521 
 1875200    923.70233   -1896.6162    66.862823   -1829.7534 
 1875400    980.93418   -1899.0324    71.005589   -1828.0268 
 1875600    966.75194   -1895.3458    69.978998   -1825.3668 
 1875800    941.44965   -1895.9751    68.147474   -1827.8276 
 1876000    981.18212   -1900.8439    71.023536   -1829.8204 
 1876200     931.0803   -1897.0455    67.396881   -1829.6486 
 1876400    955.28555    -1892.414    69.148995    -1823.265 
 1876600    974.86507   -1894.7135    70.566272   -1824.1472 
 1876800    887.64042   -1896.0282    64.252456   -1831.7757 
 1877000    964.61009   -1900.5615    69.823959   -1830.7375 
 1877200    1018.3867   -1895.5203    73.716612   -1821.8036 
 1877400    967.13281   -1897.8818    70.006567   -1827.8752 
 1877600    922.33516   -1899.3646    66.763859   -1832.6007 
 1877800     1021.402   -1898.4024    73.934876   -1824.4676 
 1878000    954.35762   -1896.9754    69.081826   -1827.8936 
 1878200    968.58832   -1896.2446    70.111926   -1826.1326 
 1878400    912.51653   -1892.5641     66.05313    -1826.511 
 1878600    973.85669   -1896.9672     70.49328    -1826.474 
 1878800    950.05023   -1895.7394    68.770033   -1826.9694 
 1879000    944.39997   -1896.4133    68.361035   -1828.0522 
 1879200    990.11933   -1896.9239    71.670462   -1825.2534 
 1879400    950.53724   -1891.5657    68.805286   -1822.7605 
 1879600    928.41232   -1890.9775    67.203758   -1823.7737 
 1879800    909.75627   -1892.8268    65.853327   -1826.9735 
 1880000    937.53661   -1894.2774    67.864226   -1826.4132 
 1880200    960.27078   -1894.8542    69.509854   -1825.3444 
 1880400     975.1509   -1893.1256    70.586962   -1822.5387 
 1880600    936.71376   -1897.0415    67.804664   -1829.2368 
 1880800     948.3788   -1898.0651    68.649045   -1829.4161 
 1881000    1011.6756   -1898.9444    73.230825   -1825.7136 
 1881200    966.97028   -1894.7455    69.994802   -1824.7507 
 1881400    957.24886   -1893.9646     69.29111   -1824.6734 
 1881600    1009.1569   -1891.3697    73.048506   -1818.3212 
 1881800    1015.8062   -1893.6628    73.529824    -1820.133 
 1882000     964.8635   -1897.7351    69.842302   -1827.8928 
 1882200    958.72765   -1892.7448    69.398154   -1823.3467 
 1882400    979.48398   -1889.2033    70.900615   -1818.3027 
 1882600    951.41607   -1894.7458    68.868901   -1825.8769 
 1882800     937.8692   -1897.6325    67.888301   -1829.7442 
 1883000    1024.6011    -1895.755    74.166452   -1821.5886 
 1883200    976.55623   -1895.4836    70.688688   -1824.7949 
 1883400    911.87337   -1898.5492    66.006575   -1832.5426 
 1883600    978.34081   -1893.6447    70.817866   -1822.8268 
 1883800    965.06935   -1893.0536    69.857203   -1823.1964 
 1884000    919.38321    -1894.697     66.55018   -1828.1468 
 1884200    1013.9956   -1893.8884    73.398762   -1820.4897 
 1884400    935.27712   -1895.0678    67.700671   -1827.3672 
 1884600    975.58695   -1893.3859    70.618526   -1822.7674 
 1884800    957.85528   -1891.3214    69.335007   -1821.9864 
 1885000    915.89074    -1891.271    66.297375   -1824.9737 
 1885200    996.42836   -1890.3417    72.127146   -1818.2146 
 1885400    974.21272    -1892.984    70.519051   -1822.4649 
 1885600    892.17068   -1893.2578    64.580382   -1828.6774 
 1885800     969.8143   -1891.8314    70.200669   -1821.6307 
 1886000    1006.5957   -1893.3588    72.863118   -1820.4957 
 1886200    947.46645   -1897.8279    68.583004   -1829.2449 
 1886400    952.28683   -1892.3499    68.931931    -1823.418 
 1886600    1002.1533   -1892.6577    72.541547   -1820.1162 
 1886800    967.64816   -1898.6915    70.043871   -1828.6476 
 1887000     964.0324   -1897.5364    69.782142   -1827.7542 
 1887200    1001.9853   -1892.4658    72.529388   -1819.9364 
 1887400    936.81825   -1892.6849    67.812227   -1824.8727 
 1887600    985.16901   -1897.5234     71.31213   -1826.2113 
 1887800     930.8461   -1891.3403    67.379929   -1823.9604 
 1888000    948.17274   -1893.4845     68.63413   -1824.8504 
 1888200    910.85001   -1895.0112    65.932498   -1829.0787 
 1888400    976.22121   -1898.4212    70.664437   -1827.7568 
 1888600    967.15108   -1892.9838    70.007889   -1822.9759 
 1888800    946.21388   -1892.6401    68.492336   -1824.1477 
 1889000     976.5704   -1894.3276    70.689714   -1823.6378 
 1889200    928.98325   -1893.4959    67.245085   -1826.2508 
 1889400    925.79799   -1892.3921    67.014518   -1825.3776 
 1889600    938.75738   -1893.9509    67.952592   -1825.9983 
 1889800    941.88242   -1893.8281    68.178801   -1825.6493 
 1890000    922.80304   -1887.8022    66.797727   -1821.0044 
 1890200    937.11072   -1893.6834    67.833398     -1825.85 
 1890400    922.71269   -1898.5103    66.791187   -1831.7191 
 1890600    991.79849   -1892.7769    71.792009   -1820.9849 
 1890800      992.436   -1892.9436    71.838156   -1821.1054 
 1891000    914.92933   -1902.3645    66.227783   -1836.1367 
 1891200    969.78597    -1894.596    70.198618   -1824.3973 
 1891400    1006.5614   -1887.9095    72.860636   -1815.0488 
 1891600    895.05354   -1896.6286    64.789061   -1831.8395 
 1891800    947.89752   -1896.3971    68.614208   -1827.7829 
 1892000    982.23647   -1886.5874    71.099856   -1815.4876 
 1892200     932.5145   -1895.3367    67.500697    -1827.836 
 1892400    911.08955   -1899.0844    65.949838   -1833.1346 
 1892600    1043.9712   -1895.1132    75.568564   -1819.5446 
 1892800    977.65382   -1893.9407    70.768138   -1823.1726 
 1893000    919.95814   -1898.3347    66.591797   -1831.7429 
 1893200    1015.2663   -1894.1634     73.49074   -1820.6727 
 1893400    981.40857   -1891.2915    71.039928   -1820.2516 
 1893600    956.56619   -1893.9895    69.241695   -1824.7478 
 1893800    949.67324    -1892.085    68.742745   -1823.3423 
 1894000    988.54942   -1895.6429    71.556823   -1824.0861 
 1894200    950.07548   -1893.1967    68.771861   -1824.4249 
 1894400    965.96173   -1892.7586    69.921798   -1822.8368 
 1894600    915.55622   -1891.8641    66.273161    -1825.591 
 1894800     950.3226   -1892.0188    68.789749   -1823.2291 
 1895000    954.71072   -1894.7048    69.107386   -1825.5975 
 1895200       948.25   -1893.1851    68.639722   -1824.5454 
 1895400    1015.3694   -1892.9318    73.498206   -1819.4335 
 1895600    975.14654   -1895.8782    70.586646   -1825.2916 
 1895800     963.4516   -1891.8758    69.740101   -1822.1357 
 1896000    976.77413   -1891.1421    70.704461   -1820.4377 
 1896200    951.84938   -1896.1066    68.900266   -1827.2063 
 1896400    955.61229   -1894.1195    69.172646   -1824.9469 
 1896600    997.21796   -1896.3386    72.184302   -1824.1543 
 1896800    904.72651   -1892.6432    65.489245   -1827.1539 
 1897000    945.62818   -1890.7424     68.44994   -1822.2924 
 1897200     968.7695   -1892.2328     70.12504   -1822.1078 
 1897400    992.78393   -1898.1496    71.863341   -1826.2863 
 1897600    931.67197   -1894.4023     67.43971   -1826.9626 
 1897800    990.11193   -1893.5978    71.669926   -1821.9279 
 1898000    981.66991   -1892.8701    71.058845   -1821.8113 
 1898200    936.88606   -1893.8299    67.817135   -1826.0127 
 1898400    988.77416   -1894.0674    71.573091   -1822.4943 
 1898600    958.36029   -1894.6716    69.371562      -1825.3 
 1898800    926.67821   -1897.7343    67.078233   -1830.6561 
 1899000    974.50694   -1896.7878    70.540349   -1826.2475 
 1899200    990.16695   -1892.7835    71.673909   -1821.1096 
 1899400    974.08521   -1898.9958    70.509821   -1828.4859 
 1899600    959.48288   -1898.4049    69.452822   -1828.9521 
 1899800     970.7637   -1892.9543    70.269392   -1822.6849 
 1900000     966.9808   -1892.9803    69.995564   -1822.9848 
 1900200    975.65166   -1897.1995     70.62321   -1826.5762 
 1900400    958.14686   -1891.7336    69.356113   -1822.3774 
 1900600    972.30558   -1892.3476    70.381002   -1821.9666 
 1900800    937.99081   -1896.5657    67.897104   -1828.6686 
 1901000    993.01095    -1897.078    71.879774   -1825.1982 
 1901200    1011.5586   -1892.9815    73.222355   -1819.7591 
 1901400    924.24772   -1894.8136    66.902301   -1827.9113 
 1901600    957.30043   -1893.1858    69.294844   -1823.8909 
 1901800    997.18303   -1894.0834    72.181773   -1821.9016 
 1902000    926.56229   -1894.0379    67.069842   -1826.9681 
 1902200    948.57167   -1892.5781    68.663006   -1823.9151 
 1902400     990.8616   -1893.6324    71.724192   -1821.9082 
 1902600    930.16173   -1890.1433     67.33039   -1822.8129 
 1902800    1006.4662   -1894.8404    72.853742   -1821.9867 
 1903000    970.47833   -1895.1902    70.248735   -1824.9415 
 1903200    983.95471   -1894.9047    71.224232   -1823.6805 
 1903400    975.31315   -1896.0725    70.598707   -1825.4738 
 1903600    951.53773   -1894.4455    68.877706   -1825.5678 
 1903800    938.58555   -1893.5476    67.940155   -1825.6074 
 1904000    946.28074   -1894.8538    68.497176   -1826.3566 
 1904200    1023.8979    -1895.569    74.115544   -1821.4535 
 1904400    949.59374   -1893.6883     68.73699   -1824.9513 
 1904600    963.15364   -1893.7587    69.718532   -1824.0402 
 1904800    981.40713   -1893.6013    71.039824   -1822.5615 
 1905000    953.55461   -1893.7942      69.0237   -1824.7705 
 1905200    954.98868   -1894.2234    69.127506   -1825.0959 
 1905400    944.85379   -1889.8917    68.393885   -1821.4978 
 1905600    993.21247   -1894.6762    71.894361   -1822.7819 
 1905800    954.17633   -1895.9604    69.068703   -1826.8917 
 1906000    925.25715    -1894.083    66.975369   -1827.1076 
 1906200    959.29579   -1888.4647    69.439279   -1819.0254 
 1906400    984.78976   -1887.8999    71.284677   -1816.6152 
 1906600    921.57642   -1892.4973    66.708937   -1825.7884 
 1906800    1008.4586   -1897.5259    72.997961   -1824.5279 
 1907000    979.13867    -1892.671     70.87562   -1821.7954 
 1907200    968.45439    -1890.379    70.102231   -1820.2768 
 1907400    973.95638   -1889.7069    70.500496   -1819.2064 
 1907600    963.89777   -1893.1434    69.772397    -1823.371 
 1907800    929.94282   -1892.1995    67.314544   -1824.8849 
 1908000    999.92253   -1893.9775    72.380074   -1821.5974 
 1908200     973.2012   -1892.1787    70.445832   -1821.7328 
 1908400    902.03695   -1895.2798    65.294559   -1829.9852 
 1908600    967.98963   -1895.1555    70.068588   -1825.0869 
 1908800    1015.1279   -1893.3956    73.480721   -1819.9149 
 1909000    904.73566   -1892.0464    65.489907   -1826.5565 
 1909200    1002.0122   -1895.6062    72.531334   -1823.0748 
 1909400    978.35621   -1895.0208    70.818981   -1824.2018 
 1909600    979.71868   -1893.0665    70.917604   -1822.1489 
 1909800    967.29391   -1892.1692    70.018229    -1822.151 
 1910000      921.975   -1891.5974    66.737789   -1824.8596 
 1910200    919.72936   -1892.7477    66.575236   -1826.1725 
 1910400     990.6762   -1894.8413    71.710771   -1823.1305 
 1910600    998.37107   -1896.4774     72.26777   -1824.2097 
 1910800    918.63901    -1892.461    66.496311   -1825.9647 
 1911000    996.12012   -1894.4951    72.104833   -1822.3903 
 1911200    1024.9197   -1892.7582    74.189509   -1818.5687 
 1911400    949.68288   -1889.0015    68.743443    -1820.258 
 1911600    954.86405   -1893.8313    69.118485   -1824.7128 
 1911800     1012.137   -1892.7768    73.264227   -1819.5126 
 1912000    1035.8187   -1894.1999    74.978444   -1819.2215 
 1912200    948.88744   -1896.6776    68.685864   -1827.9918 
 1912400    959.60912   -1895.5833     69.46196   -1826.1213 
 1912600    1019.6068   -1893.7142    73.804932   -1819.9093 
 1912800    958.20949   -1893.7499    69.360646   -1824.3892 
 1913000    988.58599   -1898.4079     71.55947   -1826.8484 
 1913200     1040.901   -1896.7113     75.34633    -1821.365 
 1913400     934.5102   -1895.5062    67.645158   -1827.8611 
 1913600    925.99476   -1893.5966    67.028761   -1826.5678 
 1913800    969.73695   -1887.9447     70.19507   -1817.7497 
 1914000    977.88116   -1894.1628    70.784594   -1823.3782 
 1914200     931.8365   -1893.6013     67.45162   -1826.1497 
 1914400    1003.6465   -1894.1866    72.649634   -1821.5369 
 1914600    977.67304   -1899.0853    70.769529   -1828.3158 
 1914800     979.1439   -1892.6762    70.875998   -1821.8002 
 1915000    992.99555   -1889.4559    71.878659   -1817.5772 
 1915200    899.27579   -1891.3051    65.094691   -1826.2104 
 1915400    980.29591   -1894.2589    70.959388   -1823.2995 
 1915600    918.16786   -1891.7178    66.462206   -1825.2556 
 1915800    931.94491   -1893.3018    67.459467   -1825.8424 
 1916000      1034.45   -1897.5859    74.879371   -1822.7066 
 1916200    930.42596   -1893.9629    67.349517   -1826.6134 
 1916400    976.57685   -1895.0119    70.690181   -1824.3217 
 1916600    980.91104   -1888.2921    71.003914   -1817.2882 
 1916800    957.33428   -1894.4295    69.297294   -1825.1322 
 1917000    926.59022    -1897.085    67.071864   -1830.0131 
 1917200    991.82309   -1894.4194     71.79379   -1822.6256 
 1917400     970.1187   -1891.1816    70.222703   -1820.9589 
 1917600    958.53756   -1893.9442    69.384394   -1824.5598 
 1917800    988.29175   -1899.8906    71.538171   -1828.3524 
 1918000    952.13688   -1895.1375    68.921077   -1826.2164 
 1918200    975.81594   -1892.9253    70.635101   -1822.2902 
 1918400    954.55506   -1899.4244    69.096119   -1830.3283 
 1918600    997.74541   -1896.8507    72.222481   -1824.6282 
 1918800    1032.6177   -1892.2331    74.746732   -1817.4864 
 1919000    968.76585   -1897.2053    70.124776   -1827.0805 
 1919200    1016.4064   -1897.6053    73.573273   -1824.0321 
 1919400    980.33338   -1894.5891      70.9621    -1823.627 
 1919600    952.17603   -1896.4627     68.92391   -1827.5388 
 1919800    1002.1225   -1896.8441    72.539322   -1824.3048 
 1920000    954.00982   -1894.4096    69.056651    -1825.353 
 1920200    961.19806   -1892.0861    69.576976   -1822.5091 
 1920400    987.10554   -1899.1129    71.452307   -1827.6605 
 1920600    911.38266    -1897.167    65.971055    -1831.196 
 1920800    964.69196   -1893.0199    69.829884     -1823.19 
 1921000    961.81443    -1894.312    69.621593   -1824.6904 
 1921200    978.37815   -1896.4428    70.820569   -1825.6222 
 1921400    1022.9419   -1895.4619    74.046348   -1821.4155 
 1921600    967.87699    -1894.594    70.060435   -1824.5336 
 1921800    1013.1941   -1896.1576    73.340746   -1822.8169 
 1922000    972.81692   -1890.7217    70.418015   -1820.3036 
 1922200    991.89169   -1891.4358    71.798755   -1819.6371 
 1922400    1008.1559   -1899.6355     72.97605   -1826.6595 
 1922600    903.18045   -1896.7009    65.377332   -1831.3236 
 1922800    1005.3115    -1889.711    72.770155   -1816.9408 
 1923000    957.71871   -1887.7057    69.325121   -1818.3806 
 1923200    960.74096   -1899.7539    69.543889     -1830.21 
 1923400    962.36861   -1897.7006    69.661707   -1828.0389 
 1923600    1038.8675   -1892.9174    75.199133   -1817.7183 
 1923800    922.63131   -1893.5596    66.785296   -1826.7743 
 1924000    956.70531   -1902.3215    69.251765   -1833.0698 
 1924200    956.19113    -1890.784    69.214547   -1821.5694 
 1924400    964.80999   -1890.9847    69.838429   -1821.1462 
 1924600    943.22721   -1897.7333    68.276144   -1829.4571 
 1924800    959.20783   -1898.2023    69.432913   -1828.7694 
 1925000    983.20391   -1891.4356    71.169885   -1820.2657 
 1925200    990.10279   -1895.3175    71.669265   -1823.6483 
 1925400    924.32191   -1895.6427    66.907671    -1828.735 
 1925600     991.5477   -1892.3828    71.773856   -1820.6089 
 1925800    1036.2847   -1890.1597    75.012174   -1815.1475 
 1926000    970.05251   -1894.0001    70.217911   -1823.7822 
 1926200    917.17227   -1895.8521    66.390139   -1829.4619 
 1926400     993.1397   -1891.1846    71.889094   -1819.2955 
 1926600    957.92026   -1886.2983     69.33971   -1816.9586 
 1926800    949.26066   -1900.0336    68.712879   -1831.3208 
 1927000    933.25098   -1897.7112    67.554008   -1830.1572 
 1927200    1063.3888   -1892.2153    76.974126   -1815.2411 
 1927400     941.6875   -1894.3525    68.164691   -1826.1878 
 1927600    951.47474   -1896.8936    68.873147   -1828.0204 
 1927800    1015.5574   -1891.2644    73.511816   -1817.7525 
 1928000    955.72233   -1891.1598    69.180612   -1821.9792 
 1928200     960.3183   -1893.3421    69.513295   -1823.8288 
 1928400    931.63614   -1896.1733    67.437116   -1828.7361 
 1928600    972.66231   -1893.5791    70.406824   -1823.1723 
 1928800    951.72835   -1889.0404    68.891505   -1820.1489 
 1929000    938.26901   -1894.7202    67.917242    -1826.803 
 1929200    969.81359   -1895.8614    70.200618   -1825.6608 
 1929400    953.34269   -1893.5686     69.00836   -1824.5602 
 1929600    1011.3834   -1895.0389    73.209674   -1821.8292 
 1929800    1016.6795   -1894.3846    73.593037   -1820.7916 
 1930000    984.78495   -1897.0142    71.284329   -1825.7299 
 1930200    961.29459   -1894.7386    69.583964   -1825.1547 
 1930400    1018.0692   -1893.7808    73.693632   -1820.0872 
 1930600    992.34289   -1898.5111    71.831416   -1826.6797 
 1930800    921.96609   -1893.6546    66.737143   -1826.9174 
 1931000    1013.9928   -1892.8559     73.39856   -1819.4573 
 1931200    944.20332   -1896.2889    68.346801   -1827.9421 
 1931400    970.13027   -1892.1899    70.223541   -1821.9664 
 1931600    1023.7886   -1890.3396    74.107634   -1816.2319 
 1931800    975.47437   -1897.6929    70.610377   -1827.0825 
 1932000    956.91034    -1895.949    69.266607   -1826.6824 
 1932200    936.24939   -1889.3408     67.77105   -1821.5698 
 1932400    944.67349   -1892.0961    68.380834   -1823.7153 
 1932600    977.81022   -1894.7481    70.779459   -1823.9687 
 1932800    912.96935   -1892.2807    66.085908   -1826.1948 
 1933000    989.11724   -1889.9148    71.597925   -1818.3169 
 1933200    988.87474   -1897.4353    71.580372   -1825.8549 
 1933400    902.91932   -1895.8321     65.35843   -1830.4737 
 1933600    1027.2689    -1893.072    74.359558   -1818.7124 
 1933800    1000.4559   -1894.5427    72.418685    -1822.124 
 1934000    929.25152   -1897.1923    67.264504   -1829.9278 
 1934200    950.78678   -1891.2818    68.823349   -1822.4584 
 1934400    999.63884    -1888.005    72.359539   -1815.6455 
 1934600    926.20956   -1894.3145     67.04431   -1827.2702 
 1934800    949.18654   -1897.3541    68.707514   -1828.6466 
 1935000    978.77332   -1888.0218    70.849173   -1817.1726 
 1935200     955.4476   -1892.8959    69.160726   -1823.7352 
 1935400    961.80309   -1900.7934    69.620772   -1831.1726 
 1935600    990.27684   -1891.7594    71.681863   -1820.0776 
 1935800    1009.9327   -1891.1052    73.104667   -1818.0005 
 1936000    937.31259    -1897.666     67.84801    -1829.818 
 1936200    980.63401   -1893.6659    70.983861    -1822.682 
 1936400    986.39818   -1889.4681    71.401104    -1818.067 
 1936600    962.80919   -1899.1121    69.693599   -1829.4185 
 1936800    957.26813   -1899.1952    69.292506   -1829.9027 
 1937000    979.05668   -1890.6597    70.869685     -1819.79 
 1937200    1018.4931   -1893.2606     73.72432   -1819.5363 
 1937400    994.39013   -1901.3745    71.979607   -1829.3949 
 1937600    949.32998   -1898.4676    68.717897   -1829.7497 
 1937800    1057.1916   -1892.2459    76.525536   -1815.7203 
 1938000     1010.225   -1898.6193    73.125826   -1825.4935 
 1938200    919.73722   -1900.7811    66.575805   -1834.2053 
 1938400    1043.8575   -1895.2728    75.560334   -1819.7124 
 1938600    1001.6507    -1893.042    72.505167   -1820.5369 
 1938800    948.96946    -1898.294    68.691801   -1829.6022 
 1939000    991.21856   -1897.0557    71.750031   -1825.3057 
 1939200    987.08465     -1894.31    71.450795   -1822.8592 
 1939400    996.01281   -1895.6325    72.097066   -1823.5354 
 1939600    975.28242   -1896.9668    70.596482   -1826.3703 
 1939800    964.58652   -1894.0908    69.822252   -1824.2685 
 1940000    993.38187   -1891.5755    71.906623   -1819.6689 
 1940200    997.85966   -1896.9952    72.230751   -1824.7644 
 1940400    996.94404   -1897.0849    72.164474   -1824.9204 
 1940600    948.59182   -1892.2555    68.664465    -1823.591 
 1940800    944.01913   -1891.9607    68.333468   -1823.6273 
 1941000    971.71567   -1895.6999    70.338301   -1825.3616 
 1941200    973.65718    -1896.632    70.478838   -1826.1531 
 1941400    986.98894   -1895.3011    71.443867   -1823.8572 
 1941600    981.85449   -1893.5619    71.072206   -1822.4897 
 1941800    974.48108   -1895.7677    70.538477   -1825.2292 
 1942000    1010.2742   -1896.7167    73.129384   -1823.5873 
 1942200    963.60859   -1890.6197    69.751464   -1820.8683 
 1942400    917.86604   -1894.2579    66.440359   -1827.8176 
 1942600    959.24076   -1894.9693    69.435296    -1825.534 
 1942800    1006.0345   -1891.7993    72.822489   -1818.9768 
 1943000     927.1414   -1892.3733    67.111762   -1825.2615 
 1943200    974.94634   -1894.5811    70.572155   -1824.0089 
 1943400    1028.1761   -1888.9641    74.425226   -1814.5389 
 1943600    985.55982   -1891.4352    71.340419   -1820.0947 
 1943800    963.78089    -1893.469    69.763936   -1823.7051 
 1944000     1057.109   -1891.2121    76.519557   -1814.6926 
 1944200    969.54727    -1891.747     70.18134   -1821.5657 
 1944400     1052.677   -1894.7013    76.198741   -1818.5025 
 1944600    937.49063   -1890.2177    67.860898   -1822.3568 
 1944800    1009.0479   -1890.5414    73.040623   -1817.5007 
 1945000    973.99354   -1888.6442    70.503186   -1818.1411 
 1945200    954.65322   -1893.3483    69.103224   -1824.2451 
 1945400    962.10211   -1893.8405    69.642417   -1824.1981 
 1945600    1021.7917    -1892.236     73.96309   -1818.2729 
 1945800    955.46874    -1893.197    69.162256   -1824.0348 
 1946000    968.39021   -1891.0358    70.097585   -1820.9382 
 1946200    995.50629   -1892.5889    72.060401   -1820.5285 
 1946400    959.30587   -1896.6894    69.440009   -1827.2493 
 1946600     1022.394   -1893.9895    74.006685   -1819.9828 
 1946800    944.33871   -1889.2385      68.3566   -1820.8819 
 1947000    951.04231    -1894.042    68.841845   -1825.2001 
 1947200    1009.6301   -1892.6499    73.082761   -1819.5671 
 1947400    987.36185   -1891.4644     71.47086   -1819.9935 
 1947600    953.77554   -1894.0259    69.039692   -1824.9862 
 1947800    996.46361   -1898.3938    72.129697   -1826.2641 
 1948000     942.5615   -1894.4569    68.227956   -1826.2289 
 1948200    982.74166   -1893.7067    71.136425   -1822.5703 
 1948400    989.09472   -1892.3593    71.596295    -1820.763 
 1948600    984.22206   -1895.1792    71.243584   -1823.9356 
 1948800    971.13814   -1894.6208    70.296496   -1824.3243 
 1949000    1009.9248   -1895.8139    73.104091   -1822.7098 
 1949200    953.37551   -1894.9101    69.010736   -1825.8994 
 1949400    1053.5312   -1899.4918    76.260577   -1823.2312 
 1949600    942.17881     -1896.18    68.200255   -1827.9797 
 1949800    956.26127   -1891.2433    69.219624   -1822.0236 
 1950000    1042.0965   -1892.7562    75.432862   -1817.3234 
 1950200    980.58322   -1901.4967    70.980184   -1830.5165 
 1950400     1000.037   -1896.6326    72.388361   -1824.2443 
 1950600     1043.113   -1893.8496    75.506442   -1818.3431 
 1950800    926.43952   -1898.3263    67.060956   -1831.2654 
 1951000     1008.482   -1896.9301    72.999658   -1823.9305 
 1951200     1081.212   -1894.6957     78.26427   -1816.4315 
 1951400    942.62757   -1896.1433    68.232739   -1827.9105 
 1951600    965.16712    -1900.279     69.86428   -1830.4147 
 1951800    986.46031   -1893.3623    71.405601   -1821.9567 
 1952000    997.87452   -1895.8701    72.231827   -1823.6383 
 1952200    976.66188   -1899.5331    70.696336   -1828.8367 
 1952400    983.27577   -1895.2784    71.175086   -1824.1033 
 1952600    1000.3955    -1890.339    72.414311   -1817.9247 
 1952800    1019.0555   -1893.4467    73.765027   -1819.6817 
 1953000    928.99153    -1897.823    67.245685   -1830.5773 
 1953200    1020.1974   -1893.6483    73.847685   -1819.8006 
 1953400    1016.3253    -1890.399      73.5674   -1816.8316 
 1953600    963.46486   -1897.5639     69.74106   -1827.8228 
 1953800     962.4717   -1891.2267    69.669169   -1821.5575 
 1954000    957.46308   -1888.7596    69.306617    -1819.453 
 1954200    974.68174   -1895.8991    70.553002   -1825.3461 
 1954400    961.96638   -1894.0942    69.632592   -1824.4616 
 1954600    998.17713   -1892.6987    72.253731   -1820.4449 
 1954800    1001.1225   -1892.3957    72.466931   -1819.9288 
 1955000     1022.211   -1896.6189    73.993437   -1822.6255 
 1955200    961.11275   -1897.6897    69.570801   -1828.1189 
 1955400    1027.4575   -1892.7189    74.373212   -1818.3457 
 1955600     969.8952   -1888.7397    70.206525   -1818.5332 
 1955800    946.25065   -1894.5515    68.494998   -1826.0565 
 1956000    958.63356   -1889.1883    69.391343   -1819.7969 
 1956200    953.88036   -1887.6641    69.047279   -1818.6168 
 1956400    959.79133   -1890.4597    69.475149   -1820.9845 
 1956600    986.92452   -1896.4704    71.439203   -1825.0312 
 1956800     932.9826   -1893.7995    67.534581   -1826.2649 
 1957000    982.95109    -1891.776    71.151584   -1820.6244 
 1957200     926.2897   -1889.9096    67.050111   -1822.8595 
 1957400    987.04349   -1893.4672    71.447816   -1822.0194 
 1957600    1031.4774   -1892.3123    74.664192   -1817.6481 
 1957800    976.56651    -1889.285    70.689432   -1818.5955 
 1958000    968.20136    -1894.669    70.083915   -1824.5851 
 1958200     1006.807   -1895.6637    72.878413   -1822.7853 
 1958400    1059.6293   -1895.3967     76.70199   -1818.6947 
 1958600    1016.5238   -1896.4282    73.581768   -1822.8465 
 1958800    986.46342   -1894.3152    71.405826   -1822.9094 
 1959000     1001.874   -1893.9823     72.52133    -1821.461 
 1959200     973.0712   -1894.6039    70.436421   -1824.1674 
 1959400    1006.5501    -1892.546    72.859814   -1819.6862 
 1959600     1022.366   -1896.0584    74.004658   -1822.0537 
 1959800    954.43847   -1894.9342    69.087679   -1825.8465 
 1960000     1016.226   -1893.6879    73.560213   -1820.1277 
 1960200    1014.7278   -1891.9212    73.451765   -1818.4694 
 1960400    976.69784   -1896.0954    70.698938   -1825.3965 
 1960600    1055.4058   -1893.5613    76.396268    -1817.165 
 1960800    1032.8827   -1895.6223    74.765921   -1820.8564 
 1961000    910.97394   -1894.2088    65.941469   -1828.2673 
 1961200    1017.5596   -1891.3445    73.656744   -1817.6877 
 1961400    1020.2452   -1894.9775    73.851143   -1821.1263 
 1961600    948.05437   -1894.4426    68.625561   -1825.8171 
 1961800    991.95855   -1893.0937    71.803595   -1821.2901 
 1962000    970.68191   -1894.0541    70.263471   -1823.7906 
 1962200    1002.4924   -1895.1453    72.566095   -1822.5792 
 1962400    1015.6246   -1894.5911    73.516677   -1821.0745 
 1962600    946.68623   -1889.8083    68.526527   -1821.2818 
 1962800    997.99891   -1891.1753    72.240831   -1818.9345 
 1963000    979.45757   -1896.2077    70.898704    -1825.309 
 1963200    969.55288   -1897.5442    70.181745   -1827.3625 
 1963400    1049.1744   -1892.5935    75.945202   -1816.6483 
 1963600    978.83846   -1893.1056    70.853889   -1822.2517 
 1963800    969.14421   -1899.9955    70.152164   -1829.8433 
 1964000    958.24418   -1888.8216    69.363158   -1819.4584 
 1964200    1039.7049    -1892.304    75.259745   -1817.0442 
 1964400    1007.8989   -1898.9025    72.957451    -1825.945 
 1964600    944.25253   -1893.2696    68.350363   -1824.9193 
 1964800    994.78372   -1890.3126    72.008097   -1818.3045 
 1965000    995.50318   -1891.1814    72.060176   -1819.1212 
 1965200    970.26786   -1892.7121      70.2335   -1822.4786 
 1965400    950.26955   -1897.3809    68.785909    -1828.595 
 1965600    1006.6075   -1894.0202    72.863969   -1821.1563 
 1965800    986.27392   -1890.1473    71.392109   -1818.7552 
 1966000     955.7169   -1893.1633    69.180219   -1823.9831 
 1966200    1003.8491   -1894.5212    72.664302   -1821.8569 
 1966400    989.71858    -1893.171    71.641453   -1821.5296 
 1966600    964.60811   -1890.6214    69.823815   -1820.7976 
 1966800    1002.6283   -1895.0923    72.575933   -1822.5164 
 1967000    978.21287   -1895.8388    70.808605   -1825.0302 
 1967200    1058.7889   -1891.9016    76.641153   -1815.2605 
 1967400    957.97666   -1891.5649    69.343793   -1822.2211 
 1967600    991.42643    -1894.783    71.765077   -1823.0179 
 1967800    1066.6763     -1893.38     77.21209   -1816.1679 
 1968000    975.37178   -1895.3992     70.60295   -1824.7963 
 1968200    963.27382   -1895.1533    69.727231    -1825.426 
 1968400    1009.1974   -1888.9368    73.051444   -1815.8853 
 1968600    961.86332   -1894.3915    69.625132   -1824.7663 
 1968800    971.16415   -1894.0034    70.298378    -1823.705 
 1969000    1026.1208   -1890.4488    74.276455   -1816.1723 
 1969200     968.3843   -1891.8255    70.097157   -1821.7283 
 1969400    1021.4545   -1897.2725    73.938681   -1823.3338 
 1969600    924.30532   -1892.0966     66.90647   -1825.1901 
 1969800    1073.6508   -1892.9562    77.716943   -1815.2393 
 1970000    1012.8732   -1888.6531    73.317517   -1815.3356 
 1970200    987.36719    -1894.285    71.471247   -1822.8137 
 1970400    1031.5783   -1895.3734    74.671496   -1820.7019 
 1970600    973.62691    -1887.019    70.476647   -1816.5424 
 1970800    974.19544   -1895.0263    70.517801   -1824.5085 
 1971000    911.51749   -1891.5065    65.980814   -1825.5256 
 1971200    1028.7522   -1893.9091    74.466925   -1819.4422 
 1971400    945.94775   -1896.2921    68.473073    -1827.819 
 1971600    1044.2554   -1896.4687    75.589137   -1820.8796 
 1971800    1053.5816   -1895.1906     76.26422   -1818.9263 
 1972000    952.20956   -1896.9278    68.926338   -1828.0014 
 1972200    988.35825   -1892.5597    71.542985   -1821.0167 
 1972400    1035.0378   -1896.6029    74.921916    -1821.681 
 1972600    973.58142   -1899.5574    70.473355    -1829.084 
 1972800    967.98497   -1890.2655    70.068251   -1820.1972 
 1973000    1009.2417   -1896.0374    73.054649   -1822.9828 
 1973200    974.81539   -1895.7475    70.562676   -1825.1849 
 1973400    1051.4697   -1889.2345    76.111351   -1813.1231 
 1973600    939.98631   -1891.5882    68.041549   -1823.5467 
 1973800    947.67111   -1890.2116    68.597819   -1821.6138 
 1974000    1055.2216   -1888.0859    76.382935   -1811.7029 
 1974200    951.39038   -1893.4499    68.867041   -1824.5829 
 1974400    941.84039   -1887.4373    68.175758   -1819.2616 
 1974600    1070.5485   -1887.9777    77.492384   -1810.4853 
 1974800    944.32238   -1894.7493    68.355419   -1826.3939 
 1975000    966.00952    -1896.238    69.925257   -1826.3128 
 1975200    1010.5417   -1884.7162    73.148751   -1811.5675 
 1975400    961.93899   -1885.7151    69.630609   -1816.0845 
 1975600    967.97694   -1894.0634     70.06767   -1823.9957 
 1975800    971.17824   -1890.7034    70.299398    -1820.404 
 1976000    1028.2732   -1893.3287    74.432259   -1818.8964 
 1976200    947.02682   -1893.9278    68.551181   -1825.3766 
 1976400    958.84089   -1893.4547    69.406351   -1824.0483 
 1976600    937.93932    -1888.409    67.893377   -1820.5157 
 1976800    1018.8835   -1892.9088    73.752577   -1819.1562 
 1977000    946.33139   -1891.1459    68.500842    -1822.645 
 1977200    951.18708   -1891.0258    68.852325   -1822.1735 
 1977400    989.12027   -1888.9977    71.598145   -1817.3996 
 1977600    981.38785    -1895.767    71.038428   -1824.7285 
 1977800     980.4627    -1899.602    70.971461   -1828.6306 
 1978000    997.71775   -1893.0256    72.220479   -1820.8051 
 1978200    997.82453    -1893.961    72.228208   -1821.7328 
 1978400    961.35291   -1894.2009    69.588185   -1824.6127 
 1978600    1018.2278   -1894.9108    73.705112   -1821.2057 
 1978800    987.37274   -1891.1889    71.471648   -1819.7173 
 1979000    999.60041    -1894.521    72.356756   -1822.1642 
 1979200     1006.266   -1893.1413    72.839253   -1820.3021 
 1979400    960.17371   -1893.3227    69.502828   -1823.8199 
 1979600     972.2816   -1893.1615    70.379266   -1822.7823 
 1979800    1015.4201   -1894.3702    73.501875   -1820.8683 
 1980000    951.89293   -1894.4511    68.903418   -1825.5477 
 1980200    1030.2654   -1890.6472    74.576461   -1816.0707 
 1980400    1004.8379   -1894.1248    72.735876   -1821.3889 
 1980600    934.47231   -1896.5981    67.642415   -1828.9557 
 1980800    1030.7275   -1892.6118    74.609915   -1818.0019 
 1981000    1021.3779   -1894.2569    73.933133   -1820.3237 
 1981200     995.8484   -1898.9634    72.085165   -1826.8782 
 1981400    1043.8428   -1898.7375    75.559269   -1823.1782 
 1981600    933.59421   -1888.0213    67.578853   -1820.4425 
 1981800    999.07737   -1886.4364    72.318896   -1814.1175 
 1982000    974.23278   -1893.5649    70.520503   -1823.0444 
 1982200    1003.7738   -1895.6767    72.658852   -1823.0179 
 1982400    1028.0037   -1893.5586    74.412745   -1819.1458 
 1982600    1011.8881   -1893.5225    73.246207   -1820.2763 
 1982800     998.5632   -1893.4944    72.281677   -1821.2127 
 1983000    985.39201   -1891.4477    71.328272   -1820.1195 
 1983200    982.10244   -1890.7502    71.090154   -1819.6601 
 1983400    984.93562   -1891.9297    71.295235   -1820.6344 
 1983600    1030.3811   -1892.7775    74.584836   -1818.1927 
 1983800    983.66394    -1892.699    71.203184   -1821.4958 
 1984000      1019.77   -1894.2147    73.816749    -1820.398 
 1984200    962.68988   -1889.8636    69.684963   -1820.1786 
 1984400     991.5783   -1891.7184    71.776071   -1819.9424 
 1984600    964.40081   -1890.6342    69.808809   -1820.8254 
 1984800    975.00085   -1888.4137    70.576101   -1817.8376 
 1985000    1007.9199   -1891.0717    72.958969   -1818.1127 
 1985200    954.68066   -1890.8659     69.10521   -1821.7607 
 1985400    1036.2446   -1889.7482    75.009269   -1814.7389 
 1985600    979.30359   -1891.0697    70.887557   -1820.1822 
 1985800    1000.3746   -1895.3129    72.412795   -1822.9001 
 1986000    1003.6479   -1890.0813     72.64974   -1817.4316 
 1986200    1043.1529    -1893.248    75.509335   -1817.7386 
 1986400    1004.7244   -1894.8315    72.727663   -1822.1039 
 1986600    980.93957   -1890.1112    71.005979   -1819.1052 
 1986800    999.78077   -1891.4771    72.369812   -1819.1072 
 1987000     960.6082   -1891.1025    69.534279   -1821.5682 
 1987200    1025.3848    -1891.899    74.223178   -1817.6759 
 1987400    1021.0818   -1892.2502    73.911704   -1818.3385 
 1987600    971.53327   -1894.3639    70.325098   -1824.0388 
 1987800    950.96189    -1893.135    68.836024   -1824.2989 
 1988000    993.89591   -1887.2826    71.943833   -1815.3388 
 1988200    1028.1772   -1890.0547     74.42531   -1815.6294 
 1988400    981.99532   -1893.1188      71.0824   -1822.0364 
 1988600    1004.1885   -1895.7229    72.688869    -1823.034 
 1988800    1050.6812   -1890.4675    76.054272   -1814.4133 
 1989000    965.47743   -1887.7355    69.886741   -1817.8487 
 1989200     978.9983   -1890.3686    70.865459   -1819.5031 
 1989400    1034.4779   -1888.6371    74.881388   -1813.7557 
 1989600    965.09106   -1890.5978    69.858773    -1820.739 
 1989800    1027.2134   -1891.5856    74.355541     -1817.23 
 1990000    992.71183    -1886.205    71.858122   -1814.3469 
 1990200    961.47374   -1890.3022    69.596932   -1820.7053 
 1990400    991.35399   -1888.0544    71.759834   -1816.2945 
 1990600    1054.2622   -1889.9446    76.313485   -1813.6311 
 1990800    987.78191   -1888.3523    71.501266    -1816.851 
 1991000    1045.4034   -1889.0975     75.67224   -1813.4253 
 1991200    997.67797   -1888.4707      72.2176   -1816.2531 
 1991400    979.82726   -1886.3456    70.925464   -1815.4201 
 1991600    1007.8477    -1886.001    72.953741   -1813.0472 
 1991800    970.94736   -1887.7075    70.282686   -1817.4248 
 1992000    1093.8458   -1888.2268    79.178771    -1809.048 
 1992200    981.69217   -1886.5208    71.060456   -1815.4603 
 1992400    1003.1698   -1886.5967    72.615126   -1813.9816 
 1992600    1055.5186   -1884.2085    76.404432    -1807.804 
 1992800    917.47692   -1883.2517    66.412192   -1816.8396 
 1993000    992.49887   -1887.8788    71.842707   -1816.0361 
 1993200    992.12262   -1883.4352    71.815471   -1811.6197 
 1993400    979.96072   -1881.4211    70.935124   -1810.4859 
 1993600    947.51907   -1887.9557    68.586813   -1819.3689 
 1993800    1028.7165   -1886.5684    74.464342    -1812.104 
 1994000    1045.4551   -1879.7448    75.675977   -1804.0689 
 1994200    967.04767     -1887.81    70.000404   -1817.8096 
 1994400     940.8922   -1890.8373    68.107123   -1822.7301 
 1994600    1020.9912    -1882.492    73.905141   -1808.5869 
 1994800    1007.9421   -1884.4952    72.960576   -1811.5347 
 1995000    1005.2259     -1889.08    72.763961   -1816.3161 
 1995200    977.13603   -1886.2883    70.730657   -1815.5577 
 1995400    978.56065    -1887.093    70.833779   -1816.2592 
 1995600     1003.381   -1887.1902    72.630415   -1814.5598 
 1995800    1025.6113   -1892.9833     74.23957   -1818.7437 
 1996000    973.54096   -1892.1201    70.470426   -1821.6497 
 1996200    982.99767   -1891.0832    71.154956   -1819.9283 
 1996400     1013.377    -1890.517    73.353986    -1817.163 
 1996600    969.76804   -1886.9511     70.19732   -1816.7538 
 1996800    1012.2199   -1888.4049    73.270227   -1815.1346 
 1997000    992.78491   -1885.5904    71.863412    -1813.727 
 1997200    1014.7532    -1886.652      73.4536   -1813.1984 
 1997400    945.03962   -1883.8929    68.407337   -1815.4856 
 1997600    1022.0906   -1889.3593    73.984723   -1815.3746 
 1997800    1068.0157   -1889.1373    77.309043   -1811.8282 
 1998000    977.79531    -1883.935     70.77838   -1813.1566 
 1998200     968.8608   -1886.7944    70.131649   -1816.6627 
 1998400    1031.9376   -1885.3873    74.697508   -1810.6898 
 1998600    1030.3835   -1887.3665    74.585011   -1812.7814 
 1998800     996.8788   -1888.0403    72.159751   -1815.8806 
 1999000    1023.3236   -1886.1834    74.073975   -1812.1094 
 1999200    999.92711   -1887.3596    72.380405   -1814.9792 
 1999400    962.28226    -1890.023    69.655457   -1820.3675 
 1999600    1016.5554   -1885.7883    73.584054   -1812.2043 
 1999800    982.48374   -1885.2381    71.117755   -1814.1204 
 2000000    913.49343   -1888.1695    66.123844   -1822.0457 
Loop time of 8632.84 on 1 procs for 2000000 steps with 561 atoms

Performance: 20.017 ns/day, 1.199 hours/ns, 231.673 timesteps/s
99.6% CPU use with 1 MPI tasks x 1 OpenMP threads

MPI task timing breakdown:
Section |  min time  |  avg time  |  max time  |%varavg| %total
---------------------------------------------------------------
Pair    | 8550.8     | 8550.8     | 8550.8     |   0.0 | 99.05
Neigh   | 19.262     | 19.262     | 19.262     |   0.0 |  0.22
Comm    | 0.7113     | 0.7113     | 0.7113     |   0.0 |  0.01
Output  | 14.65      | 14.65      | 14.65      |   0.0 |  0.17
Modify  | 40.117     | 40.117     | 40.117     |   0.0 |  0.46
Other   |            | 7.324      |            |       |  0.08

Nlocal:    561 ave 561 max 561 min
Histogram: 1 0 0 0 0 0 0 0 0 0
Nghost:    0 ave 0 max 0 min
Histogram: 1 0 0 0 0 0 0 0 0 0
Neighs:    10624 ave 10624 max 10624 min
Histogram: 1 0 0 0 0 0 0 0 0 0
FullNghs:  21248 ave 21248 max 21248 min
Histogram: 1 0 0 0 0 0 0 0 0 0

Total # of neighbors = 21248
Ave neighs/atom = 37.8752
Neighbor list builds = 13646
Dangerous builds = 0
All done!
Total wall time: 2:23:52
