LAMMPS (22 Aug 2018)
OMP_NUM_THREADS environment is not set. Defaulting to 1 thread. (src/comm.cpp:87)
  using 1 OpenMP thread(s) per MPI task
Reading data file ...
  orthogonal box = (-0 -0 -0) to (100 100 100)
  1 by 1 by 1 MPI processor grid
  reading atoms ...
  561 atoms
WARNING: The pair_style meam command is unsupported. Please use pair_style meam/c instead (src/MEAM/pair_meam.cpp:51)
Reading potential file library.meam with DATE: 2012-06-29
Neighbor list info ...
  update every 1 steps, delay 10 steps, check yes
  max neighbors/atom: 2000, page size: 100000
  master list distance cutoff = 6
  ghost atom cutoff = 6
  binsize = 3, bins = 34 34 34
  2 neighbor lists, perpetual/occasional/extra = 2 0 0
  (1) pair meam, perpetual
      attributes: full, newton on
      pair build: full/bin/atomonly
      stencil: full/bin/3d
      bin: standard
  (2) pair meam, perpetual, half/full from (1)
      attributes: half, newton on
      pair build: halffull/newton
      stencil: none
      bin: none
Setting up Verlet run ...
  Unit style    : metal
  Current step  : 0
  Time step     : 0.0001
Per MPI rank memory allocation (min/avg/max) = 9.723 | 9.723 | 9.723 Mbytes
Step Temp PotEng KinEng TotEng 
       0          600    -1726.413    43.431409   -1682.9816 
     200    565.99105   -1723.9513    40.969648   -1682.9816 
     400     388.5658   -1711.1081      28.1266   -1682.9815 
     600    595.45144   -1726.0838    43.102158   -1682.9816 
     800    880.47238   -1746.7152    63.733593   -1682.9816 
    1000    1038.4437   -1758.1501    75.168458   -1682.9816 
    1200    1120.5979   -1764.0969    81.115245   -1682.9816 
    1400     1220.765   -1771.3475    88.365907   -1682.9816 
    1600    1292.3326    -1776.528    93.546372   -1682.9816 
    1800    1261.0508   -1774.2636    91.282024   -1682.9816 
    2000    1183.0063   -1768.6144    85.632716   -1682.9816 
    2200    1033.4855   -1757.7912     74.80955   -1682.9816 
    2400    849.44129    -1744.469    61.487386   -1682.9816 
    2600    747.52794    -1737.092    54.110319   -1682.9816 
    2800    692.88723   -1733.1368    50.155114   -1682.9816 
    3000    689.66427   -1732.9034    49.921818   -1682.9816 
    3200    737.80438   -1736.3881    53.406473   -1682.9816 
    3400    848.48715      -1744.4     61.41832   -1682.9817 
    3600    954.75378   -1752.0921    69.110502   -1682.9816 
    3800    1048.1145   -1758.8501     75.86848   -1682.9816 
    4000    1141.6384   -1765.6199     82.63827   -1682.9817 
    4200    1127.5436   -1764.5996    81.618011   -1682.9816 
    4400    1042.4751   -1758.4419    75.460273   -1682.9816 
    4600    989.76324   -1754.6263    71.644686   -1682.9816 
    4800    932.99085   -1750.5168    67.535178   -1682.9816 
    5000    848.46658   -1744.3985    61.416832   -1682.9816 
    5200    757.83957   -1737.8383    54.856734   -1682.9816 
    5400    712.11767   -1734.5287    51.547122   -1682.9816 
    5600    676.94733   -1731.9829    49.001294   -1682.9816 
    5800     677.6609   -1732.0346    49.052946   -1682.9816 
    6000    682.50354   -1732.3851    49.403484   -1682.9816 
    6200    698.54235   -1733.5461    50.564464   -1682.9816 
    6400    785.47956   -1739.8391    56.857473   -1682.9816 
    6600    857.01911   -1745.0175    62.035912   -1682.9816 
    6800    939.72953   -1751.0046    68.022963   -1682.9816 
    7000    981.20042   -1754.0065    71.024861   -1682.9816 
    7200    1003.8017   -1755.6425    72.660867   -1682.9816 
    7400     1062.766   -1759.9107    76.929041   -1682.9816 
    7600    1069.6235   -1760.4071    77.425428   -1682.9816 
    7800    1042.9362   -1758.4753    75.493647   -1682.9816 
    8000    994.14866   -1754.9438    71.962128   -1682.9817 
    8200    955.22306   -1752.1261    69.144472   -1682.9816 
    8400    943.94429   -1751.3097    68.328051   -1682.9817 
    8600    898.31178   -1748.0066     65.02491   -1682.9817 
    8800    865.79762    -1745.653    62.671351   -1682.9816 
    9000    904.71484   -1748.4701      65.4884   -1682.9817 
    9200    901.46264   -1748.2347    65.252988   -1682.9817 
    9400    907.13751   -1748.6454    65.663767   -1682.9817 
    9600    910.32789   -1748.8763    65.894704   -1682.9816 
    9800    963.26733   -1752.7084    69.726762   -1682.9817 
   10000    953.02001   -1751.9667    68.985002   -1682.9817 
   10200    961.12519   -1752.5534    69.571702   -1682.9817 
   10400    952.90228   -1751.9581    68.976481   -1682.9816 
   10600    900.21303   -1748.1442    65.162533   -1682.9816 
   10800    895.75907   -1747.8218     64.84013   -1682.9817 
   11000    884.25315   -1746.9889    64.007266   -1682.9816 
   11200    845.73714   -1744.2009    61.219259   -1682.9816 
   11400     792.5324   -1740.3496    57.367998   -1682.9816 
   11600    767.97019   -1738.5717    55.590045   -1682.9816 
   11800    766.15956   -1738.4406    55.458982   -1682.9816 
   12000     745.0811   -1736.9148    53.933203   -1682.9816 
   12200    769.41079    -1738.676    55.694324   -1682.9816 
   12400    800.08771   -1740.8965    57.914894   -1682.9816 
   12600    848.24622   -1744.3825    61.400881   -1682.9816 
   12800    915.05966   -1749.2189    66.237217   -1682.9817 
   13000    920.31004   -1749.5989    66.617269   -1682.9816 
   13200    934.16308   -1750.6017    67.620031   -1682.9817 
   13400    973.16721    -1753.425    70.443371   -1682.9817 
   13600     982.6114   -1754.1087    71.126995   -1682.9817 
   13800    949.75288   -1751.7302    68.748509   -1682.9817 
   14000    929.20186   -1750.2425     67.26091   -1682.9816 
   14200    971.31951   -1753.2913    70.309625   -1682.9817 
   14400     930.5888    -1750.343    67.361304   -1682.9817 
   14600    927.71275   -1750.1348     67.15312   -1682.9817 
   14800    899.53306    -1748.095    65.113313   -1682.9817 
   15000     908.8085   -1748.7664    65.784722   -1682.9817 
   15200    926.36258   -1750.0371    67.055387   -1682.9817 
   15400    885.57138   -1747.0843    64.102688   -1682.9816 
   15600    940.18563   -1751.0376    68.055977   -1682.9817 
   15800    931.15679   -1750.3841    67.402418   -1682.9817 
   16000    916.75476   -1749.3416    66.359918   -1682.9817 
   16200    919.52009   -1749.5417    66.560088   -1682.9816 
   16400    916.57022   -1749.3282     66.34656   -1682.9817 
   16600    876.64555   -1746.4382    63.456585   -1682.9816 
   16800    871.76245   -1746.0848    63.103119   -1682.9817 
   17000    863.97084   -1745.5208    62.539118   -1682.9817 
   17200    860.01969   -1745.2348    62.253111   -1682.9817 
   17400    822.86919   -1742.5456    59.563947   -1682.9816 
   17600      794.881   -1740.5196    57.538003   -1682.9816 
   17800    836.68837   -1743.5459    60.564257   -1682.9816 
   18000    846.33996   -1744.2445    61.262894   -1682.9816 
   18200      829.925   -1743.0563    60.074686   -1682.9817 
   18400    814.10581   -1741.9112    58.929604   -1682.9816 
   18600    867.93974   -1745.8081    62.826409   -1682.9817 
   18800    898.28099   -1748.0043    65.022681   -1682.9817 
   19000    931.96988   -1750.4429    67.461275   -1682.9817 
   19200    945.27148   -1751.4058     68.42412   -1682.9817 
   19400    912.86894   -1749.0603     66.07864   -1682.9816 
   19600    950.92137   -1751.8148    68.833091   -1682.9817 
   19800    946.46441   -1751.4921    68.510471   -1682.9816 
   20000    931.16391   -1750.3846    67.402934   -1682.9816 
   20200    901.86974   -1748.2641    65.282455   -1682.9816 
   20400    909.68382   -1748.8297    65.848083   -1682.9816 
   20600    929.62747   -1750.2733    67.291718   -1682.9816 
   20800    939.96657   -1751.0217     68.04012   -1682.9816 
   21000    903.95126   -1748.4148    65.433128   -1682.9816 
   21200    884.46778   -1747.0044    64.022803   -1682.9816 
   21400    882.98648   -1746.8972    63.915578   -1682.9816 
   21600    853.41719   -1744.7568    61.775184   -1682.9816 
   21800    842.51502   -1743.9676    60.986024   -1682.9816 
   22000    865.28812   -1745.6161     62.63447   -1682.9816 
   22200    871.74596   -1746.0836    63.101925   -1682.9816 
   22400    876.72717   -1746.4441    63.462493   -1682.9816 
   22600    870.82867   -1746.0171    63.035527   -1682.9816 
   22800    879.33651    -1746.633    63.651372   -1682.9816 
   23000    879.13708   -1746.6186    63.636936   -1682.9816 
   23200    857.48614   -1745.0514    62.069718   -1682.9816 
   23400     860.3568   -1745.2592    62.277513   -1682.9816 
   23600    864.49922    -1745.559    62.577365   -1682.9816 
   23800    868.98097   -1745.8834    62.901779   -1682.9816 
   24000    867.87482   -1745.8033     62.82171   -1682.9816 
   24200    846.47891   -1744.2546    61.272953   -1682.9816 
   24400    881.53472   -1746.7921    63.810491   -1682.9816 
   24600    902.89432   -1748.3382     65.35662   -1682.9816 
   24800    882.87304    -1746.889    63.907367   -1682.9816 
   25000    870.54769   -1745.9968    63.015188   -1682.9816 
   25200    872.53285   -1746.1405    63.158885   -1682.9816 
   25400    880.14922   -1746.6918    63.710201   -1682.9816 
   25600    831.46129   -1743.1675    60.185892   -1682.9816 
   25800     889.4078    -1747.362    64.380389   -1682.9816 
   26000    957.74426   -1752.3086    69.326971   -1682.9817 
   26200    896.35254   -1747.8647    64.883089   -1682.9816 
   26400    911.28622   -1748.9457    65.964074   -1682.9816 
   26600    903.93221   -1748.4134    65.431749   -1682.9816 
   26800    913.21389   -1749.0853    66.103609   -1682.9817 
   27000    854.47199   -1744.8332    61.851537   -1682.9816 
   27200    886.30449   -1747.1374    64.155754   -1682.9816 
   27400    890.08329   -1747.4109    64.429285   -1682.9816 
   27600    821.08256   -1742.4162    59.434621   -1682.9816 
   27800    883.21281   -1746.9136    63.931961   -1682.9817 
   28000    892.55348   -1747.5898    64.608092   -1682.9817 
   28200    849.30482   -1744.4591    61.477508   -1682.9816 
   28400    877.75274   -1746.5184     63.53673   -1682.9816 
   28600    901.78786   -1748.2582    65.276529   -1682.9816 
   28800    908.37557    -1748.735    65.753385   -1682.9816 
   29000     893.6978   -1747.6726    64.690924   -1682.9816 
   29200    863.65946   -1745.4982    62.516578   -1682.9816 
   29400    833.66271   -1743.3269    60.345243   -1682.9816 
   29600    858.92464   -1745.1555    62.173845   -1682.9816 
   29800    874.18044   -1746.2598    63.278146   -1682.9816 
   30000    881.54102   -1746.7926    63.810947   -1682.9816 
   30200    917.52923   -1749.3976    66.415978   -1682.9816 
   30400    890.15445   -1747.4161    64.434436   -1682.9816 
   30600    894.26672   -1747.7137    64.732106   -1682.9816 
   30800    901.45612   -1748.2342    65.252516   -1682.9816 
   31000    862.05463   -1745.3821    62.400412   -1682.9816 
   31200    887.82792   -1747.2477    64.266029   -1682.9816 
   31400     892.3884   -1747.5778    64.596142   -1682.9816 
   31600    888.49749   -1747.2961    64.314496   -1682.9816 
   31800    911.64364   -1748.9716    65.989946   -1682.9816 
   32000    897.14582   -1747.9221    64.940511   -1682.9816 
   32200     894.8716   -1747.7575     64.77589   -1682.9816 
   32400    936.81445   -1750.7936    67.811952   -1682.9817 
   32600    883.13669   -1746.9081    63.926451   -1682.9817 
   32800    892.88982   -1747.6141    64.632438   -1682.9817 
   33000    895.26679   -1747.7862    64.804497   -1682.9817 
   33200    912.69198   -1749.0475    66.065831   -1682.9817 
   33400     879.0959   -1746.6156    63.633955   -1682.9817 
   33600    880.34136   -1746.7058    63.724109   -1682.9817 
   33800    896.47496   -1747.8736    64.891951   -1682.9816 
   34000    879.17403   -1746.6213    63.639611   -1682.9817 
   34200    920.51942   -1749.6141    66.632425   -1682.9817 
   34400    884.98007   -1747.0416    64.059885   -1682.9817 
   34600    833.93288   -1743.3465      60.3648   -1682.9817 
   34800    872.79167   -1746.1593    63.177619   -1682.9817 
   35000     838.6629   -1743.6889    60.707186   -1682.9817 
   35200    827.51207   -1742.8817    59.900025   -1682.9817 
   35400    872.63906   -1746.1482    63.166573   -1682.9817 
   35600    874.11604   -1746.2551    63.273485   -1682.9817 
   35800    862.29276   -1745.3993    62.417649   -1682.9816 
   36000    914.54541   -1749.1817    66.199992   -1682.9817 
   36200    871.48807   -1746.0649    63.083258   -1682.9816 
   36400    903.12574   -1748.3551    65.373372   -1682.9817 
   36600    872.67117   -1746.1506    63.168897   -1682.9817 
   36800    837.24623   -1743.5863    60.604639   -1682.9817 
   37000    858.77108   -1745.1444     62.16273   -1682.9817 
   37200      871.513   -1746.0667    63.085062   -1682.9817 
   37400    873.41406   -1746.2044    63.222672   -1682.9817 
   37600    889.96358   -1747.4023     64.42062   -1682.9817 
   37800    892.35594   -1747.5755    64.593792   -1682.9817 
   38000    892.87996   -1747.6134    64.631724   -1682.9817 
   38200    917.27466   -1749.3792    66.397551   -1682.9817 
   38400    887.49325   -1747.2234    64.241804   -1682.9816 
   38600    880.98985   -1746.7527    63.771051   -1682.9817 
   38800    873.52074   -1746.2121    63.230394   -1682.9817 
   39000    869.12746    -1745.894    62.912383   -1682.9816 
   39200    887.64505   -1747.2345    64.252792   -1682.9817 
   39400     866.7211   -1745.7198    62.738197   -1682.9816 
   39600    902.61299   -1748.3179    65.336256   -1682.9817 
   39800    901.12653   -1748.2103    65.228658   -1682.9817 
   40000    886.29763   -1747.1369    64.155257   -1682.9816 
   40200     947.2274   -1751.5474    68.565701   -1682.9817 
   40400    867.56114   -1745.7806    62.799004   -1682.9816 
   40600    888.89344   -1747.3248    64.343157   -1682.9817 
   40800    918.32501   -1749.4553    66.473581   -1682.9817 
   41000    881.11623   -1746.7618    63.780199   -1682.9816 
   41200     894.4089   -1747.7241    64.742398   -1682.9817 
   41400    933.35534   -1750.5433    67.561562   -1682.9817 
   41600    883.61763   -1746.9429    63.961264   -1682.9817 
   41800    893.05493    -1747.626    64.644389   -1682.9817 
   42000    920.04878     -1749.58    66.598358   -1682.9817 
   42200    884.98192   -1747.0417    64.060019   -1682.9817 
   42400    910.92263   -1748.9194    65.937755   -1682.9817 
   42600    937.77601   -1750.8632    67.881555   -1682.9817 
   42800    869.74311   -1745.9386    62.956947   -1682.9817 
   43000    847.68996   -1744.3423    61.360615   -1682.9816 
   43200    914.45013   -1749.1747    66.193096   -1682.9816 
   43400     944.3289   -1751.3375    68.355891   -1682.9817 
   43600     875.2895   -1746.3401    63.358427   -1682.9816 
   43800    879.39128    -1746.637    63.655337   -1682.9817 
   44000    873.23375   -1746.1912     63.20962   -1682.9816 
   44200     926.2931    -1750.032    67.050357   -1682.9816 
   44400    907.73355   -1748.6886    65.706911   -1682.9816 
   44600    854.17789   -1744.8119    61.830248   -1682.9816 
   44800    881.11352   -1746.7617    63.780003   -1682.9816 
   45000    899.34009    -1748.081    65.099345   -1682.9816 
   45200    940.56986   -1751.0654     68.08379   -1682.9816 
   45400    907.30769   -1748.6577    65.676085   -1682.9817 
   45600    864.69942   -1745.5735    62.591857   -1682.9816 
   45800    923.60262   -1749.8373    66.855605   -1682.9817 
   46000    908.45124   -1748.7405    65.758862   -1682.9817 
   46200    859.06868   -1745.1659    62.184272   -1682.9817 
   46400    895.61813   -1747.8116    64.829928   -1682.9816 
   46600    923.29324   -1749.8149     66.83321   -1682.9817 
   46800    865.48124   -1745.6301    62.648449   -1682.9816 
   47000    879.95694   -1746.6779    63.696283   -1682.9817 
   47200    893.49098   -1747.6576    64.675953   -1682.9817 
   47400    886.62164   -1747.1603    64.178711   -1682.9816 
   47600    885.05883   -1747.0472    64.065587   -1682.9816 
   47800    908.41158   -1748.7376    65.755991   -1682.9817 
   48000    867.72816   -1745.7927    62.811094   -1682.9816 
   48200    846.74208   -1744.2736    61.292002   -1682.9816 
   48400     876.2921   -1746.4126       63.431   -1682.9816 
   48600    861.07139   -1745.3108    62.329239   -1682.9816 
   48800     828.0349   -1742.9195     59.93787   -1682.9816 
   49000     838.4202   -1743.6712    60.689617   -1682.9816 
   49200    845.44947     -1744.18    61.198436   -1682.9816 
   49400    828.26339    -1742.936     59.95441   -1682.9816 
   49600    874.84103   -1746.3076    63.325964   -1682.9816 
   49800    873.66429   -1746.2224    63.240785   -1682.9816 
   50000    887.86972   -1747.2507    64.269055   -1682.9816 
   50200    846.03553   -1744.2225    61.240858   -1682.9816 
   50400    885.90335   -1747.1083    64.126717   -1682.9816 
   50600    890.85693   -1747.4669    64.485286   -1682.9816 
   50800    861.66925   -1745.3541    62.372516   -1682.9816 
   51000    874.71633   -1746.2985    63.316937   -1682.9816 
   51200    879.56883   -1746.6498    63.668189   -1682.9816 
   51400    846.54646   -1744.2595    61.277842   -1682.9816 
   51600    888.92199   -1747.3268    64.345223   -1682.9816 
   51800    922.53776   -1749.7602    66.778524   -1682.9816 
   52000    853.75233   -1744.7811    61.799444   -1682.9816 
   52200    835.96409   -1743.4935     60.51183   -1682.9816 
   52400     849.9753   -1744.5077    61.526041   -1682.9816 
   52600    833.34289   -1743.3037    60.322093   -1682.9816 
   52800    829.44173   -1743.0213    60.039705   -1682.9816 
   53000    808.58949   -1741.5119    58.530301   -1682.9816 
   53200    818.69253   -1742.2432    59.261616   -1682.9816 
   53400    815.27391   -1741.9957    59.014157   -1682.9816 
   53600    851.74128   -1744.6355    61.653873   -1682.9816 
   53800    810.65261   -1741.6612    58.679641   -1682.9816 
   54000    801.96909   -1741.0327    58.051079   -1682.9816 
   54200    825.01305   -1742.7008    59.719132   -1682.9816 
   54400    842.19585   -1743.9445     60.96292   -1682.9816 
   54600    812.18599   -1741.7722    58.790636   -1682.9816 
   54800    818.36805   -1742.2197    59.238129   -1682.9816 
   55000    827.21017   -1742.8598    59.878172   -1682.9816 
   55200    800.22776   -1740.9066    57.925032   -1682.9816 
   55400    860.89298   -1745.2979    62.316325   -1682.9816 
   55600    805.95868   -1741.3214    58.339868   -1682.9816 
   55800    820.94527   -1742.4063    59.424682   -1682.9816 
   56000    843.85611   -1744.0647    61.083099   -1682.9816 
   56200    805.52224   -1741.2899    58.308276   -1682.9816 
   56400    811.54602   -1741.7259    58.744311   -1682.9816 
   56600    815.03525   -1741.9785    58.996882   -1682.9816 
   56800    798.94327   -1740.8137    57.832053   -1682.9816 
   57000    802.23196   -1741.0517    58.070107   -1682.9816 
   57200    824.61204   -1742.6717    59.690104   -1682.9816 
   57400    824.67667   -1742.6764    59.694782   -1682.9816 
   57600    849.32953   -1744.4609    61.479296   -1682.9816 
   57800    837.88176   -1743.6323    60.650642   -1682.9816 
   58000    827.58872   -1742.8872    59.905574   -1682.9816 
   58200    820.11551   -1742.3462     59.36462   -1682.9816 
   58400    850.89684   -1744.5744    61.592747   -1682.9816 
   58600    875.96271   -1746.3888    63.407158   -1682.9816 
   58800    846.30784   -1744.2422     61.26057   -1682.9816 
   59000    865.31967   -1745.6184    62.636754   -1682.9816 
   59200    877.01301   -1746.4648    63.483184   -1682.9816 
   59400    848.32635   -1744.3883    61.406681   -1682.9816 
   59600    804.61954   -1741.2245    58.242934   -1682.9816 
   59800    832.72786   -1743.2592    60.277574   -1682.9816 
   60000    835.23758   -1743.4408    60.459241   -1682.9816 
   60200    843.10604   -1744.0104    61.028805   -1682.9816 
   60400    820.53572   -1742.3766    59.395037   -1682.9816 
   60600    841.90931   -1743.9238    60.942179   -1682.9816 
   60800    851.99298   -1744.6537    61.672092   -1682.9816 
   61000    833.41075   -1743.3086    60.327005   -1682.9816 
   61200    848.33821   -1744.3891     61.40754   -1682.9816 
   61400    871.01398   -1746.0305     63.04894   -1682.9816 
   61600    829.00134   -1742.9894    60.007827   -1682.9816 
   61800    801.76746    -1741.018    58.036484   -1682.9815 
   62000    883.67619   -1746.9471    63.965503   -1682.9816 
   62200    878.42058   -1746.5666    63.585072   -1682.9816 
   62400    827.45624   -1742.8775    59.895984   -1682.9815 
   62600    861.05366   -1745.3095    62.327956   -1682.9816 
   62800    848.74648   -1744.4187    61.437092   -1682.9816 
   63000     825.7556   -1742.7545    59.772882   -1682.9816 
   63200    835.80808   -1743.4821    60.500537   -1682.9816 
   63400    820.91121   -1742.4038    59.422217   -1682.9816 
   63600     813.3798   -1741.8586    58.877051   -1682.9816 
   63800    836.00803   -1743.4966    60.515011   -1682.9816 
   64000      832.434   -1743.2379    60.256302   -1682.9816 
   64200    832.28311   -1743.2269     60.24538   -1682.9816 
   64400    859.35978   -1745.1869    62.205343   -1682.9816 
   64600    842.69277   -1743.9804     60.99889   -1682.9816 
   64800    844.56695   -1744.1161    61.134554   -1682.9816 
   65000    835.37349   -1743.4506    60.469079   -1682.9816 
   65200    836.41065   -1743.5257    60.544155   -1682.9816 
   65400    838.09494   -1743.6476    60.666073   -1682.9816 
   65600    811.62282   -1741.7314    58.749871   -1682.9816 
   65800    803.06192   -1741.1117    58.130184   -1682.9816 
   66000    827.57109   -1742.8859    59.904297   -1682.9816 
   66200    835.46361   -1743.4572    60.475603   -1682.9816 
   66400    827.05962   -1742.8488    59.867274   -1682.9816 
   66600    855.59478   -1744.9144    61.932811   -1682.9816 
   66800    866.19586   -1745.6817    62.700177   -1682.9816 
   67000    854.53389   -1744.8376    61.856018   -1682.9816 
   67200    855.85351   -1744.9331     61.95154   -1682.9816 
   67400    826.95956   -1742.8416    59.860031   -1682.9816 
   67600    839.23202   -1743.7299    60.748382   -1682.9816 
   67800    835.79905   -1743.4814    60.499884   -1682.9816 
   68000    884.00883   -1746.9712    63.989582   -1682.9816 
   68200    850.59299   -1744.5523    61.570753   -1682.9816 
   68400    824.04989    -1742.631    59.649413   -1682.9816 
   68600    841.27641   -1743.8779    60.896366   -1682.9815 
   68800    863.62679   -1745.4958    62.514213   -1682.9815 
   69000    854.54603   -1744.8384    61.856897   -1682.9815 
   69200    845.23018   -1744.1641    61.182562   -1682.9816 
   69400    839.32998    -1743.737    60.755472   -1682.9815 
   69600     850.8072   -1744.5678    61.586258   -1682.9815 
   69800    850.54612   -1744.5489     61.56736   -1682.9815 
   70000    819.25678    -1742.284     59.30246   -1682.9815 
   70200    836.45995   -1743.5293    60.547724   -1682.9815 
   70400    828.70575   -1742.9679     59.98643   -1682.9815 
   70600    856.72506   -1744.9962    62.014627   -1682.9816 
   70800    836.05965   -1743.5003    60.518747   -1682.9815 
   71000    830.39523   -1743.0902    60.108724   -1682.9815 
   71200    839.34053   -1743.7378    60.756236   -1682.9815 
   71400    810.04509   -1741.6172    58.635666   -1682.9815 
   71600    807.60457   -1741.4405    58.459007   -1682.9815 
   71800    828.61686   -1742.9615    59.979996   -1682.9815 
   72000     813.0722   -1741.8363    58.854785   -1682.9816 
   72200    796.22376   -1740.6167    57.635199   -1682.9815 
   72400    828.57991   -1742.9589    59.977321   -1682.9815 
   72600     897.5218   -1747.9493    64.967727   -1682.9816 
   72800    893.41375   -1747.6519    64.670363   -1682.9816 
   73000    854.71637   -1744.8508    61.869227   -1682.9815 
   73200    885.09666   -1747.0499    64.068325   -1682.9816 
   73400     876.6687   -1746.4398    63.458261   -1682.9816 
   73600    839.75459   -1743.7678    60.786208   -1682.9816 
   73800    861.44663    -1745.338    62.356401   -1682.9816 
   74000    860.25511   -1745.2517    62.270152   -1682.9816 
   74200    819.38534   -1742.2933    59.311766   -1682.9815 
   74400    832.80236   -1743.2645    60.282966   -1682.9816 
   74600    831.15133    -1743.145    60.163455   -1682.9815 
   74800    818.29947   -1742.2147    59.233165   -1682.9815 
   75000    827.08143   -1742.8504    59.868853   -1682.9816 
   75200    833.15128   -1743.2898    60.308223   -1682.9816 
   75400    841.30491     -1743.88    60.898429   -1682.9816 
   75600    822.59989    -1742.526    59.544453   -1682.9815 
   75800    798.36168   -1740.7715    57.789954   -1682.9815 
   76000    817.24927   -1742.1387    59.157145   -1682.9815 
   76200    863.21157   -1745.4657    62.484158   -1682.9816 
   76400    837.27732   -1743.5885    60.606889   -1682.9816 
   76600    808.23114   -1741.4859    58.504362   -1682.9816 
   76800    841.91626   -1743.9242    60.942682   -1682.9816 
   77000     829.8056   -1743.0476    60.066044   -1682.9816 
   77200      810.687   -1741.6637    58.682131   -1682.9816 
   77400    827.58806   -1742.8871    59.905526   -1682.9816 
   77600    835.01015   -1743.4244    60.442778   -1682.9816 
   77800    800.74531   -1740.9441    57.962495   -1682.9816 
   78000    804.67599   -1741.2286     58.24702   -1682.9816 
   78200     813.4739   -1741.8654    58.883863   -1682.9816 
   78400    850.21823   -1744.5252    61.543625   -1682.9816 
   78600    852.08773   -1744.6605    61.678951   -1682.9816 
   78800    856.23756   -1744.9609    61.979339   -1682.9816 
   79000    856.27976    -1744.964    61.982394   -1682.9816 
   79200    846.24177   -1744.2374    61.255787   -1682.9816 
   79400    861.25554   -1745.3242    62.342569   -1682.9816 
   79600    856.17211   -1744.9562    61.974601   -1682.9816 
   79800    847.67531   -1744.3412    61.359555   -1682.9816 
   80000    854.00457   -1744.7994    61.817702   -1682.9816 
   80200    858.83488    -1745.149    62.167348   -1682.9817 
   80400    847.50455   -1744.3288    61.347194   -1682.9816 
   80600    844.78099   -1744.1317    61.150047   -1682.9816 
   80800    843.14755   -1744.0134    61.031809   -1682.9816 
   81000     862.6168   -1745.4228    62.441105   -1682.9817 
   81200    800.12893   -1740.8995    57.917877   -1682.9816 
   81400    824.35312    -1742.653    59.671362   -1682.9816 
   81600    852.41607   -1744.6844    61.702718   -1682.9816 
   81800    842.36067   -1743.9565    60.974851   -1682.9816 
   82000    857.20953   -1745.0313    62.049696   -1682.9817 
   82200    852.79201   -1744.7116    61.729931   -1682.9817 
   82400    836.36734   -1743.5227    60.541019   -1682.9817 
   82600    856.31135   -1744.9664     61.98468   -1682.9817 
   82800     844.3854   -1744.1031    61.121412   -1682.9817 
   83000    856.26412   -1744.9629    61.981262   -1682.9817 
   83200    841.83536   -1743.9185    60.936826   -1682.9816 
   83400    849.29865   -1744.4587    61.477061   -1682.9817 
   83600    865.13683   -1745.6052    62.623518   -1682.9817 
   83800    877.58689   -1746.5064    63.524725   -1682.9817 
   84000     850.7261    -1744.562    61.580388   -1682.9816 
   84200     806.3908   -1741.3528    58.371147   -1682.9816 
   84400     861.8776   -1745.3693    62.387597   -1682.9817 
   84600     869.0729   -1745.8901    62.908434   -1682.9817 
   84800    830.00057   -1743.0618    60.080156   -1682.9817 
   85000    852.93914   -1744.7223    61.740581   -1682.9817 
   85200    820.36372   -1742.3643    59.382587   -1682.9817 
   85400    872.82204   -1746.1615    63.179818   -1682.9817 
   85600    871.45047   -1746.0622    63.080536   -1682.9817 
   85800    838.98588   -1743.7122    60.730565   -1682.9817 
   86000    851.74082   -1744.6355     61.65384   -1682.9817 
   86200    870.19014    -1745.971    62.989306   -1682.9817 
   86400    841.36158   -1743.8842    60.902531   -1682.9817 
   86600    877.52586    -1746.502    63.520307   -1682.9817 
   86800    839.55756   -1743.7536    60.771946   -1682.9817 
   87000    833.66204   -1743.3269    60.345195   -1682.9817 
   87200    833.80903   -1743.3375    60.355835   -1682.9816 
   87400    817.40121   -1742.1498    59.168143   -1682.9816 
   87600    811.11158   -1741.6945    58.712864   -1682.9816 
   87800     822.4451   -1742.5149    59.533249   -1682.9817 
   88000    811.34458   -1741.7114     58.72973   -1682.9817 
   88200    806.90641   -1741.3901     58.40847   -1682.9816 
   88400    827.57669   -1742.8864    59.904703   -1682.9817 
   88600    835.02923   -1743.4258     60.44416   -1682.9816 
   88800    853.42726   -1744.7575    61.775914   -1682.9816 
   89000    847.91392   -1744.3585    61.376827   -1682.9816 
   89200     847.6251   -1744.3375     61.35592   -1682.9816 
   89400    834.30344   -1743.3732    60.391623   -1682.9816 
   89600    842.41244   -1743.9603    60.978598   -1682.9817 
   89800    828.30755   -1742.9393    59.957606   -1682.9816 
   90000    844.42778   -1744.1062     61.12448   -1682.9817 
   90200    835.33172   -1743.4477    60.466055   -1682.9817 
   90400    832.66495   -1743.2547     60.27302   -1682.9817 
   90600     814.7486   -1741.9578    58.976132   -1682.9817 
   90800    851.19027   -1744.5957    61.613987   -1682.9817 
   91000    846.09814    -1744.227     61.24539   -1682.9816 
   91200    824.67012    -1742.676    59.694308   -1682.9817 
   91400    823.31939   -1742.5782    59.596535   -1682.9816 
   91600    864.92458   -1745.5898    62.608155   -1682.9817 
   91800    843.48385   -1744.0378    61.056153   -1682.9817 
   92000    818.22331   -1742.2093    59.227652   -1682.9817 
   92200    831.66007    -1743.182    60.200281   -1682.9817 
   92400    854.91544   -1744.8653    61.883637   -1682.9816 
   92600    881.80068   -1746.8114    63.829743   -1682.9817 
   92800    824.30519   -1742.6495    59.667892   -1682.9816 
   93000    827.22032   -1742.8605    59.878906   -1682.9816 
   93200    847.48742   -1744.3276    61.345954   -1682.9816 
   93400    865.29754   -1745.6168    62.635152   -1682.9816 
   93600    847.52768   -1744.3305    61.348869   -1682.9816 
   93800    836.73973   -1743.5496    60.567976   -1682.9816 
   94000    824.74553   -1742.6814    59.699767   -1682.9816 
   94200    840.68936   -1743.8355    60.853872   -1682.9816 
   94400    835.97363   -1743.4942     60.51252   -1682.9816 
   94600    856.50005     -1744.98    61.998339   -1682.9816 
   94800    858.48008   -1745.1233    62.141665   -1682.9816 
   95000    835.23124   -1743.4404    60.458782   -1682.9816 
   95200      837.575   -1743.6101    60.628437   -1682.9816 
   95400    853.61354   -1744.7711    61.789398   -1682.9817 
   95600    808.36629   -1741.4958    58.514144   -1682.9816 
   95800    823.11758   -1742.5636    59.581927   -1682.9816 
   96000     850.7226   -1744.5618    61.580135   -1682.9816 
   96200    860.07786   -1745.2389    62.257322   -1682.9816 
   96400     876.7013   -1746.4422    63.460621   -1682.9816 
   96600    848.33986   -1744.3893    61.407659   -1682.9816 
   96800    865.52252   -1745.6331    62.651437   -1682.9816 
   97000    875.75458   -1746.3737    63.392092   -1682.9816 
   97200    816.34636   -1742.0734    59.091787   -1682.9816 
   97400    828.08188   -1742.9229    59.941271   -1682.9816 
   97600     866.8264   -1745.7274     62.74582   -1682.9816 
   97800    820.65644   -1742.3854    59.403775   -1682.9816 
   98000    785.74481   -1739.8583    56.876673   -1682.9816 
   98200    816.44107   -1742.0803    59.098643   -1682.9816 
   98400    827.08922   -1742.8511    59.869417   -1682.9816 
   98600    840.95223   -1743.8545      60.8729   -1682.9816 
   98800    861.19342   -1745.3197    62.338072   -1682.9816 
   99000    804.99772   -1741.2519    58.270308   -1682.9816 
   99200    827.77525   -1742.9007    59.919075   -1682.9816 
   99400    830.39306   -1743.0902    60.108567   -1682.9816 
   99600    837.70189   -1743.6192    60.637622   -1682.9816 
   99800    860.99753   -1745.3055    62.323893   -1682.9816 
  100000    826.30546   -1742.7943    59.812683   -1682.9816 
Loop time of 571.765 on 1 procs for 100000 steps with 561 atoms

Performance: 1.511 ns/day, 15.882 hours/ns, 174.897 timesteps/s
99.7% CPU use with 1 MPI tasks x 1 OpenMP threads

MPI task timing breakdown:
Section |  min time  |  avg time  |  max time  |%varavg| %total
---------------------------------------------------------------
Pair    | 569.15     | 569.15     | 569.15     |   0.0 | 99.54
Neigh   | 0.14067    | 0.14067    | 0.14067    |   0.0 |  0.02
Comm    | 0.027371   | 0.027371   | 0.027371   |   0.0 |  0.00
Output  | 0.74571    | 0.74571    | 0.74571    |   0.0 |  0.13
Modify  | 1.4176     | 1.4176     | 1.4176     |   0.0 |  0.25
Other   |            | 0.2847     |            |       |  0.05

Nlocal:    561 ave 561 max 561 min
Histogram: 1 0 0 0 0 0 0 0 0 0
Nghost:    0 ave 0 max 0 min
Histogram: 1 0 0 0 0 0 0 0 0 0
Neighs:    14594 ave 14594 max 14594 min
Histogram: 1 0 0 0 0 0 0 0 0 0
FullNghs:  29188 ave 29188 max 29188 min
Histogram: 1 0 0 0 0 0 0 0 0 0

Total # of neighbors = 29188
Ave neighs/atom = 52.0285
Neighbor list builds = 92
Dangerous builds = 0
All done!
Total wall time: 0:09:31
