LAMMPS (22 Aug 2018)
OMP_NUM_THREADS environment is not set. Defaulting to 1 thread. (src/comm.cpp:87)
  using 1 OpenMP thread(s) per MPI task
Reading data file ...
  orthogonal box = (-0 -0 -0) to (100 100 100)
  1 by 1 by 1 MPI processor grid
  reading atoms ...
  561 atoms
WARNING: The pair_style meam command is unsupported. Please use pair_style meam/c instead (src/MEAM/pair_meam.cpp:51)
Reading potential file library.meam with DATE: 2012-06-29
Neighbor list info ...
  update every 1 steps, delay 10 steps, check yes
  max neighbors/atom: 2000, page size: 100000
  master list distance cutoff = 6
  ghost atom cutoff = 6
  binsize = 3, bins = 34 34 34
  2 neighbor lists, perpetual/occasional/extra = 2 0 0
  (1) pair meam, perpetual
      attributes: full, newton on
      pair build: full/bin/atomonly
      stencil: full/bin/3d
      bin: standard
  (2) pair meam, perpetual, half/full from (1)
      attributes: half, newton on
      pair build: halffull/newton
      stencil: none
      bin: none
Setting up Verlet run ...
  Unit style    : metal
  Current step  : 0
  Time step     : 0.0001
Per MPI rank memory allocation (min/avg/max) = 9.723 | 9.723 | 9.723 Mbytes
Step Temp PotEng KinEng TotEng 
       0          600   -2952.8017    43.431409   -2909.3703 
     200    523.67287   -2946.2557    37.906418   -2908.3493 
     400    530.19889   -2937.3909    38.378808   -2899.0121 
     600    721.82393   -2932.1406    52.249717   -2879.8909 
     800    759.82446   -2931.6299    55.000411   -2876.6295 
    1000    533.29833   -2932.9452    38.603163    -2894.342 
    1200    460.54298   -2935.1147    33.336717    -2901.778 
    1400    624.12636   -2939.6808    45.177811    -2894.503 
    1600    721.58777   -2940.8433    52.232622   -2888.6106 
    1800    581.05811   -2940.3635    42.060287   -2898.3033 
    2000    527.47585   -2943.4409    38.181699   -2905.2592 
    2200    595.33881   -2947.0797    43.094005   -2903.9857 
    2400    636.92247   -2947.6696    46.104067   -2901.5655 
    2600    593.68965   -2946.4002     42.97463   -2903.4256 
    2800    591.77996   -2947.8481    42.836395   -2905.0117 
    3000    606.19364   -2949.4593     43.87974   -2905.5796 
    3200    593.23797   -2949.6374    42.941935   -2906.6955 
    3400     579.2447   -2948.7583    41.929022   -2906.8293 
    3600    608.71456   -2948.5849    44.062218   -2904.5226 
    3800    643.67117   -2950.1127    46.592576   -2903.5201 
    4000    596.62327   -2950.9635    43.186982   -2907.7766 
    4200     575.3918    -2953.449    41.650128   -2911.7989 
    4400    586.73688   -2955.1489    42.471349   -2912.6775 
    4600     608.2338   -2955.8256    44.027418   -2911.7982 
    4800    602.39862   -2955.3049    43.605035   -2911.6998 
    5000    591.34602   -2954.7143    42.804984   -2911.9093 
    5200    610.38674   -2955.4593     44.18326    -2911.276 
    5400    612.78451   -2956.3294    44.356824   -2911.9725 
    5600     581.6753   -2956.0852    42.104963   -2913.9803 
    5800    594.51453   -2957.0389    43.034339   -2914.0045 
    6000     600.4172   -2956.4853    43.461608   -2913.0237 
    6200    588.30942   -2954.3884    42.585178   -2911.8033 
    6400    620.05368   -2954.4858    44.883008   -2909.6028 
    6600    618.37559   -2954.5592    44.761539   -2909.7977 
    6800    589.38691   -2954.9507    42.663173   -2912.2875 
    7000     589.1507   -2956.2753    42.646075   -2913.6292 
    7200    587.46437   -2955.8236    42.524009   -2913.2995 
    7400    615.64503   -2956.1973    44.563885   -2911.6334 
    7600    620.03729   -2956.7578    44.881822    -2911.876 
    7800    597.57253   -2957.9426    43.255695   -2914.6869 
    8000    590.80226   -2960.0857    42.765624   -2917.3201 
    8200    582.02024   -2960.7289    42.129932    -2918.599 
    8400    587.95053   -2960.0514      42.5592   -2917.4922 
    8600    612.78788   -2959.1518    44.357068   -2914.7947 
    8800    630.22447   -2959.5662    45.619227    -2913.947 
    9000    589.47382   -2959.4097    42.669464   -2916.7402 
    9200    553.13022   -2957.9445    40.038708   -2917.9058 
    9400    604.14962   -2957.4843    43.731781   -2913.7525 
    9600     628.2927   -2954.9871    45.479395   -2909.5077 
    9800    602.70542   -2952.4806    43.627242   -2908.8534 
   10000     600.1756   -2952.4111     43.44412    -2908.967 
   10200    605.25855   -2952.9091    43.812052    -2909.097 
   10400    601.88769   -2953.5406     43.56805   -2909.9725 
   10600    589.40548   -2953.5613    42.664518   -2910.8968 
   10800    607.70234    -2954.712    43.988948   -2910.7231 
   11000    600.99494   -2954.8397    43.503428   -2911.3363 
   11200     580.2955   -2953.8701    42.005085    -2911.865 
   11400    609.44812    -2954.409    44.115317   -2910.2937 
   11600    625.85062     -2955.18    45.302623   -2909.8774 
   11800     593.0804   -2955.5209    42.930529   -2912.5903 
   12000    578.16538   -2956.2976    41.850895   -2914.4467 
   12200    603.39933   -2957.4583    43.677471   -2913.7808 
   12400     616.6086   -2958.0579    44.633634   -2913.4243 
   12600    602.75595   -2958.8317      43.6309   -2915.2008 
   12800    570.65112   -2958.2457     41.30697   -2916.9387 
   13000     603.8274   -2959.2255    43.708458    -2915.517 
   13200    616.75072   -2958.8775    44.643921   -2914.2335 
   13400    592.47337   -2957.8164    42.886589   -2914.9298 
   13600    581.50177   -2956.7971    42.092402   -2914.7047 
   13800    616.83044   -2957.1685    44.649691   -2912.5188 
   14000     618.3298   -2956.8944    44.758224   -2912.1361 
   14200    602.50093   -2957.8014     43.61244    -2914.189 
   14400    599.20221   -2960.2533     43.37366   -2916.8797 
   14600    571.90854   -2960.3954    41.397989   -2918.9974 
   14800    590.62678   -2960.5128    42.752922   -2917.7599 
   15000    628.70993   -2960.8568    45.509597   -2915.3472 
   15200    604.32305   -2960.0657    43.744336   -2916.3213 
   15400    577.01757   -2959.6627     41.76781   -2917.8949 
   15600    591.35204   -2959.5291    42.805421   -2916.7237 
   15800    611.57727   -2958.5935    44.269438    -2914.324 
   16000    616.08121   -2957.9914    44.595458   -2913.3959 
   16200     580.5678   -2956.2946    42.024796   -2914.2698 
   16400    570.23976   -2954.0184    41.277193   -2912.7412 
   16600    630.62643   -2953.4726    45.648324   -2907.8242 
   16800    630.16469   -2951.9002      45.6149   -2906.2853 
   17000    597.03759   -2952.1905    43.216973   -2908.9735 
   17200    577.23835   -2952.9999    41.783791   -2911.2161 
   17400    601.32461   -2954.3864    43.527291   -2910.8591 
   17600    618.24704   -2955.3346    44.752233   -2910.5824 
   17800    594.41212    -2955.371    43.026926    -2912.344 
   18000    593.10704   -2956.5886    42.932457   -2913.6562 
   18200    594.92593   -2956.9829    43.064119   -2913.9188 
   18400    598.68551    -2956.792    43.336259   -2913.4557 
   18600     598.5809   -2956.1155    43.328686   -2912.7869 
   18800    596.24515   -2954.9741    43.159611   -2911.8145 
   19000    622.00019   -2955.8018    45.023908   -2910.7779 
   19200     597.7539   -2955.4651    43.268823   -2912.1962 
   19400    583.74015   -2955.6999    42.254428   -2913.4455 
   19600     594.7083   -2955.7502    43.048366   -2912.7019 
   19800      605.429   -2954.9332     43.82439   -2911.1088 
   20000    618.79979   -2955.2842    44.792245    -2910.492 
   20200    591.57737   -2954.6437    42.821731    -2911.822 
   20400      599.441   -2955.8755    43.390945   -2912.4846 
   20600    598.52694   -2956.2877    43.324781   -2912.9629 
   20800    584.45777   -2955.2261    42.306374   -2912.9197 
   21000    611.89582   -2955.6061    44.292496   -2911.3136 
   21200    601.23454   -2954.1943    43.520772   -2910.6735 
   21400    610.68285   -2954.8203    44.204694   -2910.6156 
   21600    618.63309   -2956.9208    44.780177   -2912.1406 
   21800    594.83734   -2958.9308    43.057706   -2915.8731 
   22000    571.83749   -2960.2057    41.392846   -2918.8129 
   22200    570.75897   -2959.3234    41.314777   -2918.0086 
   22400     626.7845   -2959.1589    45.370223   -2913.7887 
   22600    627.23419   -2957.9684    45.402774   -2912.5656 
   22800    578.69597   -2956.5277    41.889302   -2914.6384 
   23000    591.11382    -2957.279    42.788177   -2914.4908 
   23200    600.10217   -2956.3939    43.438804   -2912.9551 
   23400    596.83619   -2954.4765    43.202394   -2911.2741 
   23600    620.10233   -2954.4061     44.88653   -2909.5196 
   23800    618.39781   -2955.2211    44.763147   -2910.4579 
   24000    571.78053   -2954.6817    41.388723    -2913.293 
   24200    589.89251    -2955.683    42.699771   -2912.9833 
   24400    645.45785   -2958.4854    46.721906   -2911.7635 
   24600    587.36361   -2958.0857    42.516715   -2915.5689 
   24800    559.91164   -2958.2972    40.529586   -2917.7676 
   25000    619.95498   -2960.4337    44.875864   -2915.5578 
   25200    617.20019   -2960.0153    44.676456   -2915.3388 
   25400    572.30049   -2958.4435    41.426361   -2917.0171 
   25600    592.34087    -2958.593    42.876998    -2915.716 
   25800    614.01704   -2957.5881    44.446042   -2913.1421 
   26000    616.18142   -2956.9928    44.602712   -2912.3901 
   26200    605.36092   -2957.7082    43.819462   -2913.8888 
   26400    578.36436   -2957.7399    41.865298   -2915.8746 
   26600     576.4645   -2956.7972    41.727776   -2915.0694 
   26800    620.50725   -2956.4911     44.91584   -2911.5753 
   27000    631.17678   -2956.1933    45.688161   -2910.5051 
   27200    597.89102   -2956.7271    43.278749   -2913.4483 
   27400    578.58734   -2958.0496    41.881439   -2916.1682 
   27600    610.20665   -2960.7539    44.170224   -2916.5837 
   27800    600.39189   -2961.4001    43.459776   -2917.9403 
   28000    574.33551   -2960.6987    41.573667    -2919.125 
   28200    594.12317   -2960.2718     43.00601   -2917.2658 
   28400    613.44092   -2958.8649    44.404339   -2914.4605 
   28600    620.54133   -2958.3592    44.918307   -2913.4409 
   28800    624.60195   -2960.8049    45.212238   -2915.5927 
   29000    577.09112   -2962.1981    41.773134    -2920.425 
   29200    559.85583   -2962.7628    40.525545   -2922.2372 
   29400    593.09735   -2962.0919    42.931756   -2919.1602 
   29600    609.03341   -2958.8254    44.085298   -2914.7401 
   29800    617.62595   -2956.1051    44.707275   -2911.3979 
   30000    644.16766   -2957.7238    46.628515   -2911.0953 
   30200    593.57674   -2959.2156    42.966457   -2916.2491 
   30400    541.57916   -2959.2387    39.202576   -2920.0361 
   30600    588.47191   -2959.7039     42.59694    -2917.107 
   30800    647.60965   -2959.1951    46.877665   -2912.3175 
   31000    611.25307   -2957.4907     44.24597   -2913.2447 
   31200     579.9987    -2957.924    41.983601   -2915.9404 
   31400    593.13901   -2959.3096    42.934771   -2916.3748 
   31600    602.08729   -2959.3454    43.582498   -2915.7629 
   31800     581.2424   -2957.1703    42.073627   -2915.0967 
   32000    602.45297   -2955.9325    43.608969   -2912.3235 
   32200    656.40388   -2957.8542    47.514242     -2910.34 
   32400     596.2185   -2958.2768    43.157682   -2915.1191 
   32600     549.1558   -2958.8995    39.751017   -2919.1485 
   32800    595.18756   -2960.4305    43.083057   -2917.3474 
   33000    638.29476   -2960.8878    46.203401   -2914.6844 
   33200    609.11158   -2960.8874    44.090957   -2916.7964 
   33400    573.44057   -2961.5121    41.508887   -2920.0032 
   33600    577.62294   -2961.6317     41.81163   -2919.8201 
   33800    618.39776   -2961.7759    44.763143   -2917.0127 
   34000    605.05122   -2959.7386    43.797045   -2915.9416 
   34200    590.37396   -2958.4195    42.734621   -2915.6849 
   34400    592.91122   -2957.1382    42.918283   -2914.2199 
   34600    626.75494   -2957.5341    45.368083    -2912.166 
   34800     620.4724   -2958.4977    44.913318   -2913.5844 
   35000    567.61969   -2958.2044    41.087538   -2917.1169 
   35200    591.41381   -2959.8285    42.809891   -2917.0186 
   35400    623.35286   -2960.9244    45.121821   -2915.8026 
   35600    597.60628   -2960.4274    43.258138   -2917.1692 
   35800    595.86006   -2961.7474    43.131736   -2918.6157 
   36000    590.61641   -2962.0504    42.752171   -2919.2982 
   36200    607.78004   -2963.1053    43.994573   -2919.1107 
   36400    585.81096   -2961.7744    42.404326     -2919.37 
   36600    588.09739   -2960.5375     42.56983   -2917.9677 
   36800    629.02064   -2960.8082    45.532088   -2915.2761 
   37000    613.50437   -2960.4739    44.408932   -2916.0649 
   37200    566.30875   -2959.2899    40.992645   -2918.2973 
   37400    590.02026   -2959.4553    42.709019   -2916.7463 
   37600    633.24338   -2959.7532    45.837753   -2913.9154 
   37800    600.40237    -2958.308    43.460534   -2914.8475 
   38000     574.0003   -2957.3752    41.549403   -2915.8258 
   38200    619.09984   -2958.9339    44.813964   -2914.1199 
   38400    605.62716   -2958.1468    43.838735   -2914.3081 
   38600    580.53484   -2957.1886     42.02241   -2915.1662 
   38800    615.46479   -2958.6401    44.550838   -2914.0892 
   39000    617.01422   -2959.4638    44.662995   -2914.8008 
   39200    570.64936   -2958.5592    41.306843   -2917.2524 
   39400    577.38943    -2958.008    41.794727   -2916.2133 
   39600    644.13937    -2959.399    46.626467   -2912.7726 
   39800    621.66891   -2959.4134    44.999928   -2914.4135 
   40000    587.93179   -2961.7406    42.557843   -2919.1828 
   40200    561.91173   -2962.7847    40.674363   -2922.1103 
   40400    591.22871    -2963.215    42.796493   -2920.4185 
   40600     635.8395   -2963.5359    46.025676   -2917.5103 
   40800    606.70251   -2962.7983    43.916575   -2918.8818 
   41000    574.27522   -2962.6727    41.569303   -2921.1034 
   41200     601.3619   -2963.9817    43.529991   -2920.4517 
   41400    610.14768   -2963.8738    44.165955   -2919.7078 
   41600    570.95511   -2961.0697    41.328975   -2919.7407 
   41800    586.06529   -2958.9263    42.422735   -2916.5035 
   42000    647.06763    -2958.455    46.838432   -2911.6166 
   42200    631.03961   -2958.3027    45.678232   -2912.6245 
   42400    550.86382   -2956.9532    39.874653   -2917.0785 
   42600    561.65126   -2956.4789    40.655509   -2915.8234 
   42800    658.69571   -2957.7824    47.680138   -2910.1023 
   43000    642.47193   -2957.9206    46.505768   -2911.4148 
   43200    577.86366   -2960.1385    41.829055   -2918.3094 
   43400    559.09655   -2962.7532    40.470585   -2922.2826 
   43600    582.50114   -2963.2899    42.164742   -2921.1252 
   43800    624.09232   -2962.8423    45.175347    -2917.667 
   44000    618.03042   -2961.7571    44.736553   -2917.0206 
   44200    582.73232    -2960.852    42.181476   -2918.6705 
   44400    567.47437   -2959.1911    41.077019    -2918.114 
   44600    619.96025    -2958.721    44.876245   -2913.8447 
   44800    630.37932   -2957.3228    45.630436   -2911.6924 
   45000    589.48853   -2956.0618    42.670529   -2913.3913 
   45200    593.23088    -2957.075    42.941421   -2914.1336 
   45400    622.05171    -2959.269    45.027637   -2914.2414 
   45600    599.99391   -2960.2972    43.430968   -2916.8663 
   45800    570.25903   -2960.5252    41.278588   -2919.2466 
   46000    592.98535    -2961.078    42.923648   -2918.1544 
   46200    613.74132   -2960.3987    44.426083   -2915.9727 
   46400    610.21765   -2959.5256     44.17102   -2915.3546 
   46600    607.21336   -2960.3149    43.953552   -2916.3613 
   46800       583.65   -2960.2197    42.247903   -2917.9718 
   47000    601.01073   -2961.3943    43.504571   -2917.8897 
   47200    604.50177   -2961.4306    43.757273   -2917.6734 
   47400    611.81813   -2962.5553    44.286872   -2918.2684 
   47600    591.45783   -2962.9616    42.813078   -2920.1485 
   47800    577.32815   -2962.6411    41.790291   -2920.8508 
   48000    616.95969   -2963.7719    44.659048   -2919.1128 
   48200    608.27046     -2963.08    44.030071   -2919.0499 
   48400    575.73684   -2961.5263    41.675104   -2919.8512 
   48600    590.51338   -2960.5726    42.744714   -2917.8279 
   48800    644.19611   -2961.6139    46.630575   -2914.9834 
   49000    600.18318   -2960.6195    43.444668   -2917.1748 
   49200    557.50244    -2959.637    40.355194   -2919.2818 
   49400    611.77241   -2961.0206    44.283563    -2916.737 
   49600    634.12996   -2961.1824    45.901929   -2915.2804 
   49800    593.22142   -2961.0281    42.940737   -2918.0873 
   50000    564.27801   -2960.7486    40.845648   -2919.9029 
   50200    605.13388   -2961.4764    43.803028   -2917.6734 
   50400    622.99314   -2960.8394    45.095783   -2915.7436 
   50600    591.91172   -2959.3333    42.845933   -2916.4874 
   50800    597.57066   -2959.8073     43.25556   -2916.5518 
   51000    615.32209   -2961.0064    44.540509   -2916.4659 
   51200    586.22536   -2960.3567    42.434322   -2917.9224 
   51400    582.78418    -2959.914     42.18523   -2917.7288 
   51600    617.76985   -2960.3069    44.717691   -2915.5892 
   51800    612.32921   -2959.8022    44.323867   -2915.4783 
   52000    583.63446   -2959.0385    42.246778   -2916.7918 
   52200    605.28945   -2960.2792    43.814289   -2916.4649 
   52400    620.68459   -2961.8054    44.928677   -2916.8767 
   52600    587.66009    -2962.135    42.538176   -2919.5968 
   52800    574.92864   -2962.3526    41.616601    -2920.736 
   53000     593.0757   -2961.6769    42.930188   -2918.7468 
   53200    615.44759    -2960.254    44.549593   -2915.7044 
   53400    632.34495   -2960.7159     45.77272   -2914.9431 
   53600     595.9279   -2961.3247    43.136647   -2918.1881 
   53800    569.18937   -2962.0431     41.20116    -2920.842 
   54000    581.07182   -2961.6887     42.06128   -2919.6274 
   54200    627.75822   -2961.6119    45.440706   -2916.1712 
   54400    627.30569   -2961.5018     45.40795   -2916.0938 
   54600    582.18321   -2961.4966    42.141728   -2919.3549 
   54800     570.9165   -2961.7364     41.32618   -2920.4102 
   55000    593.63244   -2960.7636    42.970489   -2917.7931 
   55200    632.87059    -2960.214    45.810769   -2914.4032 
   55400    608.07031   -2958.8168    44.015583   -2914.8012 
   55600    582.91467   -2958.5891    42.194675   -2916.3944 
   55800    599.32905   -2959.4682    43.382841   -2916.0853 
   56000    625.34559   -2961.1051    45.266067    -2915.839 
   56200     596.9139   -2961.8359     43.20802   -2918.6279 
   56400    555.84192   -2960.7412    40.234996   -2920.5062 
   56600    622.96567    -2962.832    45.093795   -2917.7382 
   56800    637.04089   -2963.6467    46.112639   -2917.5341 
   57000    559.52923   -2961.9185    40.501904   -2921.4166 
   57200    558.44092    -2960.961    40.423126   -2920.5378 
   57400    643.07232    -2961.282    46.549228   -2914.7328 
   57600     634.8452   -2959.7047    45.953703    -2913.751 
   57800    571.46673   -2958.5694    41.366008   -2917.2034 
   58000    591.87327    -2960.512     42.84315   -2917.6689 
   58200    632.84671   -2963.0704     45.80904   -2917.2613 
   58400    590.78438   -2963.3172     42.76433   -2920.5529 
   58600    547.89624   -2961.9923    39.659842   -2922.3325 
   58800    606.84956   -2962.1517    43.927219   -2918.2245 
   59000    663.66953   -2962.8813    48.040171   -2914.8412 
   59200    590.71577   -2961.8538    42.759363   -2919.0944 
   59400    549.04443   -2961.8719    39.742955   -2922.1289 
   59600    605.32395   -2963.2229    43.816786   -2919.4061 
   59800    624.95732   -2961.9368    45.237962   -2916.6988 
   60000    593.10225   -2960.0385    42.932111   -2917.1064 
   60200    591.19134   -2959.5972    42.793788   -2916.8034 
   60400    627.58595   -2961.1997    45.428236   -2915.7715 
   60600     606.1924    -2961.889     43.87965   -2918.0093 
   60800    573.22224   -2962.3374    41.493082   -2920.8443 
   61000    599.80128   -2964.1241    43.417024   -2920.7071 
   61200    604.52924   -2963.9866    43.759261   -2920.2274 
   61400    583.01777   -2962.2602    42.202138   -2920.0581 
   61600    609.22174   -2962.2505    44.098931   -2918.1516 
   61800    631.93345   -2963.2587    45.742933   -2917.5157 
   62000    590.87427   -2963.3986    42.770836   -2920.6278 
   62200    561.81207   -2963.0891     40.66715    -2922.422 
   62400    616.00365   -2964.5886    44.589844   -2919.9988 
   62600    633.09971   -2965.1994    45.827354   -2919.3721 
   62800    572.11487   -2963.7843    41.412925   -2922.3714 
   63000    578.57316   -2964.2258    41.880413   -2922.3454 
   63200    607.42645   -2963.4483    43.968977   -2919.4794 
   63400    625.43568   -2962.7788    45.272588   -2917.5063 
   63600    606.05817   -2962.6292    43.869933   -2918.7593 
   63800    580.53139    -2962.785     42.02216   -2920.7628 
   64000    586.61495   -2962.8301    42.462523   -2920.3676 
   64200    608.94217   -2962.2801    44.078694   -2918.2014 
   64400    618.91794   -2962.0691    44.800797   -2917.2683 
   64600     585.9751   -2960.7966    42.416207   -2918.3804 
   64800    600.68954   -2961.6734    43.481321   -2918.1921 
   65000    623.36444    -2963.305    45.122659   -2918.1823 
   65200    589.33701    -2963.455    42.659561   -2920.7955 
   65400    573.28775   -2963.4394    41.497824   -2921.9416 
   65600    624.20675    -2965.457    45.183631   -2920.2734 
   65800     603.9274   -2964.8238    43.715696   -2921.1081 
   66000    567.17837   -2963.2775    41.055592   -2922.2219 
   66200    601.97297   -2963.2609    43.574223   -2919.6867 
   66400    631.07348   -2962.9348    45.680684   -2917.2541 
   66600    591.72927   -2961.1408    42.832726   -2918.3081 
   66800    602.06326   -2962.5719    43.580759   -2918.9912 
   67000    620.56045   -2964.9983    44.919691   -2920.0786 
   67200    584.92859    -2965.769    42.340454   -2923.4286 
   67400    554.75599   -2964.6985     40.15639   -2924.5421 
   67600    602.74107   -2964.0579    43.629823   -2920.4281 
   67800    633.02242   -2961.8787    45.821759    -2916.057 
   68000    625.05704    -2961.486     45.24518   -2916.2409 
   68200     585.1787   -2961.9269    42.358559   -2919.5684 
   68400    582.78236   -2963.4082    42.185098   -2921.2231 
   68600    601.10462   -2964.1841    43.511368   -2920.6727 
   68800    612.90853   -2964.6343    44.365802   -2920.2685 
   69000    582.59104   -2963.2081     42.17125   -2921.0368 
   69200     603.4402   -2963.8125     43.68043    -2920.132 
   69400    623.14143   -2964.7339    45.106517   -2919.6274 
   69600    585.93343   -2964.1073     42.41319   -2921.6941 
   69800    569.95196   -2963.3114    41.256361   -2922.0551 
   70000    608.64059   -2962.8521    44.056864   -2918.7952 
   70200    640.46819   -2962.8972    46.360726   -2916.5365 
   70400     599.8914   -2962.7689    43.423547   -2919.3453 
   70600    565.23674   -2963.0123    40.915046   -2922.0972 
   70800    597.77774   -2964.1339    43.270549   -2920.8634 
   71000    629.01665   -2964.7033    45.531799   -2919.1715 
   71200    599.72616   -2964.3484    43.411587   -2920.9368 
   71400    570.92425   -2963.8517    41.326741    -2922.525 
   71600    614.41616   -2965.5259    44.474932    -2921.051 
   71800     613.9192   -2965.3438     44.43896   -2920.9048 
   72000    586.76412   -2965.0358    42.473321   -2922.5625 
   72200    591.60807   -2965.5143    42.823953   -2922.6903 
   72400    622.29067   -2967.0203    45.044934   -2921.9754 
   72600    602.52465   -2967.5081    43.614157    -2923.894 
   72800    568.17922   -2966.9641     41.12804   -2925.8361 
   73000    597.94643   -2967.4265    43.282759   -2924.1437 
   73200    612.98926   -2966.3256    44.371646   -2921.9539 
   73400    589.81214   -2963.7277    42.693953   -2921.0337 
   73600    619.57222   -2964.2643    44.848157   -2919.4162 
   73800    622.76658   -2965.4131    45.079383   -2920.3337 
   74000    574.87957   -2965.3959     41.61305   -2923.7829 
   74200    577.61195   -2966.1455    41.810835   -2924.3347 
   74400    611.18959   -2966.2841    44.241375   -2922.0427 
   74600    601.93132   -2964.3152    43.571209    -2920.744 
   74800    590.00433   -2962.3944    42.707865   -2919.6866 
   75000    633.54723   -2963.8731    45.859747   -2918.0133 
   75200    605.38484   -2964.0882    43.821194    -2920.267 
   75400     564.4334   -2963.8256    40.856896   -2922.9687 
   75600    604.95203   -2965.5845    43.789865   -2921.7947 
   75800    625.70421   -2966.2156    45.292025   -2920.9236 
   76000    596.12425   -2966.4039     43.15086    -2923.253 
   76200    567.70306   -2965.9165    41.093573   -2924.8229 
   76400    608.24851   -2966.9062    44.028483   -2922.8777 
   76600    603.22081    -2965.008    43.664549   -2921.3434 
   76800     591.8089   -2963.1121     42.83849   -2920.2736 
   77000    614.71904    -2963.023    44.496856   -2918.5261 
   77200    618.66533   -2963.3774    44.782511   -2918.5949 
   77400    597.06115   -2964.3161    43.218678   -2921.0974 
   77600    581.25957    -2965.183     42.07487   -2923.1082 
   77800    601.99528   -2966.4991    43.575838   -2922.9233 
   78000    621.43313   -2968.0611    44.982861   -2923.0782 
   78200    584.89219   -2967.9081    42.337819   -2925.5703 
   78400    565.05265   -2966.9441    40.901721   -2926.0424 
   78600    629.94271   -2968.3125    45.598832   -2922.7136 
   78800    627.21937   -2968.1546    45.401701   -2922.7529 
   79000    560.51147   -2966.3626    40.573004   -2925.7896 
   79200    585.02281   -2966.9238    42.347274   -2924.5766 
   79400    634.86182   -2967.3416    45.954905   -2921.3867 
   79600    616.63491   -2967.0275    44.635538    -2922.392 
   79800    567.70322   -2966.4962    41.093584   -2925.4026 
   80000    570.19452    -2965.772    41.273919   -2924.4981 
   80200    622.83941   -2964.9982    45.084655   -2919.9135 
   80400    642.19222   -2964.5222    46.485522   -2918.0367 
   80600    602.97032   -2965.3761    43.646417   -2921.7297 
   80800    573.92902   -2967.3488    41.544243   -2925.8046 
   81000    592.76083   -2969.6688    42.907396   -2926.7614 
   81200    609.71557   -2970.8504    44.134677   -2926.7157 
   81400    591.78211   -2970.4334    42.836551   -2927.5968 
   81600    581.41706   -2969.4597     42.08627   -2927.3734 
   81800    601.78664   -2968.4514    43.560736   -2924.8907 
   82000    609.95943   -2966.5749    44.152329   -2922.4225 
   82200    602.72534   -2964.9475    43.628684   -2921.3188 
   82400    605.95878   -2964.5748    43.862739   -2920.7121 
   82600    614.38922   -2965.5604    44.472982   -2921.0874 
   82800    587.17109   -2965.5898    42.502779    -2923.087 
   83000    580.75219   -2965.5525    42.038143   -2923.5144 
   83200    609.58251   -2965.7509    44.125045   -2921.6259 
   83400    617.70476     -2965.58     44.71298   -2920.8671 
   83600    593.90091   -2965.2117    42.989922   -2922.2218 
   83800    596.68846   -2966.2747      43.1917    -2923.083 
   84000     605.3372   -2967.4434    43.817745   -2923.6256 
   84200    593.66743   -2967.4974    42.973022   -2924.5244 
   84400     614.9408   -2969.5882    44.512909   -2925.0753 
   84600    598.56376     -2970.59    43.327445   -2927.2626 
   84800    571.93211   -2970.4203    41.399695   -2929.0206 
   85000    597.51147    -2970.793    43.251275   -2927.5417 
   85200    622.03008    -2970.623    45.026071    -2925.597 
   85400    600.39596   -2969.7149    43.460071   -2926.2548 
   85600    586.63673   -2969.5382      42.4641   -2927.0741 
   85800    594.34946   -2969.2576    43.022391   -2926.2352 
   86000    607.18004   -2968.5827    43.951141   -2924.6316 
   86200     611.0851   -2968.1485    44.233811   -2923.9147 
   86400    618.35891   -2969.7498    44.760331   -2924.9894 
   86600    589.03461   -2970.7328    42.637672   -2928.0952 
   86800    575.88996   -2971.4655    41.686187   -2929.7793 
   87000    603.02705   -2972.2576    43.650524    -2928.607 
   87200    620.22772   -2972.6101    44.895606   -2927.7145 
   87400    593.29838   -2972.1618    42.946307   -2929.2155 
   87600    582.37909   -2972.1193    42.155907   -2929.9634 
   87800    616.26992   -2973.4349    44.609118   -2928.8258 
   88000    607.97716    -2973.485    44.008841   -2929.4761 
   88200    572.99445   -2972.3986    41.476594    -2930.922 
   88400    588.57563   -2971.8262    42.604448   -2929.2217 
   88600    620.99666   -2970.9237    44.951266   -2925.9725 
   88800    606.32814   -2968.9678    43.889476   -2925.0783 
   89000    602.17452   -2968.9203    43.588813   -2925.3315 
   89200    614.80765   -2970.5925    44.503271   -2926.0893 
   89400    593.41883   -2971.5211    42.955026   -2928.5661 
   89600    556.81558   -2970.0357    40.305475   -2929.7302 
   89800    596.18065   -2969.0505    43.154943   -2925.8955 
   90000    655.86612   -2968.9917    47.475316   -2921.5164 
   90200     616.0835   -2968.7708    44.595624   -2924.1751 
   90400    559.37088   -2969.1989    40.490442   -2928.7085 
   90600    575.43779   -2970.0647    41.653456   -2928.4112 
   90800     620.1593   -2969.7794    44.890653   -2924.8888 
   91000    634.37429   -2969.8089    45.919615   -2923.8893 
   91200    590.33671   -2969.8856    42.731925   -2927.1537 
   91400    573.92088   -2970.7628    41.543654   -2929.2191 
   91600    615.95389   -2972.9844    44.586242   -2928.3982 
   91800    607.84192    -2973.214    43.999052    -2929.215 
   92000    567.45915   -2971.7616    41.075917   -2930.6857 
   92200    600.51084   -2972.0322    43.468386   -2928.5639 
   92400    635.36603   -2972.3977    45.991403   -2926.4063 
   92600    597.13884   -2971.6382    43.224302   -2928.4139 
   92800    580.77898   -2972.3513    42.040082   -2930.3112 
   93000    595.85231   -2972.9777    43.131175   -2929.8465 
   93200    607.24383   -2972.7359    43.955759   -2928.7801 
   93400    589.67445    -2970.913    42.683987    -2928.229 
   93600    619.30211   -2971.8155    44.828605   -2926.9868 
   93800    603.48964   -2971.5712    43.684008   -2927.8872 
   94000    570.81355   -2970.2897    41.318728    -2928.971 
   94200     611.4455   -2971.3131    44.259899   -2927.0532 
   94400    606.54736   -2969.8648    43.905344   -2925.9594 
   94600    594.68657   -2968.8052    43.046792   -2925.7584 
   94800    620.99695   -2970.3872    44.951287    -2925.436 
   95000    601.08134   -2970.9535    43.509682   -2927.4438 
   95200    577.73154   -2971.3129    41.819491   -2929.4934 
   95400    595.11431   -2972.0469    43.077755   -2928.9692 
   95600    613.58976    -2972.103    44.415113   -2927.6878 
   95800    618.27811   -2973.1028    44.754482   -2928.3483 
   96000    577.89183   -2972.7173    41.831094   -2930.8862 
   96200    586.49915   -2973.4397    42.454141   -2930.9856 
   96400    602.79414   -2972.7855    43.633664   -2929.1518 
   96600    618.19088    -2972.504    44.748168   -2927.7558 
   96800    613.36792   -2973.1729    44.399055   -2928.7739 
   97000    579.91219   -2973.2255    41.977339   -2931.2481 
   97200    581.77111   -2973.4052    42.111898   -2931.2933 
   97400    615.12791   -2973.6825    44.526453    -2929.156 
   97600    613.24245    -2973.084    44.389972    -2928.694 
   97800    592.21228   -2972.8751     42.86769   -2930.0074 
   98000    590.12556   -2973.1674    42.716641   -2930.4508 
   98200    607.26442   -2973.7062    43.957249    -2929.749 
   98400    609.29332   -2973.9994    44.104112   -2929.8953 
   98600    590.14986   -2973.7869      42.7184   -2931.0685 
   98800    588.56626   -2973.6796     42.60377   -2931.0759 
   99000    596.05133   -2972.6979    43.145582   -2929.5524 
   99200    601.01695   -2970.8645    43.505021   -2927.3594 
   99400    628.75761   -2971.2471    45.513048    -2925.734 
   99600    596.15953   -2970.5011    43.153414   -2927.3477 
   99800    585.12578   -2971.1025    42.354728   -2928.7478 
  100000    596.15318   -2971.3758    43.152954   -2928.2228 
Loop time of 507.464 on 1 procs for 100000 steps with 561 atoms

Performance: 1.703 ns/day, 14.096 hours/ns, 197.058 timesteps/s
99.6% CPU use with 1 MPI tasks x 1 OpenMP threads

MPI task timing breakdown:
Section |  min time  |  avg time  |  max time  |%varavg| %total
---------------------------------------------------------------
Pair    | 504.54     | 504.54     | 504.54     |   0.0 | 99.42
Neigh   | 0.031205   | 0.031205   | 0.031205   |   0.0 |  0.01
Comm    | 0.021506   | 0.021506   | 0.021506   |   0.0 |  0.00
Output  | 0.75169    | 0.75169    | 0.75169    |   0.0 |  0.15
Modify  | 1.8383     | 1.8383     | 1.8383     |   0.0 |  0.36
Other   |            | 0.282      |            |       |  0.06

Nlocal:    561 ave 561 max 561 min
Histogram: 1 0 0 0 0 0 0 0 0 0
Nghost:    0 ave 0 max 0 min
Histogram: 1 0 0 0 0 0 0 0 0 0
Neighs:    12067 ave 12067 max 12067 min
Histogram: 1 0 0 0 0 0 0 0 0 0
FullNghs:  24134 ave 24134 max 24134 min
Histogram: 1 0 0 0 0 0 0 0 0 0

Total # of neighbors = 24134
Ave neighs/atom = 43.0196
Neighbor list builds = 21
Dangerous builds = 0
All done!
Total wall time: 0:08:27
