LAMMPS (22 Aug 2018)
OMP_NUM_THREADS environment is not set. Defaulting to 1 thread. (src/comm.cpp:87)
  using 1 OpenMP thread(s) per MPI task
Reading data file ...
  orthogonal box = (-0 -0 -0) to (100 100 100)
  1 by 1 by 1 MPI processor grid
  reading atoms ...
  561 atoms
WARNING: The pair_style meam command is unsupported. Please use pair_style meam/c instead (src/MEAM/pair_meam.cpp:51)
Reading potential file library.meam with DATE: 2012-06-29
Neighbor list info ...
  update every 1 steps, delay 10 steps, check yes
  max neighbors/atom: 2000, page size: 100000
  master list distance cutoff = 6
  ghost atom cutoff = 6
  binsize = 3, bins = 34 34 34
  2 neighbor lists, perpetual/occasional/extra = 2 0 0
  (1) pair meam, perpetual
      attributes: full, newton on
      pair build: full/bin/atomonly
      stencil: full/bin/3d
      bin: standard
  (2) pair meam, perpetual, half/full from (1)
      attributes: half, newton on
      pair build: halffull/newton
      stencil: none
      bin: none
Setting up Verlet run ...
  Unit style    : metal
  Current step  : 0
  Time step     : 0.0001
Per MPI rank memory allocation (min/avg/max) = 9.723 | 9.723 | 9.723 Mbytes
Step Temp PotEng KinEng TotEng 
       0          600    -1726.413    43.431409   -1682.9816 
     200    577.59391   -1723.9275    41.809529    -1682.118 
     400    579.86382   -1708.3023    41.973837   -1666.3285 
     600    722.14709   -1717.7451    52.273109    -1665.472 
     800     490.3954   -1739.7993    35.497605   -1704.3017 
    1000    680.89006   -1758.3042    49.286691   -1709.0175 
    1200     512.9281   -1767.9064     37.12865   -1730.7777 
    1400    680.89448   -1776.0863    49.287011   -1726.7993 
    1600    532.79011   -1781.7293    38.566375   -1743.1629 
    1800    651.67963   -1787.5904    47.172274   -1740.4181 
    2000    547.81659   -1789.5038    39.654077   -1749.8497 
    2200     628.7409   -1788.9413    45.511838   -1743.4295 
    2400    569.36464   -1784.1169    41.213847    -1742.903 
    2600    604.46401     -1777.23    43.754539   -1733.4755 
    2800    613.45284   -1770.8168    44.405201   -1726.4116 
    3000    556.47749   -1765.6557    40.281002   -1725.3747 
    3200    633.94449   -1755.7115    45.888504    -1709.823 
    3400    596.95519   -1749.3767    43.211008   -1706.1657 
    3600    605.03423   -1747.5463    43.795815   -1703.7504 
    3800    620.38733   -1750.9028    44.907159   -1705.9957 
    4000    590.37096   -1757.5288    42.734404   -1714.7944 
    4200    603.72919   -1766.5419    43.701348   -1722.8405 
    4400    588.81153   -1773.1077    42.621524   -1730.4862 
    4600    600.87305   -1776.3923    43.494605   -1732.8977 
    4800    600.02593   -1778.7813    43.433286    -1735.348 
    5000    587.93881   -1780.3381    42.558351   -1737.7798 
    5200    610.50472   -1780.8016      44.1918   -1736.6098 
    5400    584.17232   -1779.2275    42.285711   -1736.9418 
    5600    616.71457   -1777.4043    44.641304    -1732.763 
    5800    575.03959   -1773.4673    41.624632   -1731.8427 
    6000    632.90877   -1769.8349    45.813532   -1724.0214 
    6200    563.34403   -1765.5395    40.778042   -1724.7615 
    6400    641.82122   -1762.5205    46.458666   -1716.0618 
    6600    564.48139   -1759.2315     40.86037   -1718.3711 
    6800    629.04543    -1757.443    45.533882   -1711.9091 
    7000     585.7609   -1755.4965    42.400702   -1713.0958 
    7200    610.73113   -1755.1753    44.208189   -1710.9671 
    7400    602.70467   -1755.8926    43.627188   -1712.2654 
    7600    599.91777   -1760.2646    43.425457   -1716.8391 
    7800    603.58209   -1765.3405      43.6907   -1721.6498 
    8000    591.21573   -1769.7005    42.795553   -1726.9049 
    8200    605.98223    -1774.967    43.864437   -1731.1025 
    8400     588.8729   -1777.2858    42.625966   -1734.6599 
    8600    607.83355   -1778.5577    43.998446   -1734.5592 
    8800    593.16297   -1779.6511    42.936505   -1736.7146 
    9000    607.81332    -1780.268    43.996981    -1736.271 
    9200    585.44761   -1778.2246    42.378024   -1735.8466 
    9400    616.30561   -1776.0743    44.611701   -1731.4626 
    9600    578.87426   -1773.6554    41.902208   -1731.7532 
    9800    613.26551   -1769.5647    44.391642   -1725.1731 
   10000    601.98789   -1764.9987    43.575303   -1721.4234 
   10200    610.12877   -1763.6434    44.164587   -1719.4788 
   10400    586.18714   -1763.5942    42.431556   -1721.1626 
   10600    610.07096   -1764.5544    44.160402    -1720.394 
   10800    594.77034   -1764.8976    43.052856   -1721.8448 
   11000    607.23133   -1767.2544    43.954854   -1723.2996 
   11200    592.32338   -1771.3895    42.875732   -1728.5138 
   11400     601.5697   -1773.7508    43.545033   -1730.2058 
   11600    605.98587   -1774.3751      43.8647   -1730.5104 
   11800    589.19137   -1774.5814    42.649018   -1731.9324 
   12000    614.66383   -1773.8323     44.49286   -1729.3394 
   12200    583.37655   -1773.6623    42.228109   -1731.4342 
   12400    609.25859   -1772.6261    44.101598   -1728.5245 
   12600    592.06445   -1770.4115    42.856989   -1727.5545 
   12800    618.00948   -1770.4549    44.735038   -1725.7199 
   13000    577.03718   -1768.7562     41.76923    -1726.987 
   13200    616.53554   -1767.7696    44.628345   -1723.1413 
   13400    579.80276   -1763.9438    41.969418   -1721.9744 
   13600    630.62314    -1762.641    45.648085   -1716.9929 
   13800    584.82311   -1764.5714    42.332819   -1722.2386 
   14000    615.39251   -1767.1067    44.545606   -1722.5611 
   14200     579.2158   -1767.9613     41.92693   -1726.0344 
   14400    606.98627   -1768.3184    43.937115   -1724.3813 
   14600    611.32259   -1770.5706    44.251002   -1726.3196 
   14800    582.02595   -1773.8699    42.130345   -1731.7395 
   15000    614.79362   -1775.2491    44.502255   -1730.7469 
   15200     584.4504   -1775.1831     42.30584   -1732.8773 
   15400     613.2116   -1776.3354     44.38774   -1731.9477 
   15600     570.5612   -1774.3148    41.300461   -1733.0143 
   15800    630.53885   -1771.2358    45.641984   -1725.5938 
   16000    583.09475   -1770.1455     42.20771   -1727.9378 
   16200    606.42637   -1770.9745    43.896586   -1727.0779 
   16400    586.00799   -1770.4528    42.418588   -1728.0342 
   16600    612.57733   -1770.3751    44.341828   -1726.0333 
   16800    594.06137    -1769.582    43.001537   -1726.5805 
   17000    606.16557   -1769.7431    43.877708   -1725.8653 
   17200    596.30299   -1771.4199    43.163798   -1728.2561 
   17400    588.93418   -1770.3244    42.630402    -1727.694 
   17600    619.51309   -1767.8576    44.843877   -1723.0137 
   17800    602.16293   -1768.6936    43.587974   -1725.1057 
   18000    583.48815    -1772.414    42.236187   -1730.1779 
   18200    605.79453   -1772.9157     43.85085   -1729.0649 
   18400    603.57193   -1771.2819    43.689965   -1727.5919 
   18600    599.75175   -1772.2655    43.413439   -1728.8521 
   18800    591.38452   -1772.4242    42.807772   -1729.6164 
   19000    602.74418   -1770.5947    43.630048   -1726.9646 
   19200    604.05918   -1768.1921    43.725235   -1724.4669 
   19400    599.81906   -1768.6288    43.418311   -1725.2105 
   19600    605.56359   -1767.6445    43.834133   -1723.8104 
   19800     600.5188   -1768.9213    43.468962   -1725.4524 
   20000    598.49928   -1769.7723    43.322778   -1726.4495 
   20200    607.60537   -1770.8905    43.981928   -1726.9086 
   20400    572.65079   -1770.6334    41.451717   -1729.1817 
   20600     626.7325   -1770.7031    45.366459   -1725.3366 
   20800    576.68178   -1770.0325    41.743503    -1728.289 
   21000    625.78992   -1772.4164     45.29823   -1727.1181 
   21200    569.12736   -1774.2042    41.196671   -1733.0076 
   21400     630.2603   -1774.4702    45.621821   -1728.8484 
   21600    565.99895   -1772.8079     40.97022   -1731.8377 
   21800    643.02393   -1772.8032    46.545725   -1726.2575 
   22000    563.05099   -1772.5279    40.756829   -1731.7711 
   22200     627.2916   -1772.3981    45.406929   -1726.9912 
   22400    585.35654   -1770.0256    42.371432   -1727.6542 
   22600    599.88446   -1770.8236    43.423046   -1727.4006 
   22800     604.8598   -1770.7935    43.783189   -1727.0103 
   23000    597.41968   -1771.0234    43.244631   -1727.7787 
   23200    592.06874   -1771.3644    42.857299   -1728.5071 
   23400    619.50856   -1771.7006    44.843549    -1726.857 
   23600    577.60237   -1771.0204    41.810141   -1729.2102 
   23800    623.47085   -1770.0918    45.130362   -1724.9615 
   24000    591.30163   -1770.4442    42.801771   -1727.6425 
   24200    592.96806   -1771.4217    42.922397   -1728.4993 
   24400    604.73558    -1772.345    43.774197   -1728.5708 
   24600    599.85794   -1774.2586    43.421125   -1730.8375 
   24800    599.31079   -1775.2248     43.38152   -1731.8433 
   25000    590.60236   -1774.8015    42.751154   -1732.0504 
   25200    603.21595   -1771.0265    43.664198   -1727.3623 
   25400    610.80369   -1769.2056    44.213441   -1724.9922 
   25600    596.95654   -1770.0452    43.211106   -1726.8341 
   25800     604.0449   -1772.8192    43.724202    -1729.095 
   26000    577.89727   -1770.9643    41.831487   -1729.1328 
   26200    624.39328   -1770.5012    45.197133   -1725.3041 
   26400    574.56982   -1770.0944    41.590628   -1728.5038 
   26600    628.47213    -1770.987    45.492383   -1725.4946 
   26800    562.21242   -1769.4069    40.696129   -1728.7107 
   27000    646.50049   -1769.2969    46.797378   -1722.4996 
   27200    552.08464   -1769.0852    39.963023   -1729.1222 
   27400    647.64125   -1769.9034    46.879953   -1723.0234 
   27600    558.46708    -1768.712     40.42502    -1728.287 
   27800    642.37448   -1770.3166    46.498714   -1723.8178 
   28000    568.11862   -1772.0926    41.123654   -1730.9689 
   28200    610.27508   -1773.9128    44.175177   -1729.7376 
   28400    592.21766   -1773.1661    42.868079    -1730.298 
   28600     604.5114   -1771.5583    43.757969   -1727.8004 
   28800    602.01726   -1772.5233    43.577429   -1728.9458 
   29000    586.51869   -1773.6807    42.455555   -1731.2251 
   29200    607.24707   -1771.7334    43.955993   -1727.7774 
   29400    606.08482   -1771.4996    43.871862   -1727.6278 
   29600    581.98061   -1771.2099    42.127063   -1729.0829 
   29800    616.65402    -1770.522    44.636922   -1725.8851 
   30000    593.46039    -1771.344    42.958035    -1728.386 
   30200    600.24048   -1772.6034    43.448816   -1729.1545 
   30400    596.16278   -1770.9884    43.153649   -1727.8347 
   30600    611.27596   -1770.1071    44.247627   -1725.8595 
   30800     599.9829   -1771.3304    43.430171   -1727.9002 
   31000    589.00069   -1772.8237    42.635216   -1730.1885 
   31200    623.31135   -1772.9148    45.118817    -1727.796 
   31400    571.66802   -1772.1156    41.380579   -1730.7351 
   31600    622.54512    -1771.541    45.063352   -1726.4776 
   31800    587.17776   -1770.6506    42.503262   -1728.1474 
   32000     607.5923   -1772.3752    43.980982   -1728.3942 
   32200      583.586   -1770.7521     42.24327   -1728.5088 
   32400    623.56759   -1770.9926    45.137365   -1725.8552 
   32600    577.20324   -1772.8306    41.781249   -1731.0494 
   32800    605.85952   -1771.8192    43.855554   -1727.9636 
   33000    607.59426   -1770.6341    43.981124    -1726.653 
   33200    590.98256   -1771.8548    42.778675   -1729.0761 
   33400    592.98337   -1770.6868    42.923505   -1727.7632 
   33600     619.2285   -1770.6076    44.823277   -1725.7843 
   33800     581.8656   -1770.4481    42.118738   -1728.3294 
   34000    615.54612   -1771.8618    44.556725   -1727.3051 
   34200     568.4257    -1768.728    41.145882   -1727.5821 
   34400    641.47776   -1766.2912    46.433805   -1719.8574 
   34600    581.33114   -1768.9475    42.080051   -1726.8674 
   34800    602.96063   -1772.0184    43.645716   -1728.3726 
   35000    581.76896   -1771.6188    42.111743    -1729.507 
   35200    616.05119   -1770.7082    44.593285    -1726.115 
   35400     589.5209   -1769.2797    42.672872   -1726.6069 
   35600    602.73194   -1770.0821    43.629162    -1726.453 
   35800    599.45781   -1769.9076    43.392162   -1726.5155 
   36000    607.08616    -1770.163    43.944346   -1726.2186 
   36200    597.01106   -1771.3125    43.215052   -1728.0975 
   36400    599.20692   -1772.4838    43.374001   -1729.1098 
   36600    599.08138    -1771.406    43.364914   -1728.0411 
   36800    603.26214   -1771.6765    43.667541   -1728.0089 
   37000     597.3894   -1772.4616    43.242439   -1729.2192 
   37200    598.95851   -1772.7215    43.356019   -1729.3655 
   37400    602.56783   -1773.6394    43.617283   -1730.0221 
   37600    592.61578   -1773.1519    42.896897    -1730.255 
   37800    604.80088   -1772.7597    43.778924   -1728.9808 
   38000    589.03821   -1770.0895    42.637932   -1727.4515 
   38200    618.70805   -1768.2247    44.785603   -1723.4391 
   38400      585.798   -1768.8894    42.403387    -1726.486 
   38600    599.54395   -1767.7006    43.398397   -1724.3022 
   38800    607.68004   -1766.3615    43.987334   -1722.3741 
   39000    601.41902   -1767.4128    43.534125   -1723.8786 
   39200    596.57942   -1767.1802    43.183808   -1723.9964 
   39400    611.73423   -1768.9282    44.280799   -1724.6474 
   39600    582.06696    -1770.979    42.133314   -1728.8457 
   39800    616.14893   -1771.8806     44.60036   -1727.2802 
   40000    584.86467   -1772.2632    42.335827   -1729.9274 
   40200    613.39154   -1772.1986    44.400764   -1727.7978 
   40400    587.23104   -1771.6596    42.507119   -1729.1525 
   40600    615.39999   -1771.9026    44.546147   -1727.3565 
   40800    585.94833   -1773.0141    42.414269   -1730.5998 
   41000    608.62117   -1773.8913    44.055458   -1729.8359 
   41200    588.32254   -1772.0351    42.586128    -1729.449 
   41400    607.33238   -1772.0422    43.962168     -1728.08 
   41600    593.02624   -1771.7036    42.926609    -1728.777 
   41800     601.0017   -1770.9313    43.503917   -1727.4274 
   42000    606.69584   -1770.8687    43.916092   -1726.9526 
   42200     589.9326   -1772.2983    42.702673   -1729.5956 
   42400    604.25927   -1772.3584    43.739719   -1728.6187 
   42600     601.8586   -1772.5981    43.565945   -1729.0321 
   42800     590.4022   -1772.6051    42.736666   -1729.8684 
   43000    617.34604   -1771.9518    44.687013   -1727.2648 
   43200    582.16372   -1771.8245    42.140317   -1729.6842 
   43400    618.73614   -1771.2828    44.787637   -1726.4952 
   43600    591.71591   -1770.8311     42.83176   -1727.9993 
   43800    601.17266   -1771.9354    43.516293   -1728.4191 
   44000    598.70177   -1771.1456    43.337435   -1727.8082 
   44200    601.62156    -1769.492    43.548787   -1725.9432 
   44400    604.80614   -1769.1409    43.779304   -1725.3616 
   44600    595.17278   -1770.4858    43.081987   -1727.4039 
   44800    600.60657   -1769.1472    43.475315   -1725.6719 
   45000    605.10598    -1769.254    43.801008    -1725.453 
   45200    593.06473    -1770.274    42.929394   -1727.3446 
   45400    597.41096   -1770.3547       43.244   -1727.1107 
   45600    611.48757   -1770.1428    44.262944   -1725.8799 
   45800    599.35247   -1769.6517    43.384537   -1726.2672 
   46000    598.65198   -1772.4347    43.333831   -1729.1009 
   46200    597.60443    -1773.638    43.258003     -1730.38 
   46400    591.02782   -1773.3587    42.781952   -1730.5767 
   46600    609.01728   -1772.7848    44.084131   -1728.7006 
   46800      591.971   -1771.3285    42.850224   -1728.4783 
   47000    616.74576   -1770.9385    44.643562   -1726.2949 
   47200    585.63193   -1770.4963    42.391366   -1728.1049 
   47400     603.7131   -1772.3159    43.700184   -1728.6157 
   47600    584.85435   -1770.1652     42.33508   -1727.8301 
   47800    631.51811   -1769.6117    45.712868   -1723.8988 
   48000    559.66668   -1769.9045    40.511854   -1729.3926 
   48200    642.21913   -1772.5727    46.487469   -1726.0852 
   48400    558.17438   -1771.8197    40.403833   -1731.4159 
   48600     640.8155   -1770.6501    46.385866   -1724.2642 
   48800    578.28831    -1769.875    41.859793   -1728.0152 
   49000    614.29707   -1770.6001    44.466312   -1726.1337 
   49200     594.2652   -1768.7247    43.016292   -1725.7084 
   49400    609.29045   -1769.2578    44.103904   -1725.1539 
   49600    593.50937   -1771.1763     42.96158   -1728.2147 
   49800    598.85163   -1771.2099    43.348283   -1727.8616 
   50000    613.92844   -1771.9284    44.439628   -1727.4888 
   50200    590.55107   -1773.8348    42.747441   -1731.0874 
   50400    596.05393    -1774.656    43.145769   -1731.5102 
   50600    590.85927   -1772.5435     42.76975   -1729.7738 
   50800    610.86747   -1769.5239    44.218058   -1725.3059 
   51000    603.65679   -1769.1384    43.696108   -1725.4423 
   51200     609.6625   -1771.2136    44.130836   -1727.0827 
   51400    580.85581   -1773.2252    42.045644   -1731.1795 
   51600    601.85562    -1772.431    43.565729   -1728.8653 
   51800    595.67772   -1769.7427    43.118537   -1726.6241 
   52000    617.56037   -1769.1398    44.702528   -1724.4373 
   52200     594.2393   -1769.8016    43.014416   -1726.7871 
   52400    587.06636   -1769.7547    42.495198   -1727.2595 
   52600    621.80109   -1769.4411    45.009496   -1724.4316 
   52800    582.81189   -1770.3072    42.187236   -1728.1199 
   53000    608.60507   -1771.2563    44.054293    -1727.202 
   53200    597.30446   -1770.8499     43.23629   -1727.6136 
   53400    608.79794   -1772.4355    44.068254   -1728.3673 
   53600    577.10767   -1772.5623    41.774332   -1730.7879 
   53800    625.87873   -1772.9448    45.304658   -1727.6402 
   54000    567.98891   -1773.3565    41.114264   -1732.2423 
   54200    627.09758   -1772.3343    45.392886   -1726.9415 
   54400    585.10388   -1771.0939    42.353143   -1728.7407 
   54600    616.78204   -1773.0047    44.646188   -1728.3585 
   54800    580.54733   -1772.6394    42.023314   -1730.6161 
   55000     616.3293   -1771.6922    44.613416   -1727.0787 
   55200    586.57994   -1770.3697    42.459988   -1727.9097 
   55400    616.19968   -1770.6826    44.604034   -1726.0786 
   55600     586.6137   -1771.5234    42.462432    -1729.061 
   55800    595.18515   -1771.8004    43.082882   -1728.7176 
   56000    620.21042   -1771.9922    44.894354   -1727.0978 
   56200    574.75609   -1771.2702    41.604111   -1729.6661 
   56400    631.94078   -1772.5776    45.743464   -1726.8342 
   56600    561.17089   -1772.8299    40.620737   -1732.2092 
   56800    628.93151   -1771.6353    45.525636   -1726.1097 
   57000    585.76328   -1770.2739    42.400874    -1727.873 
   57200    618.41768   -1770.1198    44.764585   -1725.3552 
   57400    582.29829   -1770.4569    42.150058   -1728.3068 
   57600    616.28917    -1772.352    44.610512   -1727.7415 
   57800    567.63072   -1770.7718    41.088336   -1729.6834 
   58000    640.62294   -1770.3357    46.371928   -1723.9638 
   58200    566.19659   -1769.3543    40.984526   -1728.3698 
   58400    639.98342   -1773.6711    46.325636   -1727.3455 
   58600    553.50787   -1774.4794    40.066044   -1734.4134 
   58800    639.21148   -1773.1399    46.269758   -1726.8702 
   59000    577.87633   -1771.1883    41.829972   -1729.3584 
   59200    612.19144    -1771.466    44.313895   -1727.1522 
   59400    604.87004   -1770.4914     43.78393   -1726.7074 
   59600    594.23944   -1771.6604    43.014427    -1728.646 
   59800    616.83225   -1772.5704    44.649823   -1727.9206 
   60000    574.61865    -1772.965    41.594162   -1731.3708 
   60200    616.29477   -1772.7694    44.610917   -1728.1585 
   60400    587.15245   -1770.9549     42.50143   -1728.4535 
   60600    615.86427   -1771.3718    44.579755   -1726.7921 
   60800     584.3289   -1773.0096    42.297046   -1730.7126 
   61000    610.05288   -1773.3966    44.159093   -1729.2375 
   61200    586.27453   -1772.9424    42.437882   -1730.5045 
   61400     609.2806   -1772.2712    44.103191    -1728.168 
   61600    606.32244   -1772.3273    43.889063   -1728.4382 
   61800    585.90942   -1774.2232    42.411452   -1731.8117 
   62000    595.88596   -1772.2911    43.133611   -1729.1575 
   62200    607.36664   -1769.9758    43.964648   -1726.0111 
   62400     604.0637   -1769.6073    43.725562   -1725.8817 
   62600    593.77556   -1772.8184    42.980848   -1729.8376 
   62800    599.36828   -1771.9182    43.385681   -1728.5325 
   63000    602.19405   -1771.1812    43.590227    -1727.591 
   63200    590.24438    -1770.455    42.725242   -1727.7297 
   63400    628.37449   -1771.8446    45.485316   -1726.3593 
   63600    556.03031   -1772.7363    40.248633   -1732.4877 
   63800    650.02587   -1772.6372    47.052566   -1725.5846 
   64000    560.65112   -1771.7365    40.583113   -1731.1534 
   64200    628.44473   -1772.8522      45.4904   -1727.3618 
   64400    571.53685   -1771.0731    41.371084    -1729.702 
   64600    637.78042   -1771.7248     46.16617   -1725.5586 
   64800    566.01836    -1771.044    40.971625   -1730.0724 
   65000    630.28031   -1771.6605    45.623269   -1726.0372 
   65200    570.37389   -1770.8424    41.286902   -1729.5555 
   65400    636.64586   -1772.6341    46.084044   -1726.5501 
   65600    571.47442   -1773.4224    41.366565   -1732.0558 
   65800    603.41683   -1774.1861    43.678738   -1730.5074 
   66000    595.74019   -1771.7016    43.123059   -1728.5786 
   66200    612.40986   -1771.6037    44.329705    -1727.274 
   66400    592.25702   -1772.5125    42.870928   -1729.6415 
   66600    593.29911   -1771.6544     42.94636    -1728.708 
   66800    619.82007   -1771.6467    44.866098   -1726.7806 
   67000    586.88707   -1773.8933     42.48222   -1731.4111 
   67200    595.19003   -1773.5471    43.083236   -1730.4639 
   67400    605.89108   -1771.1602    43.857838   -1727.3024 
   67600    600.12516   -1771.5142    43.440468   -1728.0738 
   67800    601.96303    -1768.685    43.573504   -1725.1115 
   68000    608.24434   -1769.7022    44.028181    -1725.674 
   68200    585.91502   -1771.9452    42.411858   -1729.5334 
   68400    597.19023   -1771.3297    43.228022   -1728.1016 
   68600     609.6095   -1770.4668    44.126999   -1726.3398 
   68800    604.66303   -1771.0307    43.768945   -1727.2617 
   69000    590.92201   -1771.9575    42.774292   -1729.1832 
   69200    624.38704   -1772.7968    45.196682   -1727.6001 
   69400    563.98494   -1773.2312    40.824434   -1732.4068 
   69600    628.87244   -1772.6048     45.52136   -1727.0834 
   69800    576.01737    -1770.133     41.69541   -1728.4376 
   70000    623.22234   -1771.2531    45.112374   -1726.1407 
   70200     578.4042   -1769.7365    41.868182   -1727.8683 
   70400    625.04652   -1770.6422    45.244418   -1725.3978 
   70600    582.86378   -1770.8329    42.190992   -1728.6419 
   70800    611.73603   -1773.1105    44.280929   -1728.8296 
   71000    579.39074   -1773.3641    41.939594   -1731.4245 
   71200    614.24234   -1773.9462    44.462351   -1729.4839 
   71400    588.62709   -1773.9536    42.608173   -1731.3455 
   71600    609.10484   -1774.2921    44.090469   -1730.2016 
   71800     584.9652   -1772.8018    42.343104   -1730.4587 
   72000    621.02414   -1771.2238    44.953255   -1726.2706 
   72200    575.84965   -1769.1364    41.683269   -1727.4532 
   72400    632.18684   -1770.9182    45.761275    -1725.157 
   72600    571.59211   -1772.8135    41.375084   -1731.4384 
   72800    618.14067   -1773.2805    44.744534    -1728.536 
   73000    578.14024   -1771.7972    41.849075   -1729.9481 
   73200    629.03779    -1770.907    45.533329   -1725.3736 
   73400    567.00536   -1771.0189    41.043069   -1729.9759 
   73600    638.91904   -1772.6633     46.24859   -1726.4147 
   73800    549.14838   -1771.7886     39.75048   -1732.0382 
   74000    652.31162   -1773.2085    47.218021   -1725.9905 
   74200    565.03502   -1772.3454    40.900445    -1731.445 
   74400    618.04487   -1772.0623    44.737599   -1727.3247 
   74600     586.6856   -1769.2669    42.467637   -1726.7993 
   74800    628.77564   -1772.3367    45.514353   -1726.8223 
   75000    560.82048   -1773.6906    40.595372   -1733.0952 
   75200    631.92199   -1771.4864    45.742104   -1725.7443 
   75400    580.45611   -1769.0629    42.016711   -1727.0462 
   75600    615.01431   -1770.6999     44.51823   -1726.1817 
   75800    588.43009   -1769.6809    42.593913    -1727.087 
   76000    624.90799   -1770.4563    45.234391   -1725.2219 
   76200    575.70051   -1773.0722    41.672473   -1731.3998 
   76400    601.80657   -1772.9611    43.562179    -1729.399 
   76600     602.9796   -1771.2618    43.647089   -1727.6147 
   76800    603.91178   -1771.0757    43.714565   -1727.3611 
   77000    590.90773   -1770.0991    42.773259   -1727.3258 
   77200     600.2547    -1769.229    43.449845   -1725.7792 
   77400    620.50441   -1770.6588    44.915634   -1725.7431 
   77600    574.35195   -1772.4783    41.574857   -1730.9034 
   77800    622.47026   -1773.2269    45.057934    -1728.169 
   78000    573.44326   -1771.8606    41.509081   -1730.3515 
   78200    631.49803   -1771.2194    45.711415    -1725.508 
   78400     574.6809   -1771.5388    41.598668   -1729.9401 
   78600    619.46943   -1773.2774    44.840717   -1728.4367 
   78800    581.78455   -1771.9481    42.112871   -1729.8352 
   79000     620.0565   -1771.3356    44.883212   -1726.4523 
   79200    584.61548   -1772.0296     42.31779   -1729.7118 
   79400    608.36089   -1771.6847    44.036618   -1727.6481 
   79600    598.18987   -1771.3214    43.300381    -1728.021 
   79800    597.80187   -1772.0382    43.272296   -1728.7659 
   80000    596.23557   -1771.9016    43.158918   -1728.7427 
   80200    600.80228   -1771.2355    43.489482    -1727.746 
   80400    604.18683   -1772.0993    43.734475   -1728.3649 
   80600    596.39882   -1772.3032    43.170735   -1729.1324 
   80800    600.14967   -1771.5842    43.442243    -1728.142 
   81000    598.46927   -1770.4353    43.320606   -1727.1147 
   81200    601.75853    -1770.405    43.558701   -1726.8463 
   81400    585.45845   -1769.0462    42.378809   -1726.6674 
   81600    630.70701   -1769.4501    45.654157   -1723.7959 
   81800     568.5859   -1772.0483    41.157478   -1730.8908 
   82000    624.68055   -1772.9094    45.217927   -1727.6915 
   82200    582.84213   -1772.1479    42.189425   -1729.9585 
   82400    615.01053   -1771.9399    44.517956    -1727.422 
   82600    577.91391   -1771.8519    41.832692   -1730.0192 
   82800    624.87805   -1770.9904    45.232223   -1725.7582 
   83000     582.8127   -1770.9032    42.187294   -1728.7159 
   83200    606.56575   -1772.1559    43.906675   -1728.2492 
   83400    594.94118   -1771.5702    43.065223    -1728.505 
   83600    604.10018   -1770.9998    43.728203   -1727.2716 
   83800    606.75936   -1772.1978     43.92069   -1728.2771 
   84000    575.75187   -1772.7858    41.676191   -1731.1096 
   84200    632.61787   -1772.4456    45.792475   -1726.6531 
   84400    574.44376   -1772.9978    41.581503   -1731.4163 
   84600    613.91487   -1773.6442    44.438646   -1729.2055 
   84800    578.38436   -1771.3017    41.866746    -1729.435 
   85000    625.23414   -1767.4828    45.257999   -1722.2248 
   85200    592.88209    -1768.178    42.916174   -1725.2618 
   85400    592.22483   -1770.0462    42.868598   -1727.1776 
   85600    611.93879   -1769.9584    44.295606   -1725.6628 
   85800    593.45141   -1770.4995    42.957384   -1727.5421 
   86000    612.21004   -1771.3404    44.315241   -1727.0252 
   86200    593.67111   -1771.4496    42.973288   -1728.4764 
   86400    595.46184   -1772.3788    43.102911   -1729.2758 
   86600    604.66651   -1772.2038    43.769198   -1728.4346 
   86800    593.69181   -1770.4999    42.974786   -1727.5251 
   87000    610.62191   -1770.8689    44.200283   -1726.6686 
   87200    588.71643   -1770.5056     42.61464    -1727.891 
   87400    612.30808   -1770.6108    44.322337   -1726.2885 
   87600    583.31681   -1769.2667    42.223785   -1727.0429 
   87800    624.73406   -1770.2556    45.221801   -1725.0338 
   88000    574.38248   -1771.5934    41.577067   -1730.0164 
   88200    615.89331   -1771.5724    44.581857   -1726.9905 
   88400    589.31029   -1769.2884    42.657626   -1726.6308 
   88600    610.87064   -1770.2427    44.218288   -1726.0244 
   88800    585.17351   -1771.6339    42.358183   -1729.2757 
   89000    610.23548    -1771.557    44.172311   -1727.3847 
   89200    586.11395   -1771.3697    42.426258   -1728.9434 
   89400    616.53459   -1771.9183    44.628277     -1727.29 
   89600    577.42112   -1770.7797    41.797021   -1728.9826 
   89800    634.47469   -1770.5979    45.926882    -1724.671 
   90000    578.15819    -1771.982    41.850374   -1730.1316 
   90200    617.58621   -1772.9568    44.704399   -1728.2524 
   90400    574.88985   -1771.3237    41.613794     -1729.71 
   90600    624.78065   -1769.3134    45.225173   -1724.0883 
   90800    583.26818   -1768.8239    42.220265   -1726.6037 
   91000    607.34196   -1770.1003    43.962862   -1726.1374 
   91200    586.80816   -1768.5946    42.476508   -1726.1181 
   91400    613.15519   -1769.5591    44.383656   -1725.1754 
   91600    595.25953   -1771.0769    43.088267   -1727.9886 
   91800    587.49823   -1771.6533    42.526459   -1729.1269 
   92000    620.94099   -1770.8973    44.947237   -1725.9501 
   92200    570.26554    -1770.375     41.27906    -1729.096 
   92400    637.29745   -1769.9563     46.13121   -1723.8251 
   92600    557.61939    -1768.479    40.363659   -1728.1154 
   92800     646.9985   -1768.4095    46.833427   -1721.5761 
   93000    553.93244   -1766.7124    40.096777   -1726.6156 
   93200    649.75228   -1769.0502    47.032761   -1722.0174 
   93400    554.30843   -1767.9738    40.123993   -1727.8498 
   93600    648.68193   -1770.4897    46.955284   -1723.5344 
   93800    548.63911   -1769.8035    39.713615   -1730.0899 
   94000    650.17564   -1770.2964    47.063406    -1723.233 
   94200    558.82269    -1768.206    40.450761   -1727.7553 
   94400    645.58793   -1769.3999    46.731322   -1722.6686 
   94600    570.54872   -1769.8867    41.299558   -1728.5872 
   94800    626.64535   -1771.6214    45.360151   -1726.2612 
   95000    573.90006   -1772.0927    41.542146   -1730.5505 
   95200    612.07282   -1770.3828    44.305308   -1726.0775 
   95400    595.79833    -1769.022    43.127268   -1725.8948 
   95600    605.85142   -1768.1725    43.854968   -1724.3176 
   95800    592.60526    -1767.905    42.896136   -1725.0089 
   96000    610.76942   -1768.7313     44.21096   -1724.5203 
   96200    593.26885   -1770.9964     42.94417   -1728.0522 
   96400     592.7278   -1772.3321    42.905006   -1729.4271 
   96600    602.12188   -1770.2816    43.585003   -1726.6966 
   96800    600.26105   -1768.7841    43.450305   -1725.3338 
   97000    602.64119   -1769.3849    43.622593   -1725.7623 
   97200    606.01825   -1771.1542    43.867044   -1727.2871 
   97400    583.26497   -1771.6093    42.220032   -1729.3893 
   97600    614.41313   -1771.5354    44.474713   -1727.0607 
   97800    593.80735   -1770.7137     42.98315   -1727.7305 
   98000     596.4924   -1771.3496    43.177509   -1728.1721 
   98200    604.11802   -1772.6584    43.729494    -1728.929 
   98400    595.75993   -1773.1131    43.124489   -1729.9886 
   98600    601.36631   -1773.1501     43.53031   -1729.6198 
   98800    590.96898   -1771.5497    42.777692    -1728.772 
   99000     611.5584   -1768.2733    44.268071   -1724.0052 
   99200    605.92811    -1767.582    43.860519   -1723.7215 
   99400    597.12624   -1769.5137     43.22339   -1726.2904 
   99600    596.17158   -1769.3153    43.154286    -1726.161 
   99800    610.77667   -1769.2194    44.211485   -1725.0079 
  100000    587.68887   -1769.7695    42.540259   -1727.2293 
Loop time of 624.722 on 1 procs for 100000 steps with 561 atoms

Performance: 1.383 ns/day, 17.353 hours/ns, 160.071 timesteps/s
99.6% CPU use with 1 MPI tasks x 1 OpenMP threads

MPI task timing breakdown:
Section |  min time  |  avg time  |  max time  |%varavg| %total
---------------------------------------------------------------
Pair    | 620.9      | 620.9      | 620.9      |   0.0 | 99.39
Neigh   | 0.074756   | 0.074756   | 0.074756   |   0.0 |  0.01
Comm    | 0.058422   | 0.058422   | 0.058422   |   0.0 |  0.01
Output  | 0.75385    | 0.75385    | 0.75385    |   0.0 |  0.12
Modify  | 2.3631     | 2.3631     | 2.3631     |   0.0 |  0.38
Other   |            | 0.5702     |            |       |  0.09

Nlocal:    561 ave 561 max 561 min
Histogram: 1 0 0 0 0 0 0 0 0 0
Nghost:    0 ave 0 max 0 min
Histogram: 1 0 0 0 0 0 0 0 0 0
Neighs:    15002 ave 15002 max 15002 min
Histogram: 1 0 0 0 0 0 0 0 0 0
FullNghs:  30004 ave 30004 max 30004 min
Histogram: 1 0 0 0 0 0 0 0 0 0

Total # of neighbors = 30004
Ave neighs/atom = 53.4831
Neighbor list builds = 50
Dangerous builds = 0
All done!
Total wall time: 0:10:24
