 Start File for LAMMPS

 500 atoms

 1 atom types
 
   0 40 xlo xhi
   0 40 ylo yhi
   0 40 zlo zhi
  
 Masses

 1  39.948
 
 Atoms

1	1	0.00	0.00	0.00
2	1	8.00	0.00	0.00
3	1	16.00	0.00	0.00
4	1	24.00	0.00	0.00
5	1	32.00	0.00	0.00
6	1	0.00	8.00	0.00
7	1	8.00	8.00	0.00
8	1	16.00	8.00	0.00
9	1	24.00	8.00	0.00
10	1	32.00	8.00	0.00
11	1	0.00	16.00	0.00
12	1	8.00	16.00	0.00
13	1	16.00	16.00	0.00
14	1	24.00	16.00	0.00
15	1	32.00	16.00	0.00
16	1	0.00	24.00	0.00
17	1	8.00	24.00	0.00
18	1	16.00	24.00	0.00
19	1	24.00	24.00	0.00
20	1	32.00	24.00	0.00
21	1	0.00	32.00	0.00
22	1	8.00	32.00	0.00
23	1	16.00	32.00	0.00
24	1	24.00	32.00	0.00
25	1	32.00	32.00	0.00
26	1	0.00	0.00	8.00
27	1	8.00	0.00	8.00
28	1	16.00	0.00	8.00
29	1	24.00	0.00	8.00
30	1	32.00	0.00	8.00
31	1	0.00	8.00	8.00
32	1	8.00	8.00	8.00
33	1	16.00	8.00	8.00
34	1	24.00	8.00	8.00
35	1	32.00	8.00	8.00
36	1	0.00	16.00	8.00
37	1	8.00	16.00	8.00
38	1	16.00	16.00	8.00
39	1	24.00	16.00	8.00
40	1	32.00	16.00	8.00
41	1	0.00	24.00	8.00
42	1	8.00	24.00	8.00
43	1	16.00	24.00	8.00
44	1	24.00	24.00	8.00
45	1	32.00	24.00	8.00
46	1	0.00	32.00	8.00
47	1	8.00	32.00	8.00
48	1	16.00	32.00	8.00
49	1	24.00	32.00	8.00
50	1	32.00	32.00	8.00
51	1	0.00	0.00	16.00
52	1	8.00	0.00	16.00
53	1	16.00	0.00	16.00
54	1	24.00	0.00	16.00
55	1	32.00	0.00	16.00
56	1	0.00	8.00	16.00
57	1	8.00	8.00	16.00
58	1	16.00	8.00	16.00
59	1	24.00	8.00	16.00
60	1	32.00	8.00	16.00
61	1	0.00	16.00	16.00
62	1	8.00	16.00	16.00
63	1	16.00	16.00	16.00
64	1	24.00	16.00	16.00
65	1	32.00	16.00	16.00
66	1	0.00	24.00	16.00
67	1	8.00	24.00	16.00
68	1	16.00	24.00	16.00
69	1	24.00	24.00	16.00
70	1	32.00	24.00	16.00
71	1	0.00	32.00	16.00
72	1	8.00	32.00	16.00
73	1	16.00	32.00	16.00
74	1	24.00	32.00	16.00
75	1	32.00	32.00	16.00
76	1	0.00	0.00	24.00
77	1	8.00	0.00	24.00
78	1	16.00	0.00	24.00
79	1	24.00	0.00	24.00
80	1	32.00	0.00	24.00
81	1	0.00	8.00	24.00
82	1	8.00	8.00	24.00
83	1	16.00	8.00	24.00
84	1	24.00	8.00	24.00
85	1	32.00	8.00	24.00
86	1	0.00	16.00	24.00
87	1	8.00	16.00	24.00
88	1	16.00	16.00	24.00
89	1	24.00	16.00	24.00
90	1	32.00	16.00	24.00
91	1	0.00	24.00	24.00
92	1	8.00	24.00	24.00
93	1	16.00	24.00	24.00
94	1	24.00	24.00	24.00
95	1	32.00	24.00	24.00
96	1	0.00	32.00	24.00
97	1	8.00	32.00	24.00
98	1	16.00	32.00	24.00
99	1	24.00	32.00	24.00
100	1	32.00	32.00	24.00
101	1	0.00	0.00	32.00
102	1	8.00	0.00	32.00
103	1	16.00	0.00	32.00
104	1	24.00	0.00	32.00
105	1	32.00	0.00	32.00
106	1	0.00	8.00	32.00
107	1	8.00	8.00	32.00
108	1	16.00	8.00	32.00
109	1	24.00	8.00	32.00
110	1	32.00	8.00	32.00
111	1	0.00	16.00	32.00
112	1	8.00	16.00	32.00
113	1	16.00	16.00	32.00
114	1	24.00	16.00	32.00
115	1	32.00	16.00	32.00
116	1	0.00	24.00	32.00
117	1	8.00	24.00	32.00
118	1	16.00	24.00	32.00
119	1	24.00	24.00	32.00
120	1	32.00	24.00	32.00
121	1	0.00	32.00	32.00
122	1	8.00	32.00	32.00
123	1	16.00	32.00	32.00
124	1	24.00	32.00	32.00
125	1	32.00	32.00	32.00
126	1	0.00	4.00	4.00
127	1	8.00	4.00	4.00
128	1	16.00	4.00	4.00
129	1	24.00	4.00	4.00
130	1	32.00	4.00	4.00
131	1	0.00	12.00	4.00
132	1	8.00	12.00	4.00
133	1	16.00	12.00	4.00
134	1	24.00	12.00	4.00
135	1	32.00	12.00	4.00
136	1	0.00	20.00	4.00
137	1	8.00	20.00	4.00
138	1	16.00	20.00	4.00
139	1	24.00	20.00	4.00
140	1	32.00	20.00	4.00
141	1	0.00	28.00	4.00
142	1	8.00	28.00	4.00
143	1	16.00	28.00	4.00
144	1	24.00	28.00	4.00
145	1	32.00	28.00	4.00
146	1	0.00	36.00	4.00
147	1	8.00	36.00	4.00
148	1	16.00	36.00	4.00
149	1	24.00	36.00	4.00
150	1	32.00	36.00	4.00
151	1	0.00	4.00	12.00
152	1	8.00	4.00	12.00
153	1	16.00	4.00	12.00
154	1	24.00	4.00	12.00
155	1	32.00	4.00	12.00
156	1	0.00	12.00	12.00
157	1	8.00	12.00	12.00
158	1	16.00	12.00	12.00
159	1	24.00	12.00	12.00
160	1	32.00	12.00	12.00
161	1	0.00	20.00	12.00
162	1	8.00	20.00	12.00
163	1	16.00	20.00	12.00
164	1	24.00	20.00	12.00
165	1	32.00	20.00	12.00
166	1	0.00	28.00	12.00
167	1	8.00	28.00	12.00
168	1	16.00	28.00	12.00
169	1	24.00	28.00	12.00
170	1	32.00	28.00	12.00
171	1	0.00	36.00	12.00
172	1	8.00	36.00	12.00
173	1	16.00	36.00	12.00
174	1	24.00	36.00	12.00
175	1	32.00	36.00	12.00
176	1	0.00	4.00	20.00
177	1	8.00	4.00	20.00
178	1	16.00	4.00	20.00
179	1	24.00	4.00	20.00
180	1	32.00	4.00	20.00
181	1	0.00	12.00	20.00
182	1	8.00	12.00	20.00
183	1	16.00	12.00	20.00
184	1	24.00	12.00	20.00
185	1	32.00	12.00	20.00
186	1	0.00	20.00	20.00
187	1	8.00	20.00	20.00
188	1	16.00	20.00	20.00
189	1	24.00	20.00	20.00
190	1	32.00	20.00	20.00
191	1	0.00	28.00	20.00
192	1	8.00	28.00	20.00
193	1	16.00	28.00	20.00
194	1	24.00	28.00	20.00
195	1	32.00	28.00	20.00
196	1	0.00	36.00	20.00
197	1	8.00	36.00	20.00
198	1	16.00	36.00	20.00
199	1	24.00	36.00	20.00
200	1	32.00	36.00	20.00
201	1	0.00	4.00	28.00
202	1	8.00	4.00	28.00
203	1	16.00	4.00	28.00
204	1	24.00	4.00	28.00
205	1	32.00	4.00	28.00
206	1	0.00	12.00	28.00
207	1	8.00	12.00	28.00
208	1	16.00	12.00	28.00
209	1	24.00	12.00	28.00
210	1	32.00	12.00	28.00
211	1	0.00	20.00	28.00
212	1	8.00	20.00	28.00
213	1	16.00	20.00	28.00
214	1	24.00	20.00	28.00
215	1	32.00	20.00	28.00
216	1	0.00	28.00	28.00
217	1	8.00	28.00	28.00
218	1	16.00	28.00	28.00
219	1	24.00	28.00	28.00
220	1	32.00	28.00	28.00
221	1	0.00	36.00	28.00
222	1	8.00	36.00	28.00
223	1	16.00	36.00	28.00
224	1	24.00	36.00	28.00
225	1	32.00	36.00	28.00
226	1	0.00	4.00	36.00
227	1	8.00	4.00	36.00
228	1	16.00	4.00	36.00
229	1	24.00	4.00	36.00
230	1	32.00	4.00	36.00
231	1	0.00	12.00	36.00
232	1	8.00	12.00	36.00
233	1	16.00	12.00	36.00
234	1	24.00	12.00	36.00
235	1	32.00	12.00	36.00
236	1	0.00	20.00	36.00
237	1	8.00	20.00	36.00
238	1	16.00	20.00	36.00
239	1	24.00	20.00	36.00
240	1	32.00	20.00	36.00
241	1	0.00	28.00	36.00
242	1	8.00	28.00	36.00
243	1	16.00	28.00	36.00
244	1	24.00	28.00	36.00
245	1	32.00	28.00	36.00
246	1	0.00	36.00	36.00
247	1	8.00	36.00	36.00
248	1	16.00	36.00	36.00
249	1	24.00	36.00	36.00
250	1	32.00	36.00	36.00
251	1	4.00	0.00	4.00
252	1	12.00	0.00	4.00
253	1	20.00	0.00	4.00
254	1	28.00	0.00	4.00
255	1	36.00	0.00	4.00
256	1	4.00	8.00	4.00
257	1	12.00	8.00	4.00
258	1	20.00	8.00	4.00
259	1	28.00	8.00	4.00
260	1	36.00	8.00	4.00
261	1	4.00	16.00	4.00
262	1	12.00	16.00	4.00
263	1	20.00	16.00	4.00
264	1	28.00	16.00	4.00
265	1	36.00	16.00	4.00
266	1	4.00	24.00	4.00
267	1	12.00	24.00	4.00
268	1	20.00	24.00	4.00
269	1	28.00	24.00	4.00
270	1	36.00	24.00	4.00
271	1	4.00	32.00	4.00
272	1	12.00	32.00	4.00
273	1	20.00	32.00	4.00
274	1	28.00	32.00	4.00
275	1	36.00	32.00	4.00
276	1	4.00	0.00	12.00
277	1	12.00	0.00	12.00
278	1	20.00	0.00	12.00
279	1	28.00	0.00	12.00
280	1	36.00	0.00	12.00
281	1	4.00	8.00	12.00
282	1	12.00	8.00	12.00
283	1	20.00	8.00	12.00
284	1	28.00	8.00	12.00
285	1	36.00	8.00	12.00
286	1	4.00	16.00	12.00
287	1	12.00	16.00	12.00
288	1	20.00	16.00	12.00
289	1	28.00	16.00	12.00
290	1	36.00	16.00	12.00
291	1	4.00	24.00	12.00
292	1	12.00	24.00	12.00
293	1	20.00	24.00	12.00
294	1	28.00	24.00	12.00
295	1	36.00	24.00	12.00
296	1	4.00	32.00	12.00
297	1	12.00	32.00	12.00
298	1	20.00	32.00	12.00
299	1	28.00	32.00	12.00
300	1	36.00	32.00	12.00
301	1	4.00	0.00	20.00
302	1	12.00	0.00	20.00
303	1	20.00	0.00	20.00
304	1	28.00	0.00	20.00
305	1	36.00	0.00	20.00
306	1	4.00	8.00	20.00
307	1	12.00	8.00	20.00
308	1	20.00	8.00	20.00
309	1	28.00	8.00	20.00
310	1	36.00	8.00	20.00
311	1	4.00	16.00	20.00
312	1	12.00	16.00	20.00
313	1	20.00	16.00	20.00
314	1	28.00	16.00	20.00
315	1	36.00	16.00	20.00
316	1	4.00	24.00	20.00
317	1	12.00	24.00	20.00
318	1	20.00	24.00	20.00
319	1	28.00	24.00	20.00
320	1	36.00	24.00	20.00
321	1	4.00	32.00	20.00
322	1	12.00	32.00	20.00
323	1	20.00	32.00	20.00
324	1	28.00	32.00	20.00
325	1	36.00	32.00	20.00
326	1	4.00	0.00	28.00
327	1	12.00	0.00	28.00
328	1	20.00	0.00	28.00
329	1	28.00	0.00	28.00
330	1	36.00	0.00	28.00
331	1	4.00	8.00	28.00
332	1	12.00	8.00	28.00
333	1	20.00	8.00	28.00
334	1	28.00	8.00	28.00
335	1	36.00	8.00	28.00
336	1	4.00	16.00	28.00
337	1	12.00	16.00	28.00
338	1	20.00	16.00	28.00
339	1	28.00	16.00	28.00
340	1	36.00	16.00	28.00
341	1	4.00	24.00	28.00
342	1	12.00	24.00	28.00
343	1	20.00	24.00	28.00
344	1	28.00	24.00	28.00
345	1	36.00	24.00	28.00
346	1	4.00	32.00	28.00
347	1	12.00	32.00	28.00
348	1	20.00	32.00	28.00
349	1	28.00	32.00	28.00
350	1	36.00	32.00	28.00
351	1	4.00	0.00	36.00
352	1	12.00	0.00	36.00
353	1	20.00	0.00	36.00
354	1	28.00	0.00	36.00
355	1	36.00	0.00	36.00
356	1	4.00	8.00	36.00
357	1	12.00	8.00	36.00
358	1	20.00	8.00	36.00
359	1	28.00	8.00	36.00
360	1	36.00	8.00	36.00
361	1	4.00	16.00	36.00
362	1	12.00	16.00	36.00
363	1	20.00	16.00	36.00
364	1	28.00	16.00	36.00
365	1	36.00	16.00	36.00
366	1	4.00	24.00	36.00
367	1	12.00	24.00	36.00
368	1	20.00	24.00	36.00
369	1	28.00	24.00	36.00
370	1	36.00	24.00	36.00
371	1	4.00	32.00	36.00
372	1	12.00	32.00	36.00
373	1	20.00	32.00	36.00
374	1	28.00	32.00	36.00
375	1	36.00	32.00	36.00
376	1	4.00	4.00	0.00
377	1	12.00	4.00	0.00
378	1	20.00	4.00	0.00
379	1	28.00	4.00	0.00
380	1	36.00	4.00	0.00
381	1	4.00	12.00	0.00
382	1	12.00	12.00	0.00
383	1	20.00	12.00	0.00
384	1	28.00	12.00	0.00
385	1	36.00	12.00	0.00
386	1	4.00	20.00	0.00
387	1	12.00	20.00	0.00
388	1	20.00	20.00	0.00
389	1	28.00	20.00	0.00
390	1	36.00	20.00	0.00
391	1	4.00	28.00	0.00
392	1	12.00	28.00	0.00
393	1	20.00	28.00	0.00
394	1	28.00	28.00	0.00
395	1	36.00	28.00	0.00
396	1	4.00	36.00	0.00
397	1	12.00	36.00	0.00
398	1	20.00	36.00	0.00
399	1	28.00	36.00	0.00
400	1	36.00	36.00	0.00
401	1	4.00	4.00	8.00
402	1	12.00	4.00	8.00
403	1	20.00	4.00	8.00
404	1	28.00	4.00	8.00
405	1	36.00	4.00	8.00
406	1	4.00	12.00	8.00
407	1	12.00	12.00	8.00
408	1	20.00	12.00	8.00
409	1	28.00	12.00	8.00
410	1	36.00	12.00	8.00
411	1	4.00	20.00	8.00
412	1	12.00	20.00	8.00
413	1	20.00	20.00	8.00
414	1	28.00	20.00	8.00
415	1	36.00	20.00	8.00
416	1	4.00	28.00	8.00
417	1	12.00	28.00	8.00
418	1	20.00	28.00	8.00
419	1	28.00	28.00	8.00
420	1	36.00	28.00	8.00
421	1	4.00	36.00	8.00
422	1	12.00	36.00	8.00
423	1	20.00	36.00	8.00
424	1	28.00	36.00	8.00
425	1	36.00	36.00	8.00
426	1	4.00	4.00	16.00
427	1	12.00	4.00	16.00
428	1	20.00	4.00	16.00
429	1	28.00	4.00	16.00
430	1	36.00	4.00	16.00
431	1	4.00	12.00	16.00
432	1	12.00	12.00	16.00
433	1	20.00	12.00	16.00
434	1	28.00	12.00	16.00
435	1	36.00	12.00	16.00
436	1	4.00	20.00	16.00
437	1	12.00	20.00	16.00
438	1	20.00	20.00	16.00
439	1	28.00	20.00	16.00
440	1	36.00	20.00	16.00
441	1	4.00	28.00	16.00
442	1	12.00	28.00	16.00
443	1	20.00	28.00	16.00
444	1	28.00	28.00	16.00
445	1	36.00	28.00	16.00
446	1	4.00	36.00	16.00
447	1	12.00	36.00	16.00
448	1	20.00	36.00	16.00
449	1	28.00	36.00	16.00
450	1	36.00	36.00	16.00
451	1	4.00	4.00	24.00
452	1	12.00	4.00	24.00
453	1	20.00	4.00	24.00
454	1	28.00	4.00	24.00
455	1	36.00	4.00	24.00
456	1	4.00	12.00	24.00
457	1	12.00	12.00	24.00
458	1	20.00	12.00	24.00
459	1	28.00	12.00	24.00
460	1	36.00	12.00	24.00
461	1	4.00	20.00	24.00
462	1	12.00	20.00	24.00
463	1	20.00	20.00	24.00
464	1	28.00	20.00	24.00
465	1	36.00	20.00	24.00
466	1	4.00	28.00	24.00
467	1	12.00	28.00	24.00
468	1	20.00	28.00	24.00
469	1	28.00	28.00	24.00
470	1	36.00	28.00	24.00
471	1	4.00	36.00	24.00
472	1	12.00	36.00	24.00
473	1	20.00	36.00	24.00
474	1	28.00	36.00	24.00
475	1	36.00	36.00	24.00
476	1	4.00	4.00	32.00
477	1	12.00	4.00	32.00
478	1	20.00	4.00	32.00
479	1	28.00	4.00	32.00
480	1	36.00	4.00	32.00
481	1	4.00	12.00	32.00
482	1	12.00	12.00	32.00
483	1	20.00	12.00	32.00
484	1	28.00	12.00	32.00
485	1	36.00	12.00	32.00
486	1	4.00	20.00	32.00
487	1	12.00	20.00	32.00
488	1	20.00	20.00	32.00
489	1	28.00	20.00	32.00
490	1	36.00	20.00	32.00
491	1	4.00	28.00	32.00
492	1	12.00	28.00	32.00
493	1	20.00	28.00	32.00
494	1	28.00	28.00	32.00
495	1	36.00	28.00	32.00
496	1	4.00	36.00	32.00
497	1	12.00	36.00	32.00
498	1	20.00	36.00	32.00
499	1	28.00	36.00	32.00
500	1	36.00	36.00	32.00
