LAMMPS (22 Aug 2018)
OMP_NUM_THREADS environment is not set. Defaulting to 1 thread. (src/comm.cpp:87)
  using 1 OpenMP thread(s) per MPI task
Reading data file ...
  orthogonal box = (-0 -0 -0) to (100 100 100)
  1 by 1 by 1 MPI processor grid
  reading atoms ...
  561 atoms
WARNING: The pair_style meam command is unsupported. Please use pair_style meam/c instead (src/MEAM/pair_meam.cpp:51)
Reading potential file library.meam with DATE: 2012-06-29
Neighbor list info ...
  update every 1 steps, delay 10 steps, check yes
  max neighbors/atom: 2000, page size: 100000
  master list distance cutoff = 6
  ghost atom cutoff = 6
  binsize = 3, bins = 34 34 34
  2 neighbor lists, perpetual/occasional/extra = 2 0 0
  (1) pair meam, perpetual
      attributes: full, newton on
      pair build: full/bin/atomonly
      stencil: full/bin/3d
      bin: standard
  (2) pair meam, perpetual, half/full from (1)
      attributes: half, newton on
      pair build: halffull/newton
      stencil: none
      bin: none
Setting up Verlet run ...
  Unit style    : metal
  Current step  : 0
  Time step     : 0.001
Per MPI rank memory allocation (min/avg/max) = 9.723 | 9.723 | 9.723 Mbytes
Step Temp PotEng KinEng TotEng 
       0          600    -1726.413    43.431409   -1682.9816 
     200    1182.8794   -1768.6099    85.623529   -1682.9864 
     400    1142.1505   -1765.6628    82.675341   -1682.9875 
     600     674.7451   -1731.8233    48.841884   -1682.9814 
     800    1013.4841   -1756.3465    73.361739   -1682.9847 
    1000    978.67359   -1753.8256    70.841955   -1682.9836 
    1200    754.42931   -1737.5907    54.609879   -1682.9808 
    1400    963.24149   -1752.7077    69.724891   -1682.9828 
    1600    959.30215   -1752.4178     69.43974   -1682.9781 
    1800    816.79203   -1742.1046    59.124048   -1682.9805 
    2000    908.89449   -1748.7723    65.790947   -1682.9813 
    2200     910.5696   -1748.8963    65.912201   -1682.9841 
    2400    827.35231   -1742.8753    59.888461   -1682.9868 
    2600    895.33516   -1747.7952    64.809446   -1682.9858 
    2800     914.7708   -1749.2029    66.216308   -1682.9866 
    3000    852.42351   -1744.6877    61.703256   -1682.9845 
    3200    925.28344   -1749.9631    66.977272   -1682.9859 
    3400    885.40875   -1747.0743    64.090916   -1682.9834 
    3600    833.81132   -1743.3392    60.356001   -1682.9832 
    3800     900.3087   -1748.1527    65.169459   -1682.9833 
    4000    859.85688   -1745.2247    62.241326   -1682.9834 
    4200    881.49832   -1746.7918    63.807856   -1682.9839 
    4400    886.26435   -1747.1407    64.152849   -1682.9879 
    4600    864.51984   -1745.5672    62.578858   -1682.9884 
    4800    893.60506   -1747.6726    64.684211   -1682.9884 
    5000    866.08879   -1745.6767    62.692427   -1682.9843 
    5200    850.67471   -1744.5577    61.576668    -1682.981 
    5400    849.07666   -1744.4452    61.460992   -1682.9842 
    5600    830.91464   -1743.1248    60.146322   -1682.9785 
    5800    844.51206   -1744.1085    61.130581    -1682.978 
    6000     872.3621   -1746.1243    63.146525   -1682.9778 
    6200      863.892   -1745.5094    62.533411    -1682.976 
    6400    845.21288   -1744.1565     61.18131   -1682.9752 
    6600    875.63603    -1746.357     63.38351   -1682.9735 
    6800     850.1301   -1744.5166    61.537247   -1682.9794 
    7000    883.67689   -1746.9443    63.965554   -1682.9787 
    7200    855.03643   -1744.8716    61.892395   -1682.9792 
    7400    862.39736   -1745.4049     62.42522   -1682.9797 
    7600    837.28093   -1743.5859    60.607151   -1682.9787 
    7800    842.92319   -1743.9958    61.015569   -1682.9802 
    8000    870.68911   -1746.0041    63.025424   -1682.9787 
    8200    909.89766   -1748.8395    65.863562   -1682.9759 
    8400    852.51168   -1744.6832    61.709639   -1682.9736 
    8600    852.02451    -1744.651    61.674375   -1682.9766 
    8800    840.70173   -1743.8321    60.854767   -1682.9773 
    9000    864.43568   -1745.5515    62.572766   -1682.9787 
    9200    844.74153   -1744.1297    61.147191   -1682.9825 
    9400    869.41353   -1745.9176     62.93309   -1682.9845 
    9600    894.03071    -1747.695    64.715022     -1682.98 
    9800    821.51181   -1742.4421    59.465692   -1682.9764 
   10000    858.77204   -1745.1402    62.162799   -1682.9774 
Loop time of 58.165 on 1 procs for 10000 steps with 561 atoms

Performance: 14.854 ns/day, 1.616 hours/ns, 171.925 timesteps/s
99.7% CPU use with 1 MPI tasks x 1 OpenMP threads

MPI task timing breakdown:
Section |  min time  |  avg time  |  max time  |%varavg| %total
---------------------------------------------------------------
Pair    | 57.783     | 57.783     | 57.783     |   0.0 | 99.34
Neigh   | 0.138      | 0.138      | 0.138      |   0.0 |  0.24
Comm    | 0.0034657  | 0.0034657  | 0.0034657  |   0.0 |  0.01
Output  | 0.074608   | 0.074608   | 0.074608   |   0.0 |  0.13
Modify  | 0.13856    | 0.13856    | 0.13856    |   0.0 |  0.24
Other   |            | 0.02749    |            |       |  0.05

Nlocal:    561 ave 561 max 561 min
Histogram: 1 0 0 0 0 0 0 0 0 0
Nghost:    0 ave 0 max 0 min
Histogram: 1 0 0 0 0 0 0 0 0 0
Neighs:    14681 ave 14681 max 14681 min
Histogram: 1 0 0 0 0 0 0 0 0 0
FullNghs:  29362 ave 29362 max 29362 min
Histogram: 1 0 0 0 0 0 0 0 0 0

Total # of neighbors = 29362
Ave neighs/atom = 52.3387
Neighbor list builds = 90
Dangerous builds = 0
All done!
Total wall time: 0:00:58
