LAMMPS (22 Jul 2025 - Update 3)
Reading data file ...
  orthogonal box = (0 0 0) to (40 40 40)
  1 by 1 by 1 MPI processor grid
  reading atoms ...
  500 atoms
  read_data CPU = 0.001 seconds
Generated 0 of 0 mixed pair_coeff terms from geometric mixing rule
Neighbor list info ...
  update: every = 1 steps, delay = 0 steps, check = yes
  max neighbors/atom: 2000, page size: 100000
  master list distance cutoff = 7.9059763
  ghost atom cutoff = 7.9059763
  binsize = 3.9529882, bins = 11 11 11
  1 neighbor lists, perpetual/occasional/extra = 1 0 0
  (1) pair lj/cubic, perpetual
      attributes: half, newton on
      pair build: half/bin/atomonly/newton
      stencil: half/bin/3d
      bin: standard
Setting up Verlet run ...
  Unit style    : metal
  Current step  : 0
  Time step     : 0.0001
Per MPI rank memory allocation (min/avg/max) = 3.08 | 3.08 | 3.08 Mbytes
   Step          Temp          E_pair         E_mol          TotEng         Press     
         0   400           -0.77447784     0              25.025847      144.74418    
       200   401.09484     -0.84509607     0              25.025847      150.90344    
       400   404.24002     -1.0479626      0              25.025847      161.3814     
       600   408.79803     -1.3419579      0              25.025847      165.91837    
       800   414.26399     -1.6945168      0              25.025847      167.19938    
      1000   420.36297     -2.087906       0              25.025847      168.53994    
      1200   426.91056     -2.5102313      0              25.025847      171.0905     
      1400   433.74414     -2.9510024      0              25.025847      175.83498    
      1600   440.62712     -3.3949603      0              25.025847      184.13322    
      1800   446.99919     -3.805964       0              25.025847      199.58935    
      2000   451.66336     -4.1068074      0              25.025846      230.30232    
      2200   452.84683     -4.1831421      0              25.025846      287.46312    
      2400   448.7132      -3.9165201      0              25.025846      381.44454    
      2600   438.83294     -3.2792349      0              25.025846      511.77989    
      2800   430.56284     -2.7458058      0              25.025847      629.75821    
      3000   430.31947     -2.7301096      0              25.025846      693.45788    
      3200   432.48476     -2.8697725      0              25.025846      735.26733    
      3400   433.38547     -2.9278687      0              25.025846      778.35252    
      3600   434.01402     -2.9684109      0              25.025846      817.79683    
      3800   433.36297     -2.9264177      0              25.025846      859.53268    
      4000   431.46817     -2.8042016      0              25.025846      901.78223    
      4200   431.72886     -2.8210157      0              25.025846      922.78515    
      4400   436.81729     -3.149224       0              25.025846      906.17507    
      4600   444.8379      -3.6665601      0              25.025846      864.82158    
      4800   452.53056     -4.1627431      0              25.025846      820.59919    
      5000   457.67511     -4.4945704      0              25.025846      788.93414    
      5200   459.36425     -4.6035218      0              25.025846      777.26075    
      5400   458.05949     -4.5193629      0              25.025846      783.44284    
      5600   458.21243     -4.5292277      0              25.025846      780.74868    
      5800   461.42345     -4.7363416      0              25.025846      759.90252    
      6000   463.61355     -4.8776045      0              25.025846      743.43493    
      6200   466.4807      -5.0625382      0              25.025846      722.37405    
      6400   469.74506     -5.2730917      0              25.025846      698.36815    
      6600   473.54817     -5.5183958      0              25.025846      671.74345    
      6800   475.71005     -5.6578385      0              25.025846      656.49253    
      7000   474.7031      -5.5928894      0              25.025846      662.96282    
      7200   470.54018     -5.3243781      0              25.025846      690.89286    
      7400   464.72897     -4.9495496      0              25.025846      729.86445    
      7600   460.93758     -4.7050021      0              25.025846      755.95755    
      7800   460.18922     -4.656732       0              25.025846      761.32056    
      8000   461.35805     -4.7321229      0              25.025846      752.83308    
      8200   463.5335      -4.872441       0              25.025846      737.73558    
      8400   465.52196     -5.0006982      0              25.025846      723.52785    
      8600   467.38014     -5.1205528      0              25.025846      710.65389    
      8800   469.00304     -5.2252311      0              25.025846      699.13868    
      9000   470.18255     -5.3013101      0              25.025846      690.50152    
      9200   470.68685     -5.3338382      0              25.025846      686.7468     
      9400   469.95464     -5.2866097      0              25.025846      691.18504    
      9600   468.96806     -5.2229741      0              25.025846      697.08309    
      9800   469.53272     -5.2593957      0              25.025846      693.83451    
     10000   469.89479     -5.2827494      0              25.025846      691.42537    
     10200   470.64704     -5.3312706      0              25.025846      687.7513     
     10400   470.98922     -5.3533416      0              25.025846      688.2383     
     10600   468.44161     -5.1890183      0              25.025846      706.83794    
     10800   465.97515     -5.0299296      0              25.025846      725.30669    
     11000   465.72835     -5.0140109      0              25.025846      729.97279    
     11200   466.95713     -5.0932681      0              25.025846      725.17976    
     11400   469.13368     -5.2336575      0              25.025846      714.34032    
     11600   469.69848     -5.2700877      0              25.025846      712.89831    
     11800   467.95204     -5.1574404      0              25.025846      726.01085    
     12000   467.51747     -5.1294103      0              25.025846      732.33873    
     12200   468.42437     -5.1879068      0              25.025846      731.21155    
     12400   465.91389     -5.0259787      0              25.025846      750.5283     
     12600   462.1336      -4.7821463      0              25.025846      776.49984    
     12800   461.60143     -4.7478213      0              25.025846      781.43536    
     13000   463.18593     -4.8500222      0              25.025846      770.24964    
     13200   466.23924     -5.0469636      0              25.025846      747.87568    
     13400   468.92646     -5.2202915      0              25.025846      726.42729    
     13600   469.54957     -5.2604824      0              25.025846      717.16264    
     13800   468.91416     -5.2194984      0              25.025846      715.74189    
     14000   467.7095      -5.1417963      0              25.025846      718.01736    
     14200   467.20019     -5.1089457      0              25.025846      716.49741    
     14400   468.34005     -5.1824674      0              25.025846      704.96789    
     14600   468.84792     -5.215226       0              25.025846      697.49325    
     14800   467.93534     -5.1563635      0              25.025846      699.34639    
     15000   467.28765     -5.1145864      0              25.025846      701.10427    
     15200   468.72149     -5.2070708      0              25.025846      691.07834    
     15400   471.83424     -5.407846       0              25.025846      672.07932    
     15600   472.73578     -5.4659959      0              25.025846      667.75971    
     15800   469.42521     -5.2524612      0              25.025846      690.01388    
     16000   465.61307     -5.006575       0              25.025846      715.97272    
     16200   464.48827     -4.9340249      0              25.025846      725.76724    
     16400   462.98119     -4.8368171      0              25.025846      737.20933    
     16600   462.50524     -4.8061175      0              25.025846      741.82343    
     16800   465.13713     -4.9758767      0              25.025846      727.88287    
     17000   467.56219     -5.132295       0              25.025846      715.8915     
     17200   467.69619     -5.1409381      0              25.025846      719.01177    
     17400   465.20295     -4.9801222      0              25.025846      737.77787    
     17600   462.84629     -4.8281155      0              25.025847      754.85817    
     17800   464.1093      -4.9095808      0              25.025846      749.19149    
     18000   467.58831     -5.1339795      0              25.025846      728.85712    
     18200   470.21941     -5.3036883      0              25.025846      713.61285    
     18400   468.43226     -5.1884155      0              25.025846      725.79998    
     18600   464.58525     -4.9402798      0              25.025847      750.39785    
     18800   466.51749     -5.0649105      0              25.025846      739.93387    
     19000   472.12424     -5.4265514      0              25.025846      707.1547     
     19200   474.44122     -5.5759985      0              25.025846      694.49997    
     19400   474.04368     -5.5503561      0              25.025846      699.02107    
     19600   472.5647      -5.4549606      0              25.025846      710.54733    
     19800   470.646       -5.331203       0              25.025846      725.00715    
     20000   469.71926     -5.2714272      0              25.025846      733.35573    
     20200   470.9018      -5.3477025      0              25.025846      729.03685    
     20400   472.14849     -5.4281155      0              25.025846      723.958      
     20600   472.42135     -5.4457149      0              25.025846      725.31339    
     20800   470.82852     -5.3429762      0              25.025846      737.98134    
     21000   469.38991     -5.2501841      0              25.025847      748.47965    
     21200   472.56104     -5.4547249      0              25.025846      729.94645    
     21400   477.34535     -5.7633168      0              25.025846      700.72671    
     21600   481.44231     -6.027574       0              25.025846      676.06611    
     21800   483.35399     -6.1508791      0              25.025846      666.57751    
     22000   482.1083      -6.0705313      0              25.025846      679.1513     
     22200   475.64356     -5.6535501      0              25.025846      724.87789    
     22400   468.02038     -5.1618484      0              25.025846      777.60243    
     22600   464.54257     -4.937527       0              25.025846      804.06905    
     22800   464.37715     -4.9268575      0              25.025846      808.2479     
     23000   466.35963     -5.054729       0              25.025846      797.92299    
     23200   467.65783     -5.1384637      0              25.025846      789.62652    
     23400   469.0582      -5.2287893      0              25.025846      779.29133    
     23600   469.38746     -5.2500263      0              25.025846      774.24859    
     23800   469.10569     -5.231852       0              25.025846      772.08992    
     24000   470.53664     -5.3241496      0              25.025846      758.30602    
     24200   472.93192     -5.4786469      0              25.025846      737.88079    
     24400   474.59282     -5.5857763      0              25.025846      720.97908    
     24600   477.42046     -5.7681612      0              25.025846      696.65747    
     24800   479.81929     -5.922888       0              25.025846      675.96395    
     25000   478.76958     -5.8551805      0              25.025846      677.73892    
     25200   476.57481     -5.7136163      0              25.025846      688.27596    
     25400   474.60006     -5.5862431      0              25.025846      698.44262    
     25600   472.19105     -5.4308603      0              25.025846      710.80285    
     25800   469.16243     -5.2355113      0              25.025846      725.35541    
     26000   468.52238     -5.1942277      0              25.025846      723.9298     
     26200   469.86715     -5.2809669      0              25.025846      709.52454    
     26400   469.85267     -5.2800329      0              25.025846      703.5451     
     26600   468.77433     -5.2104792      0              25.025846      705.14422    
     26800   468.09504     -5.1666639      0              25.025846      704.80808    
     27000   469.74419     -5.2730358      0              25.025846      690.23946    
     27200   470.47637     -5.3202619      0              25.025846      681.18073    
     27400   470.7365      -5.3370406      0              25.025846      676.09356    
     27600   471.07534     -5.358896       0              25.025846      671.71623    
     27800   470.05001     -5.2927621      0              25.025846      676.71097    
     28000   465.42546     -4.9944739      0              25.025846      703.40669    
     28200   462.39241     -4.7988398      0              25.025846      721.1654     
     28400   461.58327     -4.7466495      0              25.025846      725.24764    
     28600   462.11625     -4.7810273      0              25.025846      720.1319     
     28800   464.2354      -4.9177143      0              25.025846      704.91714    
     29000   466.68956     -5.0760096      0              25.025846      687.27237    
     29200   468.6753      -5.2040916      0              25.025846      673.27536    
     29400   469.78646     -5.2757626      0              25.025846      665.14301    
     29600   469.31497     -5.2453504      0              25.025846      666.65214    
     29800   468.95691     -5.2222555      0              25.025846      667.0225     
     30000   470.94486     -5.35048        0              25.025846      652.50102    
     30200   473.91018     -5.5417457      0              25.025846      631.71158    
     30400   475.66205     -5.6547423      0              25.025846      619.09792    
     30600   476.33876     -5.698391       0              25.025846      614.1196     
     30800   475.88812     -5.6693238      0              25.025846      616.52157    
     31000   474.6276      -5.5880191      0              25.025846      623.7418     
     31200   474.02732     -5.5493011      0              25.025846      627.0479     
     31400   474.4281      -5.5751514      0              25.025846      625.29287    
     31600   474.3863      -5.5724555      0              25.025846      626.99806    
     31800   473.29949     -5.5023555      0              25.025846      636.62855    
     32000   470.30787     -5.3093939      0              25.025846      659.08631    
     32200   465.82393     -5.0201757      0              25.025847      689.38094    
     32400   464.24981     -4.9186433      0              25.025847      700.58648    
     32600   467.32941     -5.1172808      0              25.025846      682.34315    
     32800   469.35387     -5.2478602      0              25.025846      669.59519    
     33000   467.73999     -5.1437634      0              25.025846      679.14567    
     33200   465.23005     -4.9818696      0              25.025846      694.64486    
     33400   464.57855     -4.9398482      0              25.025846      700.55376    
     33600   461.66771     -4.7520964      0              25.025846      719.70288    
     33800   458.18812     -4.5276598      0              25.025846      741.33596    
     34000   455.91424     -4.3809924      0              25.025846      754.36692    
     34200   456.55748     -4.4224817      0              25.025846      748.47315    
     34400   460.89128     -4.7020162      0              25.025846      720.1431     
     34600   464.414       -4.9292347      0              25.025846      697.10435    
     34800   465.10958     -4.9740997      0              25.025846      692.52501    
     35000   463.32684     -4.8591112      0              25.025846      703.69662    
     35200   462.6998      -4.8186664      0              25.025847      707.71809    
     35400   465.93891     -5.0275921      0              25.025846      688.36013    
     35600   468.5725      -5.1974608      0              25.025846      673.52234    
     35800   467.72037     -5.1424975      0              25.025846      680.41371    
     36000   465.22801     -4.9817378      0              25.025846      697.04126    
     36200   464.47615     -4.9332422      0              25.025847      702.32993    
     36400   466.36559     -5.0551133      0              25.025846      690.26365    
     36600   468.59449     -5.1988793      0              25.025846      674.56357    
     36800   469.35642     -5.2480245      0              25.025846      666.7635     
     37000   469.37683     -5.2493404      0              25.025847      663.24437    
     37200   471.71465     -5.4001315      0              25.025846      646.26236    
     37400   474.85814     -5.6028897      0              25.025846      625.77023    
     37600   475.97203     -5.6747368      0              25.025846      619.13238    
     37800   473.97667     -5.5460342      0              25.025846      633.17464    
     38000   469.96924     -5.2875515      0              25.025846      660.99573    
     38200   467.96499     -5.1582754      0              25.025847      676.95899    
     38400   471.15127     -5.3637931      0              25.025846      661.40781    
     38600   474.92652     -5.6073006      0              25.025846      642.526      
     38800   476.13122     -5.6850043      0              25.025846      639.89522    
     39000   475.51151     -5.6450327      0              25.025846      649.8261     
     39200   473.48389     -5.5142495      0              25.025846      669.45718    
     39400   471.7466      -5.4021922      0              25.025847      687.47987    
     39600   471.95903     -5.4158947      0              25.025846      693.06789    
     39800   473.33343     -5.5045443      0              25.025846      690.17896    
     40000   474.10371     -5.5542282      0              25.025846      690.7272     
     40200   473.04915     -5.4862079      0              25.025846      701.98587    
     40400   471.76536     -5.4034031      0              25.025846      714.11926    
     40600   469.01633     -5.2260881      0              25.025846      734.27884    
     40800   467.75087     -5.1444654      0              25.025846      745.25642    
     41000   465.12264     -4.9749422      0              25.025846      762.76215    
     41200   464.07544     -4.9073967      0              25.025846      769.0323     
     41400   465.30942     -4.9869896      0              25.025846      759.58548    
     41600   468.41552     -5.1873352      0              25.025846      737.53772    
     41800   472.9845      -5.4820386      0              25.025846      707.08954    
     42000   477.55362     -5.7767509      0              25.025846      677.88962    
     42200   477.15262     -5.7508856      0              25.025846      679.93805    
     42400   474.37166     -5.5715111      0              25.025846      698.18622    
     42600   472.90307     -5.4767857      0              25.025846      709.46445    
     42800   472.26495     -5.435627       0              25.025846      716.6501     
     43000   471.62084     -5.3940817      0              25.025846      723.96164    
     43200   470.53083     -5.323774       0              25.025847      733.49771    
     43400   473.10339     -5.4897077      0              25.025845      721.74566    
     43600   471.76424     -5.4033308      0              25.025846      733.36115    
     43800   468.1801      -5.1721504      0              25.025846      758.4024     
     44000   467.26404     -5.1130637      0              25.025847      766.48791    
     44200   470.38816     -5.3145723      0              25.025846      748.96751    
     44400   472.74212     -5.4664049      0              25.025846      735.43738    
     44600   471.72434     -5.4007576      0              25.025846      742.56551    
     44800   467.92563     -5.1557376      0              25.025846      767.19789    
     45000   463.06503     -4.8422243      0              25.025846      797.96417    
     45200   462.19993     -4.7864247      0              25.025846      803.37458    
     45400   466.21309     -5.045277       0              25.025846      777.72263    
     45600   470.48287     -5.3206815      0              25.025846      749.70484    
     45800   471.62134     -5.3941136      0              25.025846      740.10206    
     46000   471.10366     -5.3607226      0              25.025846      741.12628    
     46200   471.02066     -5.355369       0              25.025846      740.72964    
     46400   470.15472     -5.2995154      0              25.025846      746.62517    
     46600   467.05193     -5.0993831      0              25.025846      766.94537    
     46800   463.139       -4.8469953      0              25.025846      792.12286    
     47000   460.67044     -4.6877716      0              25.025846      806.65901    
     47200   461.32645     -4.7300844      0              25.025846      799.41136    
     47400   466.2043      -5.0447099      0              25.025846      763.59959    
     47600   472.15742     -5.4286911      0              25.025846      719.78962    
     47800   475.41385     -5.6387337      0              25.025846      692.47222    
     48000   475.00873     -5.6126035      0              25.025846      688.51637    
     48200   474.13164     -5.5560294      0              25.025846      689.03985    
     48400   476.23729     -5.6918471      0              25.025845      674.70298    
     48600   473.85166     -5.5379712      0              25.025846      688.78789    
     48800   470.62392     -5.3297795      0              25.025846      709.73109    
     49000   466.9673      -5.0939241      0              25.025846      733.22629    
     49200   464.04276     -4.905289       0              25.025846      751.54646    
     49400   462.18512     -4.7854698      0              25.025846      762.56473    
     49600   462.37391     -4.7976461      0              25.025847      760.19961    
     49800   466.80798     -5.0836476      0              25.025846      731.06066    
     50000   472.20317     -5.4316424      0              25.025846      694.94196    
     50200   474.80764     -5.5996323      0              25.025846      675.46834    
     50400   475.10647     -5.6189073      0              25.025846      670.37401    
     50600   475.98448     -5.675539       0              25.025846      663.65179    
     50800   477.93125     -5.8011079      0              25.025846      652.47389    
     51000   478.63176     -5.8462911      0              25.025846      650.33687    
     51200   477.01613     -5.7420814      0              25.025846      663.57196    
     51400   474.28987     -5.5662355      0              25.025846      684.39695    
     51600   471.14732     -5.3635391      0              25.025846      707.66885    
     51800   468.28576     -5.1789653      0              25.025847      727.77699    
     52000   470.37904     -5.3139838      0              25.025846      716.4402     
     52200   473.57917     -5.5203952      0              25.025846      697.50002    
     52400   473.26393     -5.5000617      0              25.025846      698.91287    
     52600   472.22047     -5.4327573      0              25.025846      705.02522    
     52800   472.85603     -5.4737517      0              25.025846      700.25678    
     53000   473.34172     -5.5050792      0              25.025846      696.29931    
     53200   472.4431      -5.4471176      0              25.025846      700.26764    
     53400   471.88796     -5.4113103      0              25.025846      700.99594    
     53600   473.71493     -5.5291511      0              25.025846      685.58956    
     53800   477.49386     -5.772896       0              25.025846      657.36419    
     54000   480.59826     -5.9731323      0              25.025846      633.7202     
     54200   481.41031     -6.0255099      0              25.025846      624.49727    
     54400   480.64204     -5.9759556      0              25.025846      627.18039    
     54600   478.92772     -5.865381       0              25.025846      638.43944    
     54800   476.69352     -5.721273       0              25.025846      655.10549    
     55000   475.04238     -5.614773       0              25.025846      669.67318    
     55200   474.63056     -5.5882105      0              25.025846      677.53686    
     55400   473.95278     -5.5444931      0              25.025846      687.09586    
     55600   471.09978     -5.3604729      0              25.025846      710.07198    
     55800   467.97528     -5.1589391      0              25.025847      733.65096    
     56000   469.60876     -5.2643002      0              25.025846      727.20923    
     56200   472.95613     -5.4802087      0              25.025846      708.60365    
     56400   475.76213     -5.6611979      0              25.025846      692.59302    
     56600   475.61543     -5.6517356      0              25.025846      694.47164    
     56800   474.95586     -5.6091929      0              25.025846      701.05842    
     57000   471.91019     -5.4127445      0              25.025846      722.79403    
     57200   467.00771     -5.0965304      0              25.025846      754.201      
     57400   465.83839     -5.021108       0              25.025847      761.41873    
     57600   469.25542     -5.2415101      0              25.025846      739.45675    
     57800   471.67644     -5.3976675      0              25.025846      722.89559    
     58000   472.01692     -5.4196287      0              25.025846      718.94926    
     58200   471.19015     -5.3663009      0              25.025846      721.54817    
     58400   471.86641     -5.4099204      0              25.025846      714.37465    
     58600   473.93955     -5.5436402      0              25.025846      698.53822    
     58800   474.1762      -5.5589043      0              25.025846      694.15299    
     59000   472.77797     -5.4687173      0              25.025846      700.46679    
     59200   470.39872     -5.315253       0              25.025846      713.27146    
     59400   470.1922      -5.3019322      0              25.025846      712.67999    
     59600   472.94262     -5.479337       0              25.025846      694.4224     
     59800   473.99471     -5.5471979      0              25.025846      687.26397    
     60000   470.78322     -5.3400541      0              25.025846      707.19148    
     60200   464.62648     -4.9429388      0              25.025846      744.67861    
     60400   462.25186     -4.789774       0              25.025847      757.77023    
     60600   466.47067     -5.0618915      0              25.025846      729.41178    
     60800   470.04693     -5.2925627      0              25.025846      703.29018    
     61000   473.68575     -5.5272696      0              25.025846      677.45725    
     61200   475.50321     -5.6444976      0              25.025846      663.917      
     61400   473.14168     -5.4921766      0              25.025846      677.02152    
     61600   469.73058     -5.2721573      0              25.025847      696.98148    
     61800   470.42534     -5.3169703      0              25.025847      691.91908    
     62000   474.23968     -5.5629985      0              25.025846      667.9966     
     62200   475.66998     -5.6552545      0              25.025846      658.92088    
     62400   473.03254     -5.485137       0              25.025846      675.60883    
     62600   467.88387     -5.1530438      0              25.025846      708.47028    
     62800   462.90672     -4.832013       0              25.025846      739.63009    
     63000   461.31651     -4.7294431      0              25.025846      748.06136    
     63200   463.62729     -4.8784905      0              25.025846      730.61117    
     63400   466.62007     -5.0715276      0              25.025846      707.25767    
     63600   470.55984     -5.3256454      0              25.025846      677.79665    
     63800   474.61953     -5.5874993      0              25.025846      648.36376    
     64000   476.50323     -5.708999       0              25.025846      634.01801    
     64200   476.34118     -5.6985467      0              25.025846      634.65456    
     64400   474.64844     -5.5893639      0              25.025846      646.10069    
     64600   471.25741     -5.3706396      0              25.025846      669.00057    
     64800   469.76753     -5.2745409      0              25.025846      681.60007    
     65000   468.79368     -5.2117271      0              25.025846      691.05806    
     65200   467.88998     -5.1534377      0              25.025846      699.31771    
     65400   467.11514     -5.1034597      0              25.025846      706.00329    
     65600   467.90628     -5.1544892      0              25.025846      702.66145    
     65800   468.89953     -5.2185544      0              25.025846      698.53021    
     66000   468.12172     -5.1683849      0              25.025846      704.7969     
     66200   466.591       -5.0696527      0              25.025846      715.10171    
     66400   464.63942     -4.9437737      0              25.025846      727.49298    
     66600   464.84144     -4.9568041      0              25.025846      725.56155    
     66800   467.76627     -5.1454583      0              25.025846      705.85135    
     67000   471.5098      -5.3869191      0              25.025846      679.94186    
     67200   474.46174     -5.5773218      0              25.025846      659.45442    
     67400   474.93709     -5.6079822      0              25.025846      655.3118     
     67600   472.37282     -5.4425845      0              25.025846      670.80708    
     67800   468.35259     -5.1832758      0              25.025847      694.97334    
     68000   468.55872     -5.1965721      0              25.025846      694.20236    
     68200   469.1801      -5.236652       0              25.025846      690.57521    
     68400   466.95775     -5.0933077      0              25.025846      703.08528    
     68600   466.49961     -5.0637575      0              25.025847      704.68957    
     68800   469.18622     -5.2370462      0              25.025846      686.95998    
     69000   471.64748     -5.3957993      0              25.025846      670.35907    
     69200   474.00028     -5.5475568      0              25.025846      655.08035    
     69400   476.4432      -5.7051271      0              25.025846      640.88432    
     69600   478.20942     -5.8190502      0              25.025846      632.73828    
     69800   477.65876     -5.783532       0              25.025846      641.01147    
     70000   474.21538     -5.5614312      0              25.025846      668.43808    
     70200   469.85401     -5.2801189      0              25.025846      702.20242    
     70400   466.79894     -5.0830645      0              25.025846      728.20935    
     70600   465.58929     -5.0050417      0              25.025846      742.81633    
     70800   463.46242     -4.867857       0              25.025846      762.29718    
     71000   460.08947     -4.6502985      0              25.025846      787.52632    
     71200   459.55999     -4.6161463      0              25.025847      792.66887    
     71400   463.77756     -4.8881832      0              25.025846      766.81781    
     71600   468.81177     -5.2128943      0              25.025846      735.30065    
     71800   471.35919     -5.3772046      0              25.025846      719.07808    
     72000   472.15173     -5.428324       0              25.025846      714.22667    
     72200   472.72519     -5.4653128      0              25.025846      711.65047    
     72400   471.76188     -5.4031788      0              25.025846      718.81269    
     72600   469.338       -5.2468363      0              25.025846      735.02527    
     72800   467.68313     -5.140096       0              25.025846      745.89251    
     73000   466.95563     -5.0931714      0              25.025846      749.44853    
     73200   470.38448     -5.3143354      0              25.025846      727.16161    
     73400   474.12708     -5.5557364      0              25.025846      702.93084    
     73600   473.30367     -5.5026253      0              25.025846      706.25239    
     73800   471.3321      -5.3754572      0              25.025846      717.15727    
     74000   470.7161      -5.3357242      0              25.025846      718.5894     
     74200   471.97279     -5.4167819      0              25.025846      706.69115    
     74400   474.5681      -5.584182       0              25.025846      685.33666    
     74600   475.91458     -5.6710307      0              25.025846      671.54232    
     74800   477.12185     -5.7489007      0              25.025846      660.89238    
     75000   476.05691     -5.6802118      0              25.025846      666.379      
     75200   472.17631     -5.4299098      0              25.025846      690.97212    
     75400   466.56415     -5.0679204      0              25.025846      725.37025    
     75600   463.84468     -4.8925121      0              25.025847      740.57017    
     75800   466.75136     -5.079996       0              25.025846      720.23802    
     76000   469.67406     -5.268512       0              25.025846      698.25915    
     76200   472.06456     -5.4227013      0              25.025846      679.24205    
     76400   473.66722     -5.5260745      0              25.025846      666.24459    
     76600   473.34248     -5.5051284      0              25.025846      666.05361    
     76800   471.85714     -5.4093224      0              25.025846      674.78355    
     77000   470.33592     -5.3112023      0              25.025847      685.16151    
     77200   471.87944     -5.4107606      0              25.025846      678.1223     
     77400   474.98504     -5.6110753      0              25.025846      662.84527    
     77600   473.87606     -5.5395448      0              25.025846      674.28408    
     77800   469.65759     -5.2674496      0              25.025847      705.568      
     78000   468.46346     -5.1904272      0              25.025846      719.64393    
     78200   468.78221     -5.2109879      0              25.025846      724.6121     
     78400   466.88675     -5.0887284      0              25.025846      741.6798     
     78600   465.37055     -4.9909326      0              25.025846      756.85102    
     78800   462.8004      -4.8251556      0              25.025846      777.28761    
     79000   460.67212     -4.6878799      0              25.025846      792.66043    
     79200   460.83157     -4.6981642      0              25.025846      791.19978    
     79400   463.88089     -4.8948483      0              25.025846      769.76502    
     79600   468.14306     -5.1697621      0              25.025846      739.82208    
     79800   469.69335     -5.2697567      0              25.025846      726.0304     
     80000   467.67314     -5.1394513      0              25.025846      733.39965    
     80200   465.60108     -5.0058019      0              25.025846      741.43419    
     80400   464.50781     -4.935285       0              25.025846      743.70545    
     80600   463.79792     -4.8894965      0              25.025846      743.35402    
     80800   464.14615     -4.9119574      0              25.025846      735.18588    
     81000   466.03987     -5.0341035      0              25.025846      716.30159    
     81200   470.55341     -5.3252307      0              25.025846      681.19604    
     81400   474.98907     -5.6113352      0              25.025846      647.47292    
     81600   476.31578     -5.6969088      0              25.025846      635.30356    
     81800   474.84229     -5.6018676      0              25.025846      643.04094    
     82000   471.15184     -5.3638303      0              25.025846      665.92933    
     82200   466.89407     -5.0892001      0              25.025846      692.06583    
     82400   465.17128     -4.9780793      0              25.025846      701.06387    
     82600   467.12405     -5.1040341      0              25.025846      685.89045    
     82800   471.78752     -5.4048323      0              25.025846      654.2008     
     83000   474.63657     -5.5885985      0              25.025846      634.71862    
     83200   473.22781     -5.497732       0              25.025846      643.51522    
     83400   470.38505     -5.3143713      0              25.025846      663.43675    
     83600   469.98476     -5.2885525      0              25.025846      669.87249    
     83800   471.00899     -5.3546163      0              25.025846      667.30997    
     84000   469.78956     -5.2759626      0              25.025846      677.86625    
     84200   465.73831     -5.0146532      0              25.025846      705.09116    
     84400   464.15952     -4.9128194      0              25.025847      715.88668    
     84600   467.99564     -5.1602531      0              25.025846      694.15499    
     84800   471.00782     -5.3545409      0              25.025846      678.37517    
     85000   470.54501     -5.3246896      0              25.025846      685.70358    
     85200   467.56029     -5.132173       0              25.025846      710.59401    
     85400   462.79094     -4.8245454      0              25.025846      746.52339    
     85600   458.19566     -4.5281463      0              25.025846      780.25413    
     85800   454.42712     -4.2850723      0              25.025846      806.69087    
     86000   454.26084     -4.2743473      0              25.025846      808.311      
     86200   456.1349      -4.395226       0              25.025846      794.72083    
     86400   457.62524     -4.4913531      0              25.025847      779.97238    
     86600   464.77448     -4.9524853      0              25.025846      729.06458    
     86800   473.25376     -5.4994062      0              25.025846      669.66306    
     87000   477.13827     -5.74996        0              25.025846      639.4185     
     87200   476.51767     -5.7099306      0              25.025846      639.87328    
     87400   473.85233     -5.5380137      0              25.025846      655.9573     
     87600   472.81485     -5.4710953      0              25.025846      664.80871    
     87800   472.75645     -5.467329       0              25.025846      668.96522    
     88000   472.11944     -5.4262412      0              25.025846      677.81789    
     88200   471.14606     -5.3634574      0              25.025846      689.67967    
     88400   470.28611     -5.3079903      0              25.025846      701.962      
     88600   468.93803     -5.2210383      0              25.025846      717.86159    
     88800   465.20112     -4.9800043      0              25.025846      747.70628    
     89000   461.07452     -4.7138346      0              25.025846      779.01616    
     89200   458.67645     -4.5591574      0              25.025846      797.81674    
     89400   457.62594     -4.4913984      0              25.025846      804.97431    
     89600   460.1963      -4.6571889      0              25.025846      787.08429    
     89800   464.00273     -4.9027072      0              25.025846      758.85636    
     90000   466.36819     -5.055281       0              25.025846      737.55232    
     90200   468.2662      -5.1777044      0              25.025846      718.94598    
     90400   469.9374      -5.2854978      0              25.025846      701.90348    
     90600   471.86243     -5.4096639      0              25.025846      684.67114    
     90800   473.18041     -5.4946749      0              25.025846      672.87881    
     91000   471.26326     -5.3710175      0              25.025846      681.973      
     91200   467.5904      -5.134114       0              25.025846      702.37764    
     91400   466.84418     -5.0859825      0              25.025846      706.25195    
     91600   467.03333     -5.0981831      0              25.025846      704.91324    
     91800   466.72768     -5.0784686      0              25.025846      706.76315    
     92000   466.85804     -5.0868765      0              25.025846      705.9834     
     92200   469.43407     -5.2530327      0              25.025846      690.58018    
     92400   470.56634     -5.3260652      0              25.025846      683.43849    
     92600   469.57312     -5.2620013      0              25.025846      689.08922    
     92800   468.62627     -5.2009284      0              25.025846      695.08726    
     93000   468.94538     -5.2215115      0              25.025846      694.09061    
     93200   469.96281     -5.2871365      0              25.025846      688.2974     
     93400   470.75617     -5.3383093      0              25.025846      683.42308    
     93600   470.9072      -5.3480509      0              25.025846      682.44468    
     93800   471.81124     -5.406362       0              25.025846      677.78571    
     94000   473.44206     -5.5115513      0              25.025846      670.01809    
     94200   473.59129     -5.5211772      0              25.025846      672.43802    
     94400   472.23835     -5.4339111      0              25.025846      684.58327    
     94600   470.57091     -5.3263599      0              25.025846      699.15286    
     94800   468.49001     -5.1921398      0              25.025846      715.62821    
     95000   468.06412     -5.1646699      0              25.025846      721.53849    
     95200   468.665       -5.2034272      0              25.025846      721.25049    
     95400   467.53689     -5.1306636      0              25.025846      731.81778    
     95600   462.80758     -4.825619       0              25.025846      764.67536    
     95800   457.85117     -4.5059258      0              25.025846      798.2815     
     96000   457.6703      -4.4942598      0              25.025846      801.30641    
     96200   461.17879     -4.7205605      0              25.025846      779.65291    
     96400   465.77317     -5.016902       0              25.025846      749.1576     
     96600   470.01901     -5.2907621      0              25.025846      718.72695    
     96800   474.02319     -5.5490347      0              25.025846      688.74382    
     97000   478.32506     -5.8265089      0              25.025846      657.11956    
     97200   481.7218      -6.0456016      0              25.025846      631.5706     
     97400   482.14253     -6.0727389      0              25.025846      625.86922    
     97600   479.5439      -5.9051247      0              25.025846      640.11179    
     97800   475.79893     -5.6635708      0              25.025846      662.41302    
     98000   473.2215      -5.4973246      0              25.025847      677.95445    
     98200   474.29088     -5.5663005      0              25.025847      670.61559    
     98400   477.97029     -5.8036259      0              25.025846      646.91357    
     98600   480.1634      -5.9450833      0              25.025846      632.84729    
     98800   479.31551     -5.8903935      0              25.025846      638.57603    
     99000   476.16874     -5.6874246      0              25.025846      660.25181    
     99200   472.15413     -5.4284791      0              25.025846      688.80395    
     99400   467.08025     -5.1012094      0              25.025846      723.51676    
     99600   462.88874     -4.8308531      0              25.025847      751.40383    
     99800   463.10354     -4.844708       0              25.025847      750.50067    
    100000   467.22475     -5.1105302      0              25.025846      724.20712    
Loop time of 1.58323 on 1 procs for 100000 steps with 500 atoms

Performance: 545.722 ns/day, 0.044 hours/ns, 63162.211 timesteps/s, 31.581 Matom-step/s
99.6% CPU use with 1 MPI tasks x no OpenMP threads

MPI task timing breakdown:
Section |  min time  |  avg time  |  max time  |%varavg| %total
---------------------------------------------------------------
Pair    | 1.0445     | 1.0445     | 1.0445     |   0.0 | 65.98
Neigh   | 0.021926   | 0.021926   | 0.021926   |   0.0 |  1.38
Comm    | 0.14952    | 0.14952    | 0.14952    |   0.0 |  9.44
Output  | 0.10363    | 0.10363    | 0.10363    |   0.0 |  6.55
Modify  | 0.17528    | 0.17528    | 0.17528    |   0.0 | 11.07
Other   |            | 0.08832    |            |       |  5.58

Nlocal:            500 ave         500 max         500 min
Histogram: 1 0 0 0 0 0 0 0 0 0
Nghost:            824 ave         824 max         824 min
Histogram: 1 0 0 0 0 0 0 0 0 0
Neighs:           3884 ave        3884 max        3884 min
Histogram: 1 0 0 0 0 0 0 0 0 0

Total # of neighbors = 3884
Ave neighs/atom = 7.768
Neighbor list builds = 123
Dangerous builds = 0
All done!
Total wall time: 0:00:01
