LAMMPS (22 Aug 2018)
OMP_NUM_THREADS environment is not set. Defaulting to 1 thread. (src/comm.cpp:87)
  using 1 OpenMP thread(s) per MPI task
Reading data file ...
  orthogonal box = (-0 -0 -0) to (100 100 100)
  2 by 2 by 2 MPI processor grid
  reading atoms ...
  309 atoms
WARNING: The pair_style meam command is unsupported. Please use pair_style meam/c instead (src/MEAM/pair_meam.cpp:51)
Reading potential file library.meam with DATE: 2012-06-29
Neighbor list info ...
  update every 1 steps, delay 10 steps, check yes
  max neighbors/atom: 2000, page size: 100000
  master list distance cutoff = 6
  ghost atom cutoff = 6
  binsize = 3, bins = 34 34 34
  2 neighbor lists, perpetual/occasional/extra = 2 0 0
  (1) pair meam, perpetual
      attributes: full, newton on
      pair build: full/bin/atomonly
      stencil: full/bin/3d
      bin: standard
  (2) pair meam, perpetual, half/full from (1)
      attributes: half, newton on
      pair build: halffull/newton
      stencil: none
      bin: none
Setting up Verlet run ...
  Unit style    : metal
  Current step  : 0
  Time step     : 0.001
Per MPI rank memory allocation (min/avg/max) = 9.31 | 9.625 | 9.941 Mbytes
Step Temp PotEng KinEng TotEng 
       0          300   -1016.1721    11.943637   -1004.2285 
     200    342.84148   -1011.2135    13.649248   -997.56429 
     400     289.5517    -1014.596    11.527668   -1003.0683 
     600     267.9217   -1015.0409    10.666532   -1004.3743 
     800    347.85092   -1012.0928    13.848684   -998.24416 
    1000    265.16213   -1014.2589    10.556668   -1003.7023 
    1200    293.26602   -1015.8911    11.675543   -1004.2156 
    1400    300.36347   -1015.0077    11.958108   -1003.0496 
    1600    286.01407    -1017.663    11.386828   -1006.2762 
    1800    289.55813   -1016.7268    11.527924   -1005.1989 
    2000    301.59165   -1014.1707    12.007004   -1002.1637 
    2200    296.46145   -1015.7817     11.80276    -1003.979 
    2400    284.64385    -1018.158    11.332276   -1006.8257 
    2600    275.13574   -1016.3672    10.953738   -1005.4134 
    2800    310.55479   -1015.1077    12.363846   -1002.7438 
    3000    307.56375   -1016.9879    12.244766   -1004.7432 
    3200    284.76775   -1017.2217    11.337209   -1005.8845 
    3400     316.7397    -1016.397     12.61008   -1003.7869 
    3600    278.91814   -1015.8512    11.104324   -1004.7469 
    3800    290.33814   -1016.6267    11.558978   -1005.0677 
    4000    317.33116   -1016.3547    12.633628   -1003.7211 
    4200    287.22299    -1016.329    11.434957    -1004.894 
    4400    292.36472   -1016.5545    11.639661   -1004.9148 
    4600    322.47673   -1016.3354    12.838484   -1003.4969 
    4800    278.40569   -1016.0326    11.083922   -1004.9486 
    5000    278.79045   -1016.1741     11.09924   -1005.0749 
    5200    299.65221   -1016.4467    11.929791   -1004.5169 
    5400    310.84153   -1016.7086    12.375262   -1004.3333 
    5600    305.55951   -1016.6396    12.164973   -1004.4746 
    5800    307.53817   -1016.0477    12.243748   -1003.8039 
    6000    303.05742   -1017.1583     12.06536   -1005.0929 
    6200    298.51819   -1016.7454    11.884643   -1004.8608 
    6400    313.73835   -1016.0709     12.49059   -1003.5803 
    6600    299.42875   -1017.1918    11.920895   -1005.2709 
    6800    302.94789   -1017.0597    12.060999   -1004.9987 
    7000    312.96744   -1016.0473    12.459899   -1003.5874 
    7200     297.0457   -1015.9231     11.82602   -1004.0971 
    7400    299.99392   -1016.6688    11.943395   -1004.7254 
    7600    305.30162   -1016.8816    12.154706   -1004.7269 
    7800    303.04127   -1016.5797    12.064717    -1004.515 
    8000    309.11368   -1016.5786    12.306472   -1004.2721 
    8200    304.80566   -1016.6913    12.134961   -1004.5563 
    8400    291.07373   -1016.0099    11.588264   -1004.4217 
    8600    313.72815   -1016.6489    12.490184   -1004.1587 
    8800    304.49285   -1016.5512    12.122507   -1004.4287 
    9000    290.43247   -1016.6521    11.562734   -1005.0893 
    9200    303.46178   -1017.0318    12.081458   -1004.9503 
    9400    310.40238   -1016.9643    12.357778   -1004.6065 
    9600    303.81669   -1016.4696    12.095588    -1004.374 
    9800    308.71487   -1016.4961    12.290595   -1004.2055 
   10000    314.38501   -1017.4834    12.516335   -1004.9671 
   10200    320.78134   -1017.4636    12.770987   -1004.6926 
   10400    334.74719    -1019.366    13.326997    -1006.039 
   10600    280.62624   -1023.4503    11.172327   -1012.2779 
   10800    293.59059   -1026.8255    11.688465    -1015.137 
   11000    327.16197   -1026.5513    13.025013   -1013.5262 
   11200    317.93064   -1024.6687    12.657494   -1012.0113 
   11400    296.03203   -1023.9534    11.785664   -1012.1678 
   11600    328.94031   -1024.9306    13.095813   -1011.8348 
   11800    279.91611   -1026.1756    11.144055   -1015.0315 
   12000    301.00726   -1025.8088    11.983738   -1013.8251 
   12200    310.40832   -1024.0843    12.358015   -1011.7263 
   12400    301.05115   -1023.2564    11.985486   -1011.2709 
   12600    314.45656   -1025.0937    12.519184   -1012.5745 
   12800    283.11987   -1026.7083    11.271603   -1015.4367 
   13000    300.95324   -1024.6101    11.981588   -1012.6285 
   13200    322.59603   -1023.3594    12.843233   -1010.5162 
   13400     289.6248   -1024.8917    11.530579   -1013.3611 
   13600    280.65373   -1025.5506    11.173421   -1014.3772 
   13800    287.34489   -1023.5253     11.43981   -1012.0855 
   14000    311.70709   -1023.6941    12.409721   -1011.2844 
   14200    298.44598    -1025.169    11.881768   -1013.2872 
   14400    290.74606   -1025.3889    11.575218   -1013.8137 
   14600    313.15628   -1024.3873    12.467417   -1011.9198 
   14800    311.39716    -1025.264    12.397383   -1012.8666 
   15000    310.10563    -1025.405    12.345964   -1013.0591 
   15200    330.42309   -1025.0021    13.154845   -1011.8472 
   15400    275.65702   -1025.5239    10.974492   -1014.5494 
   15600    291.59874   -1024.6529    11.609165   -1013.0437 
   15800    347.11457   -1023.9122    13.819368   -1010.0928 
   16000    278.01209   -1025.2763    11.068252    -1014.208 
   16200    292.27296   -1025.9596    11.636007   -1014.3236 
   16400    320.14404   -1024.6257    12.745614   -1011.8801 
   16600      304.979   -1023.8222    12.141862   -1011.6804 
   16800    301.16518   -1024.5557    11.990026   -1012.5657 
   17000    281.60034   -1025.1855    11.211108   -1013.9744 
   17200    304.87449   -1025.6084    12.137701   -1013.4707 
   17400     327.3211   -1025.4347    13.031348   -1012.4033 
   17600    307.42042   -1023.8829     12.23906   -1011.6438 
   17800    316.03091   -1025.9396    12.581862   -1013.3577 
   18000    294.17152   -1026.2955    11.711593   -1014.5839 
   18200    333.17654   -1024.9478    13.264466   -1011.6833 
   18400     324.0016   -1024.7283    12.899192   -1011.8291 
   18600    312.73769   -1025.3867    12.450752   -1012.9359 
   18800    295.81841   -1025.8473    11.777159   -1014.0702 
   19000    311.81487   -1025.2836    12.414012   -1012.8696 
   19200    323.13468   -1025.1095    12.864678   -1012.2448 
   19400    307.08417   -1024.6134    12.225673   -1012.3878 
   19600    328.97542   -1025.0467     13.09721   -1011.9495 
   19800    283.73015   -1025.9062      11.2959   -1014.6103 
   20000    304.29667   -1024.8173    12.114697   -1012.7026 
   20200    330.53986   -1023.7742    13.159494   -1010.6147 
   20400    285.51246   -1025.0267    11.366858   -1013.6598 
   20600    305.93011   -1026.0801    12.179728   -1013.9004 
   20800    315.89417   -1024.2124    12.576418    -1011.636 
   21000    315.60048   -1024.9243    12.564726   -1012.3596 
   21200    276.53723     -1024.65    11.009535   -1013.6404 
   21400    313.62273     -1024.71    12.485987   -1012.2241 
   21600    297.29285   -1024.7453     11.83586   -1012.9095 
   21800    300.65014   -1024.9894    11.969521   -1013.0199 
   22000    329.09958   -1024.4777    13.102153   -1011.3755 
   22200    297.54457   -1024.1334    11.845882   -1012.2875 
   22400    317.76685   -1026.0292    12.650974   -1013.3782 
   22600    303.83292    -1024.984    12.096234   -1012.8878 
   22800    298.17825   -1024.1856     11.87111   -1012.3145 
   23000    322.97085   -1024.9163    12.858156   -1012.0582 
   23200    308.28023   -1025.4873    12.273291    -1013.214 
   23400    323.93974   -1025.4103    12.896729   -1012.5136 
   23600    322.73295   -1025.1673    12.848685   -1012.3186 
   23800    306.74054   -1025.8474    12.211993   -1013.6355 
   24000    322.37519   -1024.7938    12.834441   -1011.9594 
   24200    319.89583   -1024.1573    12.735733   -1011.4215 
   24400    317.06958   -1025.5555    12.623214   -1012.9323 
   24600    286.83865    -1024.454    11.419656   -1013.0343 
   24800    303.83012    -1024.037    12.096122   -1011.9409 
   25000    316.19368   -1025.0691    12.588342   -1012.4808 
   25200    317.50857   -1025.6809    12.640691   -1013.0402 
   25400    347.74559   -1025.4059    13.844491   -1011.5615 
   25600    313.81974   -1025.5635    12.493831   -1013.0696 
   25800    325.14464   -1025.8055    12.944699   -1012.8608 
   26000     320.8089   -1024.5296    12.772084   -1011.7575 
   26200     296.0908    -1024.913    11.788004    -1013.125 
   26400    283.35512   -1023.9806    11.280969   -1012.6996 
   26600    326.66885   -1025.4005    13.005381   -1012.3952 
   26800    299.98638   -1025.1921    11.943095    -1013.249 
   27000    340.07507   -1024.6772    13.539111   -1011.1381 
   27200    304.74815   -1025.0127    12.132671     -1012.88 
   27400     306.3596    -1026.143    12.196827   -1013.9462 
   27600    318.39024   -1023.7828    12.675792    -1011.107 
   27800    303.72874   -1024.4391    12.092087    -1012.347 
   28000    306.27544   -1026.1083    12.193476   -1013.9148 
   28200    338.87418   -1024.9724    13.491301   -1011.4811 
   28400    310.09604   -1024.8601    12.345582   -1012.5145 
   28600    311.75469   -1025.6354    12.411617   -1013.2238 
   28800    316.29034   -1024.5967    12.592191   -1012.0045 
   29000    339.56348   -1025.2382    13.518743   -1011.7195 
   29200    275.59538   -1025.0326    10.972038   -1014.0606 
   29400    320.67061   -1025.7453    12.766578   -1012.9787 
   29600    319.61859   -1023.9157    12.724695    -1011.191 
   29800    272.91474    -1024.039    10.865316   -1013.1737 
   30000    321.67858   -1025.6087    12.806708    -1012.802 
   30200    323.89573   -1024.4943    12.894977   -1011.5993 
   30400    305.38988   -1024.6916     12.15822   -1012.5334 
   30600    316.78565   -1025.1879     12.61191    -1012.576 
   30800    332.48433   -1025.2321    13.236908   -1011.9952 
   31000    300.91866   -1025.5147    11.980211   -1013.5345 
   31200    334.87481   -1024.9928    13.332078   -1011.6608 
   31400     304.5239   -1024.1602    12.123743   -1012.0365 
   31600    307.73563   -1025.2267    12.251609   -1012.9751 
   31800    299.01006   -1024.4055    11.904226   -1012.5013 
   32000    318.67368   -1024.8136    12.687076   -1012.1266 
   32200    285.40692   -1023.3275    11.362656   -1011.9649 
   32400    316.58806   -1024.6846    12.604043   -1012.0806 
   32600    325.15304   -1025.7797    12.945033   -1012.8346 
   32800    312.61737    -1025.765    12.445962   -1013.3191 
   33000    331.50336   -1024.7028    13.197853   -1011.5049 
   33200    305.78828   -1024.2793    12.174081   -1012.1053 
   33400    312.68606   -1025.7419    12.448696   -1013.2932 
   33600    303.25613   -1024.7115    12.073271   -1012.6383 
   33800    332.74279   -1024.4681    13.247198   -1011.2209 
   34000    309.77363   -1024.7888    12.332746   -1012.4561 
   34200    297.57557    -1024.889    11.847116   -1013.0418 
   34400    309.74964   -1023.2048    12.331791    -1010.873 
   34600    311.10719    -1024.571    12.385838   -1012.1852 
   34800    314.36966   -1026.0463    12.515724   -1013.5306 
   35000     323.0355   -1024.5117     12.86073    -1011.651 
   35200     320.3461   -1024.2006    12.753659    -1011.447 
   35400    300.03299   -1025.5275    11.944951   -1013.5826 
   35600    311.06462   -1024.7559    12.384144   -1012.3718 
   35800    328.76263   -1023.7469    13.088739   -1010.6582 
   36000    324.81473   -1026.1698    12.931565   -1013.2382 
   36200    304.13416   -1025.4604    12.108227   -1013.3522 
   36400    325.47873   -1023.4245       12.958   -1010.4665 
   36600    311.03415   -1024.6668    12.382931   -1012.2839 
   36800     263.0416   -1023.7973    10.472245   -1013.3251 
   37000    329.17248   -1024.7959    13.105056   -1011.6908 
   37200     337.0831   -1025.0666    13.419994   -1011.6466 
   37400    305.89259   -1025.5238    12.178234   -1013.3455 
   37600    321.90884     -1024.78    12.815875   -1011.9641 
   37800    335.43195   -1025.2039    13.354259   -1011.8496 
   38000    296.93938   -1024.9732    11.821788   -1013.1514 
   38200    314.18226   -1024.4618    12.508263   -1011.9535 
   38400    314.82589   -1024.4796    12.533888   -1011.9457 
   38600    317.35889   -1024.4078    12.634732   -1011.7731 
   38800    328.25476   -1025.8158     13.06852   -1012.7473 
   39000    316.58042   -1025.1478    12.603739   -1012.5441 
   39200    336.26665   -1024.6929     13.38749   -1011.3054 
   39400    296.10321   -1024.4899    11.788498   -1012.7014 
   39600    299.13185   -1024.5387    11.909074   -1012.6296 
   39800    323.29445   -1024.9753    12.871039   -1012.1043 
   40000    322.00318    -1024.846    12.819631   -1012.0264 
   40200    315.34342   -1024.4432    12.554492   -1011.8887 
   40400    292.48915   -1024.1622    11.644614   -1012.5176 
   40600    305.78359   -1023.6552    12.173895   -1011.4814 
   40800    280.39142   -1023.4708    11.162978   -1012.3078 
   41000     323.2197   -1025.1046    12.868063   -1012.2365 
   41200    289.90229   -1024.3792    11.541626   -1012.8376 
   41400    321.71792   -1024.3626    12.808274   -1011.5543 
   41600    318.22702     -1024.55    12.669294   -1011.8807 
   41800      268.997   -1023.8795    10.709342   -1013.1702 
   42000    329.01972    -1023.282    13.098974   -1010.1831 
   42200    311.99488    -1024.782    12.421179   -1012.3608 
   42400    284.27113   -1025.5716    11.317438   -1014.2542 
   42600    334.96684   -1023.5118    13.335741   -1010.1761 
   42800    305.33896   -1024.0502    12.156193    -1011.894 
   43000     284.3256   -1025.1691    11.319606   -1013.8495 
   43200     335.0667   -1023.8746    13.339717   -1010.5349 
   43400    314.78519    -1024.591    12.532267   -1012.0587 
   43600    284.88146   -1025.7405    11.341736   -1014.3987 
   43800    317.57225   -1023.7197    12.643226   -1011.0765 
   44000    317.49949    -1023.348    12.640329   -1010.7077 
   44200     318.3143   -1025.8051    12.672768   -1013.1323 
   44400    311.05765   -1025.7103    12.383866   -1013.3264 
   44600    315.98654   -1023.0659    12.580096   -1010.4858 
   44800     319.3835     -1024.07    12.715336   -1011.3547 
   45000    311.86035   -1026.3084    12.415823   -1013.8926 
   45200    298.11387   -1023.6228    11.868546   -1011.7542 
   45400    327.10599   -1023.3202    13.022784   -1010.2975 
   45600    312.33065   -1025.2455    12.434547    -1012.811 
   45800    278.28039   -1024.9976    11.078934   -1013.9187 
   46000    338.08041   -1023.8206    13.459699   -1010.3609 
   46200    303.57608   -1023.5154    12.086009   -1011.4293 
   46400    302.86809   -1025.4063    12.057822   -1013.3485 
   46600     333.3789   -1024.7975    13.272522   -1011.5249 
   46800    310.11448   -1023.7826    12.346316   -1011.4363 
   47000    287.13321   -1024.5179    11.431383   -1013.0865 
   47200    292.76988   -1024.1747    11.655791   -1012.5189 
   47400    326.08091   -1023.5177    12.981974   -1010.5358 
   47600    308.81256   -1025.2618    12.294484   -1012.9673 
   47800    276.03998   -1024.6617    10.989738   -1013.6719 
   48000    335.31569   -1022.7834     13.34963   -1009.4337 
   48200    296.53815   -1024.6768    11.805814    -1012.871 
   48400    316.29987   -1026.2561     12.59257   -1013.6636 
   48600    341.14184   -1024.3527    13.581582   -1010.7711 
   48800    311.80805   -1024.5047    12.413741    -1012.091 
   49000    293.41345   -1024.9777    11.681413   -1013.2962 
   49200    336.08545   -1024.1042    13.380276    -1010.724 
   49400    312.63975   -1024.0062    12.446853   -1011.5594 
   49600    317.45374   -1026.0354    12.638508   -1013.3969 
   49800    315.70197   -1024.5355    12.568766   -1011.9667 
   50000    317.79064    -1023.469     12.65192   -1010.8171 
   50200    318.76455   -1024.9289    12.690694   -1012.2382 
   50400    304.39825   -1024.9826    12.118741   -1012.8639 
   50600    313.21637   -1023.5848    12.469809    -1011.115 
   50800    340.83783   -1024.4918    13.569478   -1010.9223 
   51000    311.06783   -1025.1556    12.384271   -1012.7713 
   51200     315.4359   -1024.7167    12.558173   -1012.1586 
   51400    328.34508   -1023.8602    13.072115   -1010.7881 
   51600     312.3909   -1024.9292    12.436945   -1012.4922 
   51800    317.37787   -1024.4461    12.635488   -1011.8106 
   52000    346.58271   -1024.4768    13.798194   -1010.6786 
   52200    311.36289   -1025.5763    12.396018   -1013.1803 
   52400    308.62331   -1024.3785     12.28695   -1012.0916 
   52600    313.06711   -1024.2035    12.463867   -1011.7396 
   52800    315.12105   -1023.7952    12.545639   -1011.2495 
   53000    341.72061   -1024.6607    13.604624   -1011.0561 
   53200    284.88142    -1024.602    11.341735   -1013.2603 
   53400    325.57501   -1024.7914    12.961833   -1011.8296 
   53600     329.7628   -1024.4056    13.128558    -1011.277 
   53800     293.1046   -1024.2745    11.669117   -1012.6054 
   54000    331.26834   -1024.2942    13.188496   -1011.1057 
   54200    329.70036   -1024.8313    13.126072   -1011.7053 
   54400     319.6196   -1025.2049    12.724735   -1012.4801 
   54600    305.16083   -1023.7334    12.149101   -1011.5843 
   54800     323.2751   -1023.8529    12.870269   -1010.9826 
   55000    327.36231   -1024.7741    13.032989   -1011.7412 
   55200    319.28411    -1024.783    12.711379   -1012.0716 
   55400    324.32962   -1025.0661    12.912251   -1012.1538 
   55600    329.07139   -1024.2686    13.101031   -1011.1676 
   55800    327.90872   -1024.6249    13.054743   -1011.5702 
   56000    320.01134   -1025.0308    12.740331   -1012.2905 
   56200    334.79977   -1024.8743     13.32909   -1011.5452 
   56400    315.28166   -1024.2497    12.552033   -1011.6977 
   56600    329.81168   -1024.4938    13.130504   -1011.3633 
   56800    325.93313   -1025.0654    12.976091   -1012.0893 
   57000    322.33064   -1024.2778    12.832667   -1011.4451 
   57200    330.59323   -1024.5778    13.161619   -1011.4162 
   57400    317.32207   -1024.3657    12.633266   -1011.7324 
   57600    345.93263   -1025.3847    13.772313   -1011.6124 
   57800    317.31153     -1024.51    12.632846   -1011.8772 
   58000    320.55813   -1023.7142      12.7621   -1010.9521 
   58200    321.27368   -1024.9081    12.790588   -1012.1175 
   58400     304.7141   -1025.4539    12.131316   -1013.3226 
   58600    333.92685   -1023.1366    13.294337   -1009.8422 
   58800    318.97696   -1024.0245     12.69915   -1011.3253 
   59000    288.68558   -1024.0279    11.493186   -1012.5347 
   59200    326.02637   -1024.1727    12.979802   -1011.1929 
   59400    315.36158   -1024.8642    12.555214   -1012.3089 
   59600    322.98733   -1024.4966    12.858812   -1011.6378 
   59800     336.2363   -1024.2277    13.386282   -1010.8414 
   60000    321.17918   -1025.2942    12.786825   -1012.5074 
   60200    318.64532   -1024.0836    12.685947   -1011.3976 
   60400    314.09293   -1023.4549    12.504707   -1010.9502 
   60600    293.01853   -1024.0472     11.66569   -1012.3815 
   60800    318.67712   -1023.8319    12.687213   -1011.1447 
   61000    317.30306   -1023.4549    12.632509   -1010.8224 
   61200    310.70685   -1024.1264      12.3699   -1011.7565 
   61400    321.12137   -1024.2332    12.784524   -1011.4487 
   61600    309.90136   -1024.2909    12.337832   -1011.9531 
   61800    301.44722   -1022.7855    12.001254   -1010.7842 
   62000    350.59943   -1023.7935    13.958108   -1009.8354 
   62200    319.60753   -1025.5458    12.724255   -1012.8215 
   62400    322.29645   -1025.3857    12.831306   -1012.5544 
   62600    347.76419   -1024.5476    13.845231   -1010.7024 
   62800    343.96378   -1024.0299    13.693929   -1010.3359 
   63000    307.32307   -1025.3513    12.235184   -1013.1161 
   63200    307.83946   -1023.6125    12.255743   -1011.3568 
   63400    335.37013   -1023.6209    13.351797   -1010.2691 
   63600    316.21924   -1024.9622     12.58936   -1012.3729 
   63800    337.30002   -1024.5348     13.42863   -1011.1061 
   64000    332.21335    -1024.649    13.226119   -1011.4228 
   64200    314.71047   -1024.6235    12.529292   -1012.0942 
   64400    321.96474    -1023.282      12.8181   -1010.4639 
   64600    323.56673   -1024.3863    12.881879   -1011.5044 
   64800    305.44082   -1023.6113    12.160248    -1011.451 
   65000    337.20421   -1024.5984    13.424816   -1011.1736 
   65200    326.19158   -1024.2632     12.98638   -1011.2768 
   65400    330.92397   -1023.6493    13.174786   -1010.4745 
   65600    307.90198   -1024.3805    12.258232   -1012.1222 
   65800    338.24061    -1024.286    13.466077   -1010.8199 
   66000    332.53653   -1024.4692    13.238986   -1011.2302 
   66200    295.49281   -1024.0966    11.764197   -1012.3324 
   66400    355.73149   -1023.6997    14.162426   -1009.5372 
   66600    286.24278   -1023.9103    11.395933   -1012.5143 
   66800    340.02863   -1025.0818    13.537262   -1011.5446 
   67000    317.43566    -1023.632    12.637788   -1010.9942 
   67200    300.89068   -1023.4811    11.979097    -1011.502 
   67400     343.3444   -1024.1405     13.66927   -1010.4712 
   67600    307.12173    -1024.174    12.227169   -1011.9468 
   67800    341.26712   -1025.0231    13.586569   -1011.4365 
   68000    341.45099   -1024.3744    13.593889   -1010.7805 
   68200    325.00773   -1024.9557    12.939248   -1012.0164 
   68400    319.12141    -1023.854    12.704901   -1011.1491 
   68600     336.0804   -1024.0177    13.380075   -1010.6376 
   68800    315.25243   -1024.5043    12.550869   -1011.9535 
   69000    325.78933    -1024.662    12.970365   -1011.6916 
   69200    356.66129    -1024.562    14.199444   -1010.3626 
   69400    336.50999   -1024.3813    13.397178   -1010.9841 
   69600    306.66595   -1024.6988    12.209023   -1012.4898 
   69800    325.84527   -1024.1669    12.972593   -1011.1943 
   70000     336.2189   -1023.4465    13.385589    -1010.061 
   70200    326.87683   -1024.7139    13.013661   -1011.7002 
   70400    312.37803   -1024.6348    12.436433   -1012.1984 
   70600    307.96062   -1023.7462    12.260567   -1011.4856 
   70800    332.06078   -1024.1445    13.220045   -1010.9245 
   71000    322.90689   -1023.9525    12.855609   -1011.0969 
   71200    312.99939   -1023.5265    12.461171   -1011.0653 
   71400    342.58423   -1025.4638    13.639006   -1011.8248 
   71600    317.64156   -1025.4062    12.645985   -1012.7602 
   71800    348.92829   -1023.7473    13.891577   -1009.8557 
   72000     321.1071   -1022.8703    12.783956   -1010.0863 
   72200    304.38329   -1024.7389    12.118146   -1012.6208 
   72400    307.67819   -1024.1656    12.249322   -1011.9163 
   72600    364.24321   -1023.3661    14.501296   -1008.8648 
   72800    309.86804   -1023.8723    12.336505   -1011.5358 
   73000     329.4217   -1026.2219    13.114978    -1013.107 
   73200    333.53122   -1023.4501    13.278587   -1010.1715 
   73400    343.38805   -1023.9417    13.671008   -1010.2707 
   73600     310.7006   -1025.2666    12.369651   -1012.8969 
   73800    322.93864   -1024.2338    12.856873   -1011.3769 
   74000    337.33344   -1023.3774    13.429961   -1009.9474 
   74200    310.27098   -1025.2043    12.352547   -1012.8518 
   74400    315.69241   -1024.1619    12.568386   -1011.5935 
   74600    355.43945   -1023.2477      14.1508   -1009.0969 
   74800    295.94073   -1023.9038    11.782029   -1012.1217 
   75000    332.68207   -1025.1695     13.24478   -1011.9248 
   75200    340.10454   -1023.6114    13.540285   -1010.0711 
   75400    333.61496   -1022.8263     13.28192   -1009.5444 
   75600    326.37417   -1025.4841    12.993649   -1012.4905 
   75800    309.56575   -1024.3396     12.32447   -1012.0152 
   76000    331.61073   -1022.7718    13.202128   -1009.5697 
   76200    296.11129   -1023.2272     11.78882   -1011.4383 
   76400    333.38109   -1023.5176    13.272609    -1010.245 
   76600    321.43704   -1023.8555    12.797092   -1011.0584 
   76800    323.93968   -1025.2478    12.896727   -1012.3511 
   77000    333.21257   -1023.4487    13.265901   -1010.1828 
   77200    326.96652   -1023.5665    13.017232   -1010.5492 
   77400    346.01192    -1024.345     13.77547   -1010.5695 
   77600    314.04259   -1024.5209    12.502703   -1012.0182 
   77800    313.85602   -1023.7615    12.495275   -1011.2662 
   78000    352.03247   -1023.3542    14.015161    -1009.339 
   78200    323.83159   -1023.8831    12.892424   -1010.9907 
   78400    317.46122   -1024.5287    12.638806   -1011.8899 
   78600     314.4245    -1023.891    12.517908   -1011.3731 
   78800    354.65592   -1024.1089    14.119606   -1009.9893 
   79000    310.07951   -1024.1037    12.344924   -1011.7587 
   79200    340.60299   -1024.2247    13.560129   -1010.6646 
   79400    326.37602   -1024.5315    12.993723   -1011.5378 
   79600    324.80524    -1024.444    12.931187   -1011.5128 
   79800    343.96743   -1024.1312    13.694074   -1010.4371 
   80000    332.33463   -1023.5881    13.230948   -1010.3572 
   80200    337.28941   -1024.3132    13.428208    -1010.885 
   80400    315.23625    -1024.663    12.550225   -1012.1127 
   80600    335.51823   -1023.5633    13.357693   -1010.2056 
   80800    339.76893   -1023.3109    13.526923    -1009.784 
   81000    329.15053   -1023.8066    13.104182   -1010.7025 
   81200    333.88084   -1024.9588    13.292506   -1011.6662 
   81400    320.04963   -1024.4293    12.741856   -1011.6875 
   81600    341.00747   -1023.4218    13.576232   -1009.8455 
   81800    334.73729   -1024.5206    13.326603    -1011.194 
   82000    311.37556   -1023.2145    12.396523    -1010.818 
   82200    333.64123   -1023.8208    13.282966   -1010.5378 
   82400    324.59817   -1024.6181    12.922943   -1011.6952 
   82600    315.29597   -1023.6611    12.552602   -1011.1085 
   82800    337.40847   -1022.7919    13.432948    -1009.359 
   83000    310.83874    -1023.848    12.375151   -1011.4728 
   83200    322.86009   -1024.8439    12.853746   -1011.9902 
   83400    320.56124   -1023.6301    12.762224   -1010.8679 
   83600    349.00795   -1023.8865    13.894748   -1009.9918 
   83800    325.46711    -1024.173    12.957537   -1011.2155 
   84000    307.45284   -1024.5959    12.240351   -1012.3555 
   84200    350.31775   -1023.8174    13.946894   -1009.8705 
   84400    336.62934   -1023.1785    13.401929   -1009.7765 
   84600    323.42588   -1024.1375    12.876272   -1011.2612 
   84800    335.65482   -1024.6569    13.363132   -1011.2938 
   85000    342.02197   -1024.1146    13.616621    -1010.498 
   85200    337.03636   -1024.4701    13.418134    -1011.052 
   85400    331.53044   -1024.2323    13.198931   -1011.0333 
   85600    343.26558   -1023.6761    13.666132     -1010.01 
   85800    324.57642   -1024.8212    12.922077   -1011.8992 
   86000    340.45453   -1025.1312    13.554218    -1011.577 
   86200    344.97083   -1023.4789    13.734022   -1009.7449 
   86400    354.13002   -1024.5142    14.098668   -1010.4155 
   86600    314.80211   -1024.4581    12.532941   -1011.9252 
   86800    320.86256   -1023.4615     12.77422   -1010.6872 
   87000    340.94608   -1023.4741    13.573788   -1009.9003 
   87200    316.53209   -1024.2064    12.601815   -1011.6046 
   87400    327.61768    -1023.441    13.043156   -1010.3979 
   87600    331.39744   -1022.7662    13.193636   -1009.5725 
   87800    313.23427   -1024.6503    12.470522   -1012.1797 
   88000    309.37064   -1023.8731    12.316702   -1011.5564 
   88200    349.74152   -1023.1726    13.923953   -1009.2486 
   88400    346.34819   -1023.7103    13.788857   -1009.9214 
   88600     326.4697   -1025.4421    12.997452   -1012.4447 
   88800    305.23625   -1023.5483    12.152104   -1011.3962 
   89000    345.94881   -1023.3587    13.772957   -1009.5857 
   89200    314.98606   -1023.1003    12.540264     -1010.56 
   89400    337.80178   -1023.7638    13.448607   -1010.3152 
   89600    332.80205   -1024.4908    13.249557   -1011.2412 
   89800    321.85837   -1024.3206    12.813865   -1011.5068 
   90000    342.74973   -1023.6953    13.645595   -1010.0497 
   90200    334.81331   -1023.2136    13.329629    -1009.884 
   90400    348.31528   -1024.2155    13.867171   -1010.3483 
   90600    326.90314   -1025.0201    13.014709   -1012.0054 
   90800    329.46639   -1023.7461    13.116757   -1010.6294 
   91000    331.94048   -1022.4493    13.215256   -1009.2341 
   91200    310.57253   -1022.9421    12.364552   -1010.5776 
   91400    307.29494   -1024.3177    12.234064   -1012.0836 
   91600    333.65509   -1024.4665    13.283518    -1011.183 
   91800    342.32142   -1023.5225    13.628543    -1009.894 
   92000    324.33786   -1022.6878    12.912579   -1009.7752 
   92200    325.32201   -1024.0666     12.95176   -1011.1149 
   92400    328.12945   -1024.1889    13.063531   -1011.1253 
   92600    341.53363    -1023.341     13.59718   -1009.7438 
   92800    324.74785   -1023.8157    12.928902   -1010.8868 
   93000    334.88632   -1023.4653    13.332536   -1010.1327 
   93200    335.99488   -1023.9944     13.37667   -1010.6177 
   93400    320.46588   -1023.7775    12.758428   -1011.0191 
   93600    348.34109   -1023.5181    13.868199   -1009.6499 
   93800     325.4884    -1023.705    12.958385   -1010.7466 
   94000    335.19452   -1023.5801    13.344806   -1010.2353 
   94200    343.47042   -1024.9891    13.674287   -1011.3149 
   94400    314.34627   -1024.1518    12.514793    -1011.637 
   94600    356.28285   -1023.7261    14.184377   -1009.5417 
   94800    308.48713   -1023.1209    12.281528   -1010.8393 
   95000    350.20551   -1023.8324    13.942426     -1009.89 
   95200     305.9968   -1023.6938    12.182383   -1011.5114 
   95400    325.59021    -1023.498    12.962438   -1010.5356 
   95600    379.80348   -1023.2587    15.120784   -1008.1379 
   95800    321.01145   -1025.6494    12.780148   -1012.8693 
   96000    331.04069   -1024.5571    13.179433   -1011.3777 
   96200    349.11007    -1022.394    13.898813   -1008.4952 
   96400    345.17043   -1023.5681    13.741968   -1009.8261 
   96600    321.98733   -1024.2027       12.819   -1011.3837 
   96800    346.25354   -1024.5781    13.785089    -1010.793 
   97000    335.36267   -1023.4772      13.3515   -1010.1257 
   97200    335.51114    -1024.119    13.357411   -1010.7615 
   97400    325.03099   -1022.7383    12.940174   -1009.7981 
   97600    364.78483   -1023.4849    14.522859    -1008.962 
   97800    302.91321   -1023.5999    12.059618   -1011.5403 
   98000    323.96514    -1023.278    12.897741   -1010.3802 
   98200    362.24858   -1023.1706    14.421886   -1008.7487 
   98400    314.42523   -1024.0974    12.517936   -1011.5795 
   98600    338.83165   -1024.7683    13.489608   -1011.2787 
   98800    355.85368   -1023.6754    14.167291   -1009.5081 
   99000    319.49324   -1022.9644    12.719705   -1010.2447 
   99200    326.95373    -1022.603    13.016723   -1009.5863 
   99400    307.07018   -1023.1439    12.225116   -1010.9188 
   99600    328.30106   -1023.7327    13.070363   -1010.6623 
   99800    338.11275   -1023.8975    13.460987   -1010.4365 
  100000    330.72034   -1023.4579    13.166679   -1010.2913 
  100200    348.10382   -1023.1732    13.858753   -1009.3145 
  100400    341.39725   -1024.0527     13.59175   -1010.4609 
  100600    324.22243   -1024.5605    12.907984   -1011.6525 
  100800    333.99077   -1023.7616    13.296882   -1010.4647 
  101000    335.95557   -1023.1462    13.375105   -1009.7711 
  101200    340.29945    -1023.639    13.548044   -1010.0909 
  101400    325.28848   -1024.1972    12.950425   -1011.2468 
  101600    341.24667   -1023.1364    13.585755   -1009.5507 
  101800    334.84258   -1023.9307    13.330795   -1010.5999 
  102000    323.47974   -1023.5267    12.878416   -1010.6483 
  102200    349.19809   -1022.8434    13.902318   -1008.9411 
  102400    332.29075   -1024.3562    13.229201    -1011.127 
  102600    315.86607   -1024.2276    12.575299   -1011.6523 
  102800     355.7559   -1023.5546    14.163398   -1009.3912 
  103000    355.62756   -1022.6505    14.158289   -1008.4922 
  103200    336.25139   -1024.4483    13.386882   -1011.0614 
  103400    326.15957   -1024.0858    12.985105   -1011.1007 
  103600    340.80428   -1022.5488    13.568143   -1008.9807 
  103800    331.56265   -1023.0388    13.200213   -1009.8386 
  104000    333.90953   -1025.0653    13.293648   -1011.7717 
  104200     339.8766   -1022.9869     13.53121   -1009.4557 
  104400    356.17359   -1024.1493    14.180028   -1009.9693 
  104600    328.27197   -1024.7239    13.069205   -1011.6547 
  104800    339.85234   -1023.3161    13.530244   -1009.7859 
  105000    358.37367   -1023.3322    14.267617   -1009.0646 
  105200    349.11803   -1025.1874     13.89913   -1011.2882 
  105400    344.26283   -1024.6332    13.705835   -1010.9274 
  105600     326.5088   -1021.8372    12.999009   -1008.8382 
  105800    343.07979   -1022.7408    13.658735   -1009.0821 
  106000    328.15795   -1024.1923    13.064665   -1011.1276 
  106200    336.99296   -1024.1225    13.416406   -1010.7061 
  106400    337.01372   -1022.4939    13.417232   -1009.0766 
  106600    329.17251   -1023.4089    13.105057   -1010.3039 
  106800    329.53448   -1023.9026    13.119468   -1010.7831 
  107000    355.50413   -1023.0452    14.153375   -1008.8918 
  107200    321.91992    -1024.095    12.816316   -1011.2787 
  107400    341.63315   -1024.3131    13.601142   -1010.7119 
  107600    325.64479   -1022.5745    12.964611   -1009.6099 
  107800    348.09234   -1022.1416    13.858295   -1008.2834 
  108000    346.53232   -1023.8401    13.796188   -1010.0439 
  108200    320.05776   -1024.1595     12.74218   -1011.4174 
  108400    372.93987   -1023.8403    14.847529   -1008.9928 
  108600    361.20885   -1024.5257    14.380492   -1010.1452 
  108800    345.02732   -1023.9399    13.736271   -1010.2036 
  109000    345.87879   -1023.1783    13.770169   -1009.4082 
  109200    316.27403   -1024.0331    12.591541   -1011.4416 
  109400    342.95087   -1022.8683    13.653603   -1009.2147 
  109600    337.03415   -1022.1091    13.418046    -1008.691 
  109800    332.37621   -1025.1734    13.232603   -1011.9408 
  110000    333.58437   -1023.7191    13.280702   -1010.4384 
  110200     346.8598   -1022.8883    13.809225    -1009.079 
  110400    351.79232   -1023.5669      14.0056   -1009.5613 
  110600    345.02211   -1024.3022    13.736063   -1010.5661 
  110800    336.73221   -1024.1154    13.406025   -1010.7094 
  111000    342.24712   -1023.7157    13.625585   -1010.0901 
  111200    342.62987   -1022.8266    13.640823   -1009.1857 
  111400     356.3551   -1023.7834    14.187254   -1009.5962 
  111600    325.34279   -1024.0521    12.952588   -1011.0995 
  111800    326.16922   -1023.8875    12.985489    -1010.902 
  112000    347.03591   -1023.5994    13.816237   -1009.7832 
  112200    341.62206   -1022.9335      13.6007   -1009.3328 
  112400    352.00572   -1023.4638    14.014096   -1009.4498 
  112600     326.7894   -1023.7438     13.01018   -1010.7336 
  112800    322.63433   -1023.6877    12.844758    -1010.843 
  113000    355.67517   -1023.5311    14.160184   -1009.3709 
  113200    356.50261   -1022.9179    14.193126   -1008.7248 
  113400    360.10197   -1023.5791    14.336424   -1009.2427 
  113600    306.99778   -1023.8873    12.222234   -1011.6651 
  113800    355.85364   -1023.9967     14.16729   -1009.8294 
  114000    342.53212   -1021.9932    13.636932   -1008.3563 
  114200    328.95781   -1023.7066    13.096509   -1010.6101 
  114400    339.46295   -1023.3507    13.514741   -1009.8359 
  114600    362.87804   -1024.1174    14.446946   -1009.6705 
  114800    333.62163   -1024.4482    13.282186    -1011.166 
  115000    330.78502   -1023.1761    13.169254   -1010.0068 
  115200    351.13799      -1022.3    13.979549   -1008.3205 
  115400    335.70227    -1023.636    13.365021    -1010.271 
  115600    343.45486   -1023.9192    13.673668   -1010.2455 
  115800    372.93118   -1023.8259    14.847183   -1008.9788 
  116000    339.56064    -1023.856     13.51863   -1010.3373 
  116200    321.90701    -1023.999    12.815802   -1011.1832 
  116400    342.35029   -1022.4417    13.629693    -1008.812 
  116600    341.08699   -1022.5667    13.579398   -1008.9873 
  116800    322.37898   -1024.0474    12.834592   -1011.2128 
  117000       352.56   -1023.3155    14.036163   -1009.2793 
  117200    357.57376   -1023.4376    14.235771   -1009.2019 
  117400    346.11628   -1024.0281    13.779625   -1010.2485 
  117600    339.70103   -1023.6313     13.52422    -1010.107 
  117800    363.21044   -1023.8631    14.460179    -1009.403 
  118000    347.19337    -1023.812    13.822506   -1009.9895 
  118200    326.81928   -1023.8314     13.01137     -1010.82 
  118400    355.20494   -1022.9691    14.141463   -1008.8276 
  118600     373.8036   -1024.1724    14.881915   -1009.2905 
  118800    337.35889   -1024.5393    13.430974   -1011.1083 
  119000    367.32925   -1023.5188    14.624158   -1008.8947 
  119200    337.54983   -1023.0026    13.438576   -1009.5641 
  119400    325.79347   -1023.3843     12.97053   -1010.4138 
  119600    353.39758   -1023.1373    14.069509   -1009.0678 
  119800     332.9042   -1022.5786    13.253624    -1009.325 
  120000    366.06871   -1024.5989    14.573973   -1010.0249 
  120200    319.41051   -1024.1747    12.716411   -1011.4583 
  120400      359.861   -1022.7033    14.326831   -1008.3765 
  120600      347.368   -1022.2369    13.829458   -1008.4074 
  120800    317.39787   -1024.0235    12.636284   -1011.3873 
  121000    339.16287   -1023.3463    13.502794   -1009.8435 
  121200    352.33115   -1022.4321    14.027052   -1008.4051 
  121400    335.80829   -1022.3854    13.369242   -1009.0162 
  121600    322.46418   -1023.0469    12.837984   -1010.2089 
  121800      347.329   -1023.5302    13.827906   -1009.7023 
  122000    331.01509   -1022.6779    13.178414   -1009.4995 
  122200    332.55167   -1022.7018    13.239589   -1009.4623 
  122400    346.10964   -1023.3535     13.77936   -1009.5742 
  122600    347.88423   -1023.1727     13.85001   -1009.3227 
  122800    353.74234   -1022.9275    14.083234   -1008.8442 
  123000    332.65427   -1023.9902    13.243673   -1010.7465 
  123200    334.41318   -1022.9571    13.313699   -1009.6434 
  123400    350.01599   -1022.2441     13.93488   -1008.3092 
  123600    319.22886   -1023.8214    12.709179   -1011.1122 
  123800    352.97755   -1023.5567    14.052786   -1009.5039 
  124000    366.88361    -1022.727    14.606416   -1008.1206 
  124200    327.81498   -1024.4002    13.051011   -1011.3492 
  124400    367.92373   -1023.9991    14.647826   -1009.3513 
  124600    359.69493   -1022.6539     14.32022   -1008.3337 
  124800    331.02564   -1023.7339    13.178834   -1010.5551 
  125000    346.42176   -1024.5239    13.791786   -1010.7321 
  125200    354.95474    -1022.285    14.131502   -1008.1535 
  125400    349.36768   -1022.7681    13.909069    -1008.859 
  125600    330.53399   -1024.3339     13.15926   -1011.1746 
  125800    322.58373   -1022.5859    12.842744   -1009.7432 
  126000    339.11683   -1022.5306    13.500962   -1009.0297 
  126200    332.42088   -1023.1122    13.234381   -1009.8778 
  126400    329.78504   -1023.1192    13.129443   -1009.9897 
  126600    329.51659   -1021.9441    13.118755   -1008.8254 
  126800    325.89265   -1022.6055    12.974479    -1009.631 
  127000    338.63129   -1023.0872    13.481631   -1009.6056 
  127200    380.11736    -1023.287     15.13328   -1008.1537 
  127400    323.83678   -1023.4315     12.89263   -1010.5389 
  127600    354.10712   -1024.3327    14.097757   -1010.2349 
  127800    381.69162   -1023.5791    15.195954   -1008.3831 
  128000    336.75158   -1023.7394    13.406796   -1010.3326 
  128200     359.7037   -1023.4407    14.320569   -1009.1201 
  128400    339.05867   -1023.7196    13.498646    -1010.221 
  128600    358.21385   -1023.8808    14.261254   -1009.6195 
  128800    349.38059   -1022.5038    13.909583   -1008.5943 
  129000    351.02862   -1024.2524    13.975195   -1010.2772 
  129200    342.86531   -1022.5658    13.650197   -1008.9156 
  129400    349.51383   -1023.4109    13.914888   -1009.4961 
  129600    336.72572   -1023.2452    13.405766   -1009.8394 
  129800    354.13744   -1022.8241    14.098964   -1008.7252 
  130000    349.04781   -1023.4474    13.896335    -1009.551 
  130200    326.64235   -1023.8608    13.004326   -1010.8564 
  130400    353.57453   -1023.3051    14.076553   -1009.2285 
  130600    358.84425   -1023.1134    14.286352   -1008.8271 
  130800    323.45653   -1023.1012    12.877492   -1010.2237 
  131000    334.83513   -1022.8483    13.330498   -1009.5178 
  131200     335.1451   -1022.7469    13.342839   -1009.4041 
  131400    339.88862   -1022.9863    13.531688   -1009.4546 
  131600    336.87416   -1023.0431    13.411676   -1009.6314 
  131800    345.44063   -1023.2699    13.752725   -1009.5172 
  132000     365.8828   -1023.8087    14.566572   -1009.2421 
  132200    315.28947   -1022.7164    12.552344    -1010.164 
  132400    356.94734    -1022.965    14.210832   -1008.7541 
  132600    346.59921   -1023.1488    13.798851     -1009.35 
  132800    330.40695   -1023.8777    13.154203   -1010.7234 
  133000     371.0808   -1023.5596    14.773515   -1008.7861 
  133200    320.55619   -1022.7908    12.762023   -1010.0288 
  133400     346.3737   -1023.3102    13.789873   -1009.5203 
  133600    361.52501    -1022.682    14.393079   -1008.2889 
  133800    335.85833     -1024.15    13.371234   -1010.7788 
  134000    351.29956   -1023.9309    13.985982   -1009.9449 
  134200    368.85152   -1022.3772    14.684762   -1007.6924 
  134400     347.7943   -1023.1158     13.84643   -1009.2694 
  134600    337.52351   -1023.4916    13.437528    -1010.054 
  134800    356.10013    -1023.762    14.177103   -1009.5849 
  135000    347.50369   -1023.1827     13.83486   -1009.3478 
  135200     345.7433   -1023.3669    13.764775   -1009.6021 
  135400    374.50942   -1023.2161    14.910016   -1008.3061 
  135600    362.64223   -1023.8339    14.437558   -1009.3963 
  135800    318.31753   -1023.8484    12.672897   -1011.1755 
  136000    350.43052    -1023.201    13.951384   -1009.2496 
  136200    359.94228   -1021.7065    14.330067   -1007.3765 
  136400    350.37785   -1023.3637    13.949286   -1009.4144 
  136600    336.42762   -1023.6413    13.393898   -1010.2474 
  136800    369.50819   -1023.7285    14.710906   -1009.0176 
  137000    342.39352   -1023.1524    13.631413    -1009.521 
  137200    374.13157   -1023.6265    14.894973   -1008.7315 
  137400    374.03446   -1022.5267    14.891106   -1007.6356 
  137600    333.46953   -1022.9627     13.27613   -1009.6866 
  137800    349.33527   -1023.9806    13.907779   -1010.0729 
  138000    344.98358   -1022.6288    13.734529   -1008.8943 
  138200    354.24875   -1022.5599    14.103395   -1008.4565 
  138400    369.52643   -1023.3828    14.711632   -1008.6712 
  138600    325.14373   -1023.2029    12.944663   -1010.2583 
  138800    351.99438   -1023.1382    14.013644   -1009.1246 
  139000    358.16552   -1022.8424     14.25933   -1008.5831 
  139200     358.1925   -1023.6959    14.260404   -1009.4355 
  139400    337.26188   -1023.6991    13.427112    -1010.272 
  139600    361.78528   -1022.9594    14.403441    -1008.556 
  139800      328.018   -1022.4295    13.059094   -1009.3704 
  140000    362.97044   -1023.4659    14.450624   -1009.0152 
  140200    348.23402   -1023.0296    13.863936   -1009.1657 
  140400    323.33999   -1023.4898    12.872852    -1010.617 
  140600    371.62259   -1022.9071    14.795085   -1008.1121 
  140800    360.81085   -1023.2757    14.364647   -1008.9111 
  141000    339.21064    -1024.117    13.504696   -1010.6123 
  141200    354.66376   -1022.4918    14.119918   -1008.3718 
  141400    368.41792   -1023.1967      14.6675   -1008.5292 
  141600    324.16682   -1023.8462     12.90577   -1010.9404 
  141800    371.42661   -1023.8334    14.787282   -1009.0461 
  142000    352.00753   -1022.3608    14.014168   -1008.3466 
  142200    346.20112   -1023.2378    13.783002   -1009.4548 
  142400    362.36428   -1023.3859    14.426492   -1008.9594 
  142600    344.42988   -1022.8517    13.712485   -1009.1392 
  142800    354.01843   -1022.1358    14.094226   -1008.0416 
  143000    314.74909    -1022.196     12.53083   -1009.6652 
  143200    337.31588   -1023.5148    13.429262   -1010.0855 
  143400    340.09497   -1022.2161    13.539903   -1008.6762 
  143600    378.28755   -1022.9645    15.060431   -1007.9041 
  143800    335.84755    -1023.494    13.370805   -1010.1232 
  144000    350.91315   -1023.2339    13.970598   -1009.2633 
  144200    375.09204   -1023.8482    14.933211    -1008.915 
  144400    350.44445   -1024.0156    13.951938   -1010.0637 
  144600    335.87715   -1021.5704    13.371983   -1008.1984 
  144800    347.26632   -1022.0398     13.82541   -1008.2144 
  145000    364.46514   -1024.2887    14.510132   -1009.7786 
  145200    338.13201   -1024.0859    13.461754   -1010.6241 
  145400    365.71671   -1022.2812    14.559959   -1007.7212 
  145600    368.24876   -1022.8987    14.660766   -1008.2379 
  145800    327.65296   -1023.6388     13.04456   -1010.5943 
  146000    355.02577   -1022.4319     14.13433   -1008.2975 
  146200    348.94985   -1022.3058    13.892435   -1008.4133 
  146400    368.84415   -1024.1239    14.684469   -1009.4394 
  146600    373.54401   -1023.9256    14.871581    -1009.054 
  146800    352.48743   -1022.2501    14.033273   -1008.2168 
  147000    366.06092   -1023.4901    14.573663   -1008.9164 
  147200    337.35021   -1023.1008    13.430629   -1009.6702 
  147400    362.62116   -1022.2978    14.436719   -1007.8611 
  147600    333.44049   -1022.1586    13.274975   -1008.8836 
  147800    360.93352   -1024.2743     14.36953   -1009.9048 
  148000    347.08274   -1023.4384    13.818101   -1009.6203 
  148200    359.80559   -1021.6722    14.324625   -1007.3475 
  148400    358.35015   -1022.2491    14.266681   -1007.9824 
  148600    328.99582   -1023.5076    13.098023   -1010.4096 
  148800    364.73551   -1023.5522    14.520896   -1009.0313 
  149000    354.20598   -1022.9215    14.101693   -1008.8198 
  149200    346.41711   -1021.7272    13.791601   -1007.9356 
  149400    357.18154   -1022.0382    14.220156    -1007.818 
  149600    359.42812   -1024.4862    14.309597   -1010.1766 
  149800    385.13693   -1023.6243     15.33312   -1008.2911 
  150000    353.08574   -1023.6534    14.057093   -1009.5963 
  150200    346.12743   -1023.2611    13.780068    -1009.481 
  150400    368.74001   -1021.0506    14.680323   -1006.3703 
  150600    340.38083   -1023.1144    13.551284   -1009.5631 
  150800    337.72508   -1024.2625    13.445553    -1010.817 
  151000    358.28808   -1022.6651     14.26421   -1008.4009 
  151200    371.47029   -1020.9636    14.789022   -1006.1746 
  151400    369.33804   -1023.6679    14.704132   -1008.9638 
  151600    329.59689   -1024.1112    13.121952   -1010.9892 
  151800    344.20691   -1021.4037    13.703608      -1007.7 
  152000    363.76391    -1021.706    14.482214   -1007.2238 
  152200    355.23499   -1023.6285     14.14266   -1009.4859 
  152400    355.10305   -1023.3147    14.137407   -1009.1773 
  152600    387.57312   -1023.8454    15.430109   -1008.4153 
  152800    329.27826   -1022.4032    13.109267    -1009.294 
  153000    354.17902   -1022.6586    14.100619    -1008.558 
  153200    341.06245   -1022.1136    13.578421   -1008.5352 
  153400    342.64113   -1022.2203    13.641271    -1008.579 
  153600    330.49236   -1023.5828    13.157603   -1010.4252 
  153800    335.96308   -1022.9959    13.375404   -1009.6205 
  154000    387.07711   -1021.9101    15.410362   -1006.4997 
  154200    328.78592   -1022.3086    13.089666   -1009.2189 
  154400     345.8593   -1023.5754    13.769393    -1009.806 
  154600    360.61855   -1022.2253    14.356991   -1007.8683 
  154800    369.59989   -1023.4978    14.714557   -1008.7832 
  155000    354.63392    -1023.277     14.11873   -1009.1583 
  155200    370.16909    -1021.435    14.737218   -1006.6978 
  155400    331.97867     -1021.54    13.216776   -1008.3232 
  155600    331.57549     -1024.11    13.200725   -1010.9093 
  155800    361.86122   -1022.7611    14.406464   -1008.3546 
  156000    390.50022   -1022.3789    15.546644   -1006.8323 
  156200    360.45824    -1024.369    14.350608   -1010.0184 
  156400    344.65461   -1024.0593    13.721432   -1010.3379 
  156600    391.26342   -1021.9851    15.577028   -1006.4081 
  156800    355.35778   -1022.8714    14.147548   -1008.7239 
  157000    323.98341   -1023.6058    12.898468   -1010.7074 
  157200    396.57221   -1022.6215    15.788382   -1006.8331 
  157400    352.13486   -1022.2092    14.019237   -1008.1899 
  157600     331.7392   -1023.3083    13.207242    -1010.101 
  157800    357.00533   -1022.1467    14.213141   -1007.9335 
  158000    371.30694   -1022.0519    14.782518   -1007.2694 
  158200    341.85484   -1023.0808    13.609968   -1009.4708 
  158400    343.02414   -1023.2911     13.65652   -1009.6346 
  158600    390.81372    -1022.417    15.559125   -1006.8579 
  158800    347.75996   -1022.2384    13.845063   -1008.3933 
  159000     336.3135    -1023.478    13.389355   -1010.0886 
  159200    383.74558   -1023.1193    15.277727   -1007.8416 
  159400    362.09752   -1022.1784    14.415872   -1007.7625 
  159600     352.4635   -1023.3232    14.032321   -1009.2909 
  159800    352.27374   -1022.5965    14.024766   -1008.5718 
  160000    366.47056   -1022.2748    14.589972   -1007.6849 
  160200    336.73148   -1022.7345    13.405996   -1009.3285 
  160400    364.37866   -1022.4086    14.506689   -1007.9019 
  160600    391.26681   -1022.6186    15.577163   -1007.0415 
  160800    326.79601   -1022.9308    13.010443   -1009.9204 
  161000    346.91841   -1022.6936    13.811559   -1008.8821 
  161200    360.13708   -1021.4947    14.337823   -1007.1569 
  161400    370.10818   -1022.4239    14.734793   -1007.6891 
  161600    349.24103   -1022.8124    13.904027   -1008.9083 
  161800    344.46127   -1023.1892    13.713735   -1009.4755 
  162000    370.97677   -1022.8876    14.769374   -1008.1183 
  162200    345.82109   -1022.6772    13.767872   -1008.9094 
  162400    341.18067   -1022.1499    13.583128   -1008.5667 
  162600    394.95595   -1022.7763    15.724035   -1007.0523 
  162800    341.42169   -1024.3808    13.592723    -1010.788 
  163000    360.64656    -1022.899    14.358106   -1008.5409 
  163200    386.34776   -1022.4255    15.381325   -1007.0442 
  163400    368.93607   -1023.1218    14.688129   -1008.4337 
  163600    363.89471   -1024.0289    14.487422   -1009.5414 
  163800     355.7334     -1022.95    14.162502   -1008.7875 
  164000    375.59547   -1023.1057    14.953254   -1008.1524 
  164200    356.78701   -1022.6545    14.204449     -1008.45 
  164400     361.4591   -1023.0329    14.390455   -1008.6425 
  164600    355.74478   -1022.1947    14.162955   -1008.0318 
  164800     349.2918   -1022.2171    13.906049   -1008.3111 
  165000    329.35281   -1021.6626    13.112235   -1008.5504 
  165200    361.19194   -1022.0969    14.379819   -1007.7171 
  165400    356.09363   -1023.1983    14.176844   -1009.0215 
  165600    352.52601   -1022.3948    14.034809     -1008.36 
  165800    377.84916   -1022.7372    15.042978   -1007.6942 
  166000    371.92299   -1023.3668    14.807044   -1008.5598 
  166200    383.16525   -1023.2522    15.254623   -1007.9976 
  166400    358.92518   -1022.7082    14.289574   -1008.4186 
  166600    327.50643   -1023.2331    13.038727   -1010.1944 
  166800    360.76279   -1021.8896    14.362733   -1007.5269 
  167000    379.18617    -1021.929    15.096207   -1006.8328 
  167200     336.8745   -1023.1309     13.41169   -1009.7192 
  167400    347.71083   -1021.8498    13.843107   -1008.0067 
  167600    370.74449   -1022.0002    14.760126   -1007.2401 
  167800    344.55631   -1023.4377    13.717519   -1009.7202 
  168000     358.7192   -1022.1124    14.281374    -1007.831 
  168200    376.70121    -1021.762    14.997276   -1006.7647 
  168400    340.44454   -1023.2751    13.553821   -1009.7212 
  168600    347.43636   -1023.4048     13.83218   -1009.5726 
  168800    388.09335   -1021.2417    15.450821   -1005.7908 
  169000    368.24582    -1023.256    14.660648   -1008.5953 
  169200    336.56378   -1023.6717    13.399319   -1010.2723 
  169400    348.50412   -1020.5296    13.874689    -1006.655 
  169600    358.95451    -1022.755    14.290742   -1008.4642 
  169800    354.59117   -1023.7995    14.117028   -1009.6825 
  170000    377.10628    -1021.351    15.013402   -1006.3376 
  170200    352.41734   -1022.7847    14.030483   -1008.7542 
  170400    359.87054   -1023.3263    14.327211    -1008.999 
  170600    383.82565   -1022.4529    15.280914    -1007.172 
  170800    348.74744   -1022.7345    13.884377   -1008.8501 
  171000    366.65468   -1021.4403    14.597302    -1006.843 
  171200    343.60556   -1022.2735    13.679668   -1008.5939 
  171400    363.07382   -1023.0573     14.45474   -1008.6025 
  171600    360.84402   -1022.2586    14.365967   -1007.8927 
  171800    336.04526   -1021.6269    13.378676   -1008.2482 
  172000    365.34787   -1021.9518    14.545275   -1007.4065 
  172200    359.47292   -1022.2928    14.311381   -1007.9814 
  172400    351.14814   -1023.1305    13.979954   -1009.1505 
  172600    358.99032   -1022.8196    14.292167   -1008.5275 
  172800    369.36347   -1022.5928    14.705144   -1007.8876 
  173000    364.84364   -1022.4003    14.525201   -1007.8751 
  173200     363.5334   -1023.2289    14.473037   -1008.7558 
  173400    363.77647   -1022.1127    14.482714     -1007.63 
  173600    352.21388    -1021.594    14.022383   -1007.5716 
  173800    356.61518   -1022.9127    14.197608   -1008.7151 
  174000    352.37192   -1021.7263    14.028675   -1007.6976 
  174200    374.28484   -1022.4322    14.901075   -1007.5312 
  174400    368.90629   -1023.9179    14.686943    -1009.231 
  174600    366.18762   -1022.4646    14.578707   -1007.8859 
  174800    351.79039   -1022.0858    14.005523   -1008.0802 
  175000    376.99208   -1023.1847    15.008856   -1008.1758 
  175200    353.95908   -1022.4143    14.091863   -1008.3225 
  175400    345.03294   -1022.6745    13.736494    -1008.938 
  175600    398.94981   -1022.6305    15.883039   -1006.7474 
  175800    366.88679    -1021.588    14.606542   -1006.9815 
  176000    350.45397   -1023.0106    13.952317   -1009.0583 
  176200    357.81599   -1021.9732    14.245415   -1007.7278 
  176400    350.03338   -1021.4495    13.935572    -1007.514 
  176600    361.19396   -1022.9816    14.379899   -1008.6017 
  176800    349.68459   -1021.8267    13.921687    -1007.905 
  177000    377.18779   -1021.8438    15.016647   -1006.8272 
  177200    367.77734   -1023.5384    14.641997   -1008.8964 
  177400     348.3728   -1022.3967    13.869462   -1008.5272 
  177600    368.95933   -1021.5561    14.689055    -1006.867 
  177800    354.67557   -1022.4403    14.120388     -1008.32 
  178000    342.24912   -1023.5984    13.625665   -1009.9727 
  178200    372.58743   -1022.0375    14.833497    -1007.204 
  178400    396.10798   -1021.6315      15.7699   -1005.8616 
  178600    359.59268   -1023.9641    14.316148   -1009.6479 
  178800    382.40283   -1023.5639    15.224269   -1008.3396 
  179000    411.41838   -1022.6288     16.37944   -1006.2494 
  179200     368.9662    -1023.854    14.689328   -1009.1646 
  179400    341.37692   -1022.4757    13.590941   -1008.8848 
  179600    413.05863   -1022.4325    16.444742   -1005.9878 
  179800    361.27364   -1022.8424    14.383071   -1008.4593 
  180000    354.14254    -1022.193    14.099167   -1008.0938 
  180200    368.97677   -1021.7003    14.689749   -1007.0106 
  180400    357.69809   -1022.8888    14.240721   -1008.6481 
  180600    370.63016   -1022.7208    14.755574   -1007.9653 
  180800    404.86631   -1023.4908    16.118588   -1007.3722 
  181000    349.84555   -1021.6503    13.928094   -1007.7222 
  181200    397.03611   -1022.6349    15.806851   -1006.8281 
  181400    356.43201   -1023.0828    14.190316   -1008.8925 
  181600    386.26909   -1023.5339    15.378193   -1008.1557 
  181800    388.59945   -1022.9541     15.47097   -1007.4832 
  182000    360.88455   -1022.8738    14.367581   -1008.5063 
  182200     402.6886   -1024.3254    16.031889   -1008.2936 
  182400    358.63875   -1022.6011    14.278171   -1008.3229 
  182600    369.74721   -1021.9858    14.720422   -1007.2654 
  182800    358.39663   -1022.0652    14.268531   -1007.7967 
  183000    379.76521   -1022.2596     15.11926   -1007.1404 
  183200    371.56503   -1022.8919    14.792793   -1008.0991 
  183400    346.81576   -1023.7965    13.807472    -1009.989 
  183600    403.68791   -1021.8809    16.071673   -1005.8092 
  183800    377.54017   -1022.2422    15.030676   -1007.2116 
  184000    346.90024   -1022.7231    13.810836   -1008.9123 
  184200    382.02237   -1022.1262    15.209122    -1006.917 
  184400    347.55848   -1022.2018    13.837042   -1008.3647 
  184600    337.06134   -1021.8585    13.419128   -1008.4394 
  184800    373.09117   -1021.1367    14.853552   -1006.2831 
  185000    342.70359   -1021.2134    13.643758   -1007.5697 
  185200    358.46308   -1022.1761    14.271177   -1007.9049 
  185400    345.93924   -1021.9783    13.772576   -1008.2057 
  185600    356.76716    -1022.149    14.203659   -1007.9454 
  185800    401.35606   -1022.6039    15.978837   -1006.6251 
  186000    365.60701   -1022.8046    14.555592    -1008.249 
  186200     355.1265   -1023.5303     14.13834   -1009.3919 
  186400    387.87533   -1022.1894    15.442141   -1006.7473 
  186600    374.11888   -1022.1853    14.894468   -1007.2908 
  186800    345.48377   -1022.4155    13.754443    -1008.661 
  187000    390.29728   -1021.7863    15.538564   -1006.2478 
  187200    349.68243   -1022.7006    13.921601    -1008.779 
  187400    365.10663   -1023.3001    14.535671   -1008.7644 
  187600    384.45466   -1021.8601    15.305957   -1006.5542 
  187800    343.40729   -1021.3754    13.671774   -1007.7036 
  188000    343.87142   -1022.1139    13.690252   -1008.4237 
  188200    369.73661   -1022.6969        14.72   -1007.9769 
  188400     357.1562   -1021.5224    14.219147   -1007.3032 
  188600    340.67988   -1021.8605     13.56319   -1008.2974 
  188800    363.65258   -1022.7374    14.477782   -1008.2596 
  189000    379.10114   -1022.5543    15.092822   -1007.4615 
  189200    375.42078   -1022.9818    14.946299   -1008.0355 
  189400    372.18689   -1023.0096    14.817551   -1008.1921 
  189600    397.56665   -1021.8896    15.827973   -1006.0616 
  189800    363.02755   -1022.8349    14.452898    -1008.382 
  190000    344.11054   -1023.3529    13.699772   -1009.6531 
  190200    402.14501   -1022.0113    16.010247    -1006.001 
  190400    371.28307   -1022.8252    14.781568   -1008.0436 
  190600    370.59834   -1022.7734    14.754307   -1008.0191 
  190800    398.14985   -1023.3245    15.851191   -1007.4733 
  191000    351.21788   -1021.8294     13.98273   -1007.8467 
  191200    381.24983   -1022.2441    15.178366   -1007.0657 
  191400    364.81517   -1023.2997    14.524067   -1008.7757 
  191600    369.32607   -1022.0836    14.703656   -1007.3799 
  191800    379.20607   -1022.0092    15.096999   -1006.9122 
  192000    354.40509   -1022.8456     14.10962    -1008.736 
  192200    398.51742   -1022.3045    15.865825   -1006.4387 
  192400    369.92573   -1021.9485    14.727529    -1007.221 
  192600    373.77477   -1023.6666    14.880768   -1008.7858 
  192800    393.59246   -1022.8475    15.669752   -1007.1777 
  193000    360.14713   -1022.1006    14.338222   -1007.7623 
  193200    366.28681   -1022.5404    14.582656   -1007.9577 
  193400    389.60209   -1022.5802    15.510887   -1007.0694 
  193600    358.36754   -1021.8245    14.267373   -1007.5571 
  193800    382.29175   -1023.4525    15.219847   -1008.2326 
  194000    377.43558   -1023.4615    15.026512    -1008.435 
  194200    376.72738   -1021.8774    14.998317   -1006.8791 
  194400    375.93749   -1021.9305     14.96687   -1006.9636 
  194600     362.6208   -1022.8652    14.436705   -1008.4285 
  194800    349.73173   -1021.8472    13.923563   -1007.9237 
  195000     388.0915   -1022.2831    15.450747   -1006.8323 
  195200    368.71579   -1022.7521    14.679359   -1008.0727 
  195400    344.83462   -1022.1117    13.728599   -1008.3831 
  195600    387.29908   -1021.8009    15.419199   -1006.3817 
  195800    352.32968   -1021.2354    14.026993   -1007.2084 
  196000    369.20141   -1022.8266    14.698693   -1008.1279 
  196200    379.50358   -1022.7306    15.108844   -1007.6218 
  196400    384.00895   -1021.7966    15.288212   -1006.5084 
  196600    367.59482   -1022.5693    14.634731   -1007.9346 
  196800    358.69216   -1022.8429    14.280297   -1008.5626 
  197000    388.96434   -1021.4395    15.485497    -1005.954 
  197200    358.10307   -1021.8091    14.256844   -1007.5523 
  197400    342.62664   -1022.9388    13.640694   -1009.2981 
  197600    381.93026   -1021.4472    15.205455   -1006.2418 
  197800    373.31454   -1021.5532    14.862445   -1006.6908 
  198000    346.52355   -1022.8195    13.795839   -1009.0237 
  198200    378.43767   -1023.1698    15.066408   -1008.1033 
  198400     386.2336   -1020.6351     15.37678   -1005.2583 
  198600    352.10642   -1021.6146    14.018105   -1007.5965 
  198800    345.32252   -1022.3734    13.748023   -1008.6254 
  199000    371.00101   -1021.1683    14.770338    -1006.398 
  199200    381.46754   -1021.6402    15.187033   -1006.4531 
  199400    360.34884   -1022.9226    14.346253   -1008.5764 
  199600    370.73675   -1021.7023    14.759818   -1006.9425 
  199800    376.37734    -1020.861    14.984382   -1005.8766 
  200000    361.31062   -1023.2199    14.384543   -1008.8354 
  200200    360.30595   -1022.4419    14.344545   -1008.0973 
  200400    382.01145   -1021.2297    15.208688    -1006.021 
  200600     380.2178    -1022.798    15.137278   -1007.6607 
  200800    367.19231   -1022.9769    14.618706   -1008.3582 
  201000    374.93319   -1020.8973    14.926887   -1005.9704 
  201200    363.12234   -1021.2505    14.456672   -1006.7938 
  201400    355.77054   -1023.4224    14.163981   -1009.2584 
  201600     372.5496   -1021.7558    14.831991   -1006.9238 
  201800    379.35961   -1020.8925    15.103112   -1005.7893 
  202000    345.31241   -1022.4739    13.747621   -1008.7263 
  202200    348.60685   -1021.3058    13.878779    -1007.427 
  202400    368.32507   -1020.5676    14.663804   -1005.9038 
  202600    368.24379   -1022.3755    14.660568   -1007.7149 
  202800    369.51499   -1022.4545    14.711177   -1007.7433 
  203000    366.76499   -1021.4476    14.601693   -1006.8459 
  203200    383.13915   -1021.7893    15.253584   -1006.5358 
  203400    369.77238   -1022.7436    14.721424   -1008.0221 
  203600    381.54669   -1023.5703    15.190185   -1008.3801 
  203800    392.44553    -1021.421     15.62409   -1005.7969 
  204000    365.67143   -1021.0824    14.558157   -1006.5243 
  204200    358.34612   -1022.9153     14.26652   -1008.6488 
  204400    375.96667   -1023.0317    14.968032   -1008.0636 
  204600    404.95247   -1021.2052    16.122018   -1005.0832 
  204800     391.3299   -1022.5789    15.579675   -1006.9992 
  205000    359.18656   -1023.2298     14.29998   -1008.9298 
  205200    377.76025   -1021.7735    15.039438    -1006.734 
  205400     380.1257   -1021.5129    15.133612   -1006.3793 
  205600    368.02874   -1022.2859    14.652006   -1007.6339 
  205800    366.79138   -1021.5449    14.602744   -1006.9422 
  206000    376.99717   -1021.9457    15.009058   -1006.9366 
  206200    398.71268   -1023.0549    15.873599   -1007.1813 
  206400    360.83524   -1022.8861    14.365618   -1008.5205 
  206600    365.94309   -1021.8779    14.568972   -1007.3089 
  206800    402.58969   -1021.5538    16.027951   -1005.5258 
  207000    372.25956   -1022.9874    14.820444   -1008.1669 
  207200    382.33716   -1023.2417    15.221655   -1008.0201 
  207400    359.37601   -1020.6905    14.307522    -1006.383 
  207600    390.20375   -1021.6678     15.53484    -1006.133 
  207800    354.22213    -1022.641    14.102336   -1008.5387 
  208000     371.9844   -1020.9086    14.809489   -1006.0991 
  208200     370.3659   -1020.8494    14.745053   -1006.1043 
  208400    341.06178   -1022.9398    13.578394   -1009.3614 
  208600    382.18131   -1021.7283     15.21545   -1006.5129 
  208800    393.11078   -1021.2279    15.650575   -1005.5773 
  209000      366.901   -1022.6965    14.607108   -1008.0894 
  209200    360.57045   -1023.1544    14.355076   -1008.7994 
  209400    393.49149   -1021.9355    15.665732   -1006.2698 
  209600    390.64513   -1021.2245    15.552413   -1005.6721 
  209800     345.3103   -1021.3305    13.747537   -1007.5829 
  210000    386.22055   -1021.9676    15.376261   -1006.5913 
  210200    380.88476    -1021.788    15.163832   -1006.6242 
  210400    326.22801   -1021.4872     12.98783   -1008.4993 
  210600     370.7759   -1021.5135    14.761376   -1006.7521 
  210800    372.79776   -1021.1203    14.841871   -1006.2784 
  211000    340.93247   -1021.0476    13.573246   -1007.4744 
  211200    383.24918   -1022.2951    15.257964   -1007.0372 
  211400    384.41525   -1021.5977    15.304388   -1006.2933 
  211600    365.53566   -1021.7427    14.552751     -1007.19 
  211800    337.14368    -1022.101    13.422406   -1008.6786 
  212000    366.67492   -1020.6002    14.598108   -1006.0021 
  212200    377.58074   -1020.6466    15.032292   -1005.6143 
  212400    358.44413   -1021.9723    14.270422   -1007.7019 
  212600    395.60026   -1021.7522    15.749687   -1006.0025 
  212800    373.75752   -1021.0717    14.880081   -1006.1916 
  213000    351.43742   -1022.1291     13.99147   -1008.1376 
  213200    392.45045   -1023.4422    15.624286   -1007.8179 
  213400    376.90069   -1021.2724    15.005217   -1006.2672 
  213600    362.07528   -1021.0964    14.414986   -1006.6814 
  213800    368.65715   -1022.0617    14.677024   -1007.3847 
  214000    378.21811   -1021.9534    15.057667   -1006.8958 
  214200    388.08543   -1022.0022    15.450506   -1006.5517 
  214400    375.80912   -1022.2351    14.961759   -1007.2734 
  214600     348.0805   -1020.4886    13.857824   -1006.6308 
  214800     390.1353    -1021.815    15.532115   -1006.2828 
  215000     335.3724   -1021.7725    13.351888   -1008.4206 
  215200    367.23329   -1020.4349    14.620337   -1005.8145 
  215400    400.22351   -1020.9084    15.933748   -1004.9746 
  215600    359.70783   -1022.6047    14.320733    -1008.284 
  215800    384.29603   -1022.3438    15.299642   -1007.0442 
  216000    381.41947   -1020.2929    15.185119   -1005.1078 
  216200    359.06148   -1019.3382    14.295001   -1005.0432 
  216400    382.35888   -1021.0947    15.222519   -1005.8722 
  216600    359.21267   -1022.3456     14.30102   -1008.0446 
  216800    342.31606    -1022.405     13.62833   -1008.7767 
  217000    391.14361   -1019.9284    15.572258   -1004.3561 
  217200    380.63257   -1020.6577    15.153791   -1005.5039 
  217400    373.33205   -1022.9307    14.863142   -1008.0676 
  217600    363.62334   -1022.9226    14.476618    -1008.446 
  217800    385.62607   -1020.7993    15.352593   -1005.4467 
  218000    369.10614   -1022.1234    14.694899   -1007.4285 
  218200    344.29262    -1021.369    13.707021    -1007.662 
  218400    400.19697   -1020.2883    15.932692   -1004.3556 
  218600    362.26169   -1022.1019    14.422408   -1007.6795 
  218800    386.66033   -1022.9809    15.393769   -1007.5872 
  219000    395.78497   -1022.3188     15.75704   -1006.5618 
  219200     384.2328     -1021.34    15.297124   -1006.0429 
  219400    399.19543   -1021.9641    15.892818   -1006.0713 
  219600    344.80589   -1021.7788    13.727455   -1008.0514 
  219800    387.32858   -1021.6852    15.420374   -1006.2648 
  220000     359.3997   -1022.2007    14.308466   -1007.8922 
  220200    386.68357   -1021.2842    15.394694   -1005.8895 
  220400    376.91282   -1020.4399      15.0057   -1005.4342 
  220600    340.22932   -1021.1073    13.545252    -1007.562 
  220800    417.80613   -1022.7029     16.63375   -1006.0692 
  221000    358.26554   -1022.1546    14.263312   -1007.8913 
  221200    382.73225   -1022.2255    15.237384   -1006.9881 
  221400    414.06439   -1021.2477    16.484783   -1004.7629 
  221600    354.42085   -1021.8891    14.110247   -1007.7789 
  221800    366.47799   -1021.9255    14.590267   -1007.3353 
  222000    371.11367   -1021.3756    14.774824   -1006.6007 
  222200    386.57205   -1021.7136    15.390255   -1006.3233 
  222400    381.66407   -1022.1033    15.194858   -1006.9084 
  222600    386.07073   -1021.8383    15.370296    -1006.468 
  222800    400.92113   -1021.1064    15.961522   -1005.1449 
  223000    383.99539    -1023.366    15.287672   -1008.0784 
  223200    375.35358    -1021.823    14.943623   -1006.8794 
  223400    415.13537    -1021.356    16.527421   -1004.8286 
  223600    364.55547   -1021.4245    14.513728   -1006.9108 
  223800     388.2358   -1022.2979    15.456492   -1006.8414 
  224000    355.48548   -1021.5746    14.152632    -1007.422 
  224200    401.46727   -1022.0689    15.983265   -1006.0857 
  224400    370.12456   -1021.2974    14.735445    -1006.562 
  224600    343.35503   -1021.3566    13.669693   -1007.6869 
  224800    404.02783   -1021.6248    16.085206   -1005.5396 
  225000    353.98298   -1021.5561    14.092815   -1007.4633 
  225200    365.19337   -1021.7694    14.539124   -1007.2303 
  225400    385.13703   -1020.9788    15.333123   -1005.6457 
  225600    391.78172   -1021.6835    15.597663   -1006.0858 
  225800    362.29181   -1021.8956    14.423607    -1007.472 
  226000    381.37107   -1022.2208    15.183193   -1007.0376 
  226200     426.0114   -1021.8696    16.960419   -1004.9091 
  226400    349.46915   -1022.5246    13.913109   -1008.6115 
  226600     388.1834   -1021.8523    15.454406   -1006.3979 
  226800    409.01099   -1021.6644    16.283596   -1005.3808 
  227000    349.19479   -1023.3002    13.902187    -1009.398 
  227200    409.13331   -1021.7496    16.288466   -1005.4611 
  227400    367.38303   -1020.4785    14.626299   -1005.8522 
  227600     364.0975   -1021.5798    14.495495   -1007.0844 
  227800    369.85806   -1021.1706    14.724835   -1006.4458 
  228000    388.54985   -1022.0623    15.468995   -1006.5933 
  228200     397.8197    -1022.485    15.838047    -1006.647 
  228400    355.77512   -1021.6053    14.164163   -1007.4411 
  228600    388.68941   -1020.1829    15.474551   -1004.7084 
  228800    382.11755   -1021.4869    15.212911    -1006.274 
  229000    368.44479   -1023.1175     14.66857    -1008.449 
  229200    382.14687   -1021.0308    15.214079   -1005.8167 
  229400    381.20298   -1020.6058      15.1765   -1005.4293 
  229600    355.86248   -1021.4785    14.167641   -1007.3108 
  229800    353.96321   -1020.6236    14.092027   -1006.5316 
  230000    377.70034   -1022.4003    15.037053   -1007.3632 
  230200    373.13104   -1021.8811    14.855139   -1007.0259 
  230400    406.35543   -1021.6994    16.177873   -1005.5215 
  230600      382.382   -1021.6186     15.22344   -1006.3951 
  230800    381.75331   -1022.4106     15.19841   -1007.2122 
  231000    364.31254   -1020.7943    14.504056   -1006.2902 
  231200    376.82624   -1019.0322    15.002253   -1004.0299 
  231400    351.50694   -1021.6328    13.994238   -1007.6386 
  231600    365.17266   -1022.4524    14.538299   -1007.9141 
  231800     422.6033    -1021.133    16.824735   -1004.3082 
  232000    335.25164   -1019.8552     13.34708   -1006.5081 
  232200    391.96151   -1021.2251     15.60482   -1005.6203 
  232400    414.51943     -1021.35    16.502899   -1004.8471 
  232600    374.74542   -1022.9254    14.919412   -1008.0059 
  232800    355.91494   -1021.3834     14.16973   -1007.2136 
  233000    406.99325   -1021.1471    16.203266   -1004.9438 
  233200    399.09247   -1022.3038    15.888719   -1006.4151 
  233400    370.12835   -1021.8716    14.735596    -1007.136 
  233600    421.89964   -1022.9379    16.796721   -1006.1412 
  233800    360.53627    -1021.156    14.353715   -1006.8023 
  234000    388.04427   -1021.1819    15.448867    -1005.733 
  234200    390.45265   -1021.7195     15.54475   -1006.1747 
  234400    384.78849   -1021.3784    15.319247   -1006.0592 
  234600     387.9367   -1022.7121    15.444584   -1007.2676 
  234800    390.00675   -1022.9277    15.526997   -1007.4007 
  235000    405.55806   -1022.0817    16.146128   -1005.9355 
  235200    385.24201   -1020.5341    15.337303   -1005.1968 
  235400    430.79229   -1022.2147    17.150756   -1005.0639 
  235600    348.94026   -1023.9059    13.892053   -1010.0138 
  235800    387.69068   -1021.1607     15.43479   -1005.7259 
  236000    384.35808   -1018.8762    15.302112   -1003.5741 
  236200    355.11133   -1021.5385    14.137736   -1007.4007 
  236400    396.69026   -1021.7081    15.793082    -1005.915 
  236600    375.73652   -1021.6454    14.958869   -1006.6865 
  236800    376.33865    -1022.514    14.982841   -1007.5311 
  237000    370.71591    -1020.067    14.758988    -1005.308 
  237200    402.20475   -1020.0996    16.012625    -1004.087 
  237400    379.30744   -1022.2617    15.101035   -1007.1607 
  237600    342.65084   -1022.1955    13.641658   -1008.5539 
  237800    430.07855   -1021.3164    17.122341   -1004.1941 
  238000    400.27085   -1020.8889    15.935633   -1004.9533 
  238200    352.01622   -1022.5158    14.014514   -1008.5013 
  238400    403.46063   -1021.0999    16.062625   -1005.0373 
  238600    367.64878   -1020.4862    14.636879   -1005.8493 
  238800    368.69787   -1022.5078    14.678645   -1007.8291 
  239000     397.7602   -1021.6645    15.835679   -1005.8288 
  239200    386.38693   -1020.6684    15.382885   -1005.2855 
  239400    389.07742   -1021.6237    15.489999   -1006.1337 
  239600    381.63269   -1022.6269    15.193608   -1007.4333 
  239800    408.01978   -1022.3041    16.244134     -1006.06 
  240000    377.43278   -1021.4709    15.026401   -1006.4445 
  240200    378.75339   -1021.0546    15.078977   -1005.9756 
  240400    392.36153   -1019.7743    15.620746   -1004.1535 
  240600     410.9696   -1021.4754    16.361573   -1005.1138 
  240800    369.68321   -1022.7992    14.717874   -1008.0814 
  241000    391.33221   -1021.8514    15.579767   -1006.2716 
  241200    402.13669   -1019.6562    16.009916   -1003.6463 
  241400    375.42197   -1022.2824    14.946346   -1007.3361 
  241600    355.18824   -1021.3602    14.140798   -1007.2194 
  241800    435.20448   -1020.4174    17.326415    -1003.091 
  242000    375.94565    -1022.772    14.967195   -1007.8049 
  242200    363.28535   -1023.3239    14.463162   -1008.8608 
  242400    398.92426   -1019.3061    15.882022    -1003.424 
  242600    354.69422   -1020.2143     14.12113   -1006.0931 
  242800     357.3994   -1021.7295    14.228829   -1007.5007 
  243000    378.56882   -1021.0155    15.071629   -1005.9439 
  243200     379.9469   -1021.1876    15.126493   -1006.0611 
  243400    378.35768   -1021.8337    15.063223   -1006.7705 
  243600    391.94193   -1021.3917    15.604041   -1005.7877 
  243800    401.18478    -1020.125    15.972018    -1004.153 
  244000    380.95734   -1022.2127    15.166721    -1007.046 
  244200    354.44748   -1021.7563    14.111307    -1007.645 
  244400    384.79547   -1019.2467    15.319525   -1003.9272 
  244600    414.19144   -1021.5073    16.489841   -1005.0174 
  244800    382.23629   -1022.4714    15.217639   -1007.2537 
  245000    396.16728   -1021.9969    15.772261   -1006.2247 
  245200    382.45329    -1020.967    15.226278   -1005.7408 
  245400    356.10827   -1020.7964    14.177427    -1006.619 
  245600     387.0414    -1020.714    15.408941   -1005.3051 
  245800    399.79679   -1020.2535     15.91676   -1004.3367 
  246000    353.96748   -1021.6474    14.092198   -1007.5552 
  246200    385.84684   -1021.5112    15.361383   -1006.1499 
  246400     382.7511   -1021.5578    15.238134   -1006.3197 
  246600    399.87842   -1021.1751     15.92001   -1005.2551 
  246800    397.79738   -1021.2753    15.837159   -1005.4381 
  247000    368.65857   -1021.5405    14.677081   -1006.8634 
  247200    410.81673   -1021.9279    16.355487   -1005.5724 
  247400    364.82871   -1021.4521    14.524606   -1006.9275 
  247600    386.18197   -1020.1743    15.374725   -1004.7996 
  247800    410.98567   -1020.5162    16.362213    -1004.154 
  248000    376.05561   -1022.4738    14.971573   -1007.5022 
  248200      369.314   -1021.1963    14.703175   -1006.4931 
  248400    397.38148   -1020.9349    15.820601   -1005.1143 
  248600    374.26745   -1021.1365    14.900382   -1006.2361 
  248800    398.72099   -1021.0682     15.87393   -1005.1942 
  249000    375.99351   -1020.0154    14.969101   -1005.0463 
  249200    361.65011   -1020.3394    14.398059   -1005.9413 
  249400    391.30316   -1021.5947     15.57861   -1006.0161 
  249600    361.88479   -1021.0302    14.407402   -1006.6228 
  249800    403.56852   -1020.6848     16.06692   -1004.6179 
  250000    407.31147   -1020.9527    16.215935   -1004.7367 
  250200    371.60669   -1021.6364    14.794452    -1006.842 
  250400    400.40324   -1021.0671    15.940904   -1005.1262 
  250600    392.90877   -1020.1296    15.642533   -1004.4871 
  250800    374.08879   -1021.3694    14.893269   -1006.4761 
  251000    396.03129   -1021.7265    15.766847   -1005.9597 
  251200    395.31317   -1021.3023    15.738257    -1005.564 
  251400    367.97423   -1020.5009    14.649836    -1005.851 
  251600     415.1798   -1020.0874     16.52919   -1003.5582 
  251800     367.1693    -1019.713     14.61779   -1005.0952 
  252000    377.17413   -1021.7219    15.016104   -1006.7058 
  252200     399.2438   -1022.1511    15.894744   -1006.2564 
  252400    402.16031   -1020.0222    16.010857   -1004.0113 
  252600    390.70806   -1019.3449    15.554918     -1003.79 
  252800    372.34137   -1021.7484    14.823701   -1006.9247 
  253000    397.99135   -1021.0868    15.844881   -1005.2419 
  253200    404.64828   -1020.9779    16.109908    -1004.868 
  253400    400.11131   -1021.7125    15.929281   -1005.7832 
  253600    375.43703   -1020.9602    14.946946   -1006.0132 
  253800     389.1986   -1020.3433    15.494823   -1004.8485 
  254000    399.74516   -1020.9818    15.914704   -1005.0671 
  254200    388.63483   -1023.4854    15.472378    -1008.013 
  254400    394.71512   -1021.3251    15.714448   -1005.6106 
  254600    405.56523   -1020.0987    16.146413   -1003.9523 
  254800    386.19612    -1021.807    15.375288   -1006.4318 
  255000    390.05202   -1021.4972    15.528799   -1005.9684 
  255200     386.3498   -1019.9561    15.381406   -1004.5747 
  255400    399.71783   -1020.8742    15.913616   -1004.9606 
  255600    361.45248   -1021.5883    14.390191   -1007.1981 
  255800    375.31824   -1020.6938    14.942217   -1005.7516 
  256000    398.75707   -1019.6983    15.875366    -1003.823 
  256200    376.21086    -1021.372    14.977754   -1006.3943 
  256400      411.369   -1021.7513    16.377474   -1005.3738 
  256600    400.88842   -1021.4144     15.96022   -1005.4542 
  256800    378.83196   -1021.0656    15.082105   -1005.9835 
  257000    410.84883   -1021.9613    16.356765   -1005.6045 
  257200    384.97259   -1020.5942    15.326577   -1005.2676 
  257400    393.62128   -1021.0872    15.670899   -1005.4163 
  257600    428.64762   -1021.7967    17.065372   -1004.7313 
  257800    379.24062   -1021.1077    15.098375   -1006.0093 
  258000    364.79512    -1020.294    14.523269   -1005.7707 
  258200    380.50101   -1019.6947    15.148554   -1004.5461 
  258400    370.08993   -1019.2747    14.734067   -1004.5406 
  258600    398.50214   -1020.9198    15.865217   -1005.0545 
  258800    376.53966   -1022.0534    14.990844   -1007.0626 
  259000    366.56657   -1020.5178    14.593794    -1005.924 
  259200    389.10784    -1019.956     15.49121   -1004.4648 
  259400    396.68161   -1020.8859    15.792738   -1005.0931 
  259600    393.21735    -1020.465    15.654818   -1004.8102 
  259800     393.1632   -1020.8946    15.652662   -1005.2419 
  260000    363.39657   -1021.3211     14.46759   -1006.8536 
  260200    368.98914   -1020.1057    14.690242   -1005.4155 
  260400    429.69966   -1019.7924    17.107257   -1002.6851 
  260600    358.59989   -1020.9122    14.276624   -1006.6356 
  260800    384.05495   -1021.1726    15.290044   -1005.8825 
  261000    372.11574   -1019.8335    14.814718   -1005.0188 
  261200    393.04907   -1021.2929    15.648119   -1005.6447 
  261400    381.31148   -1020.7036     15.18082   -1005.5227 
  261600     385.3854   -1020.2717    15.343012   -1004.9287 
  261800    398.87155   -1020.6683    15.879924   -1004.7883 
  262000    388.76619   -1022.1403    15.477608   -1006.6627 
  262200    429.99697   -1022.2456    17.119093   -1005.1265 
  262400    377.98483   -1021.2751    15.048379   -1006.2267 
  262600    388.13106   -1021.4734    15.452322    -1006.021 
  262800     405.2296   -1019.7094    16.133051   -1003.5763 
  263000    376.00979   -1020.0525    14.969749   -1005.0827 
  263200    375.98669   -1021.2133    14.968829   -1006.2445 
  263400    422.40526   -1021.1105    16.816851   -1004.2937 
  263600    348.16224   -1020.4828    13.861079   -1006.6217 
  263800    384.31333   -1020.3658     15.30033   -1005.0655 
  264000    424.15323    -1020.413    16.886441   -1003.5266 
  264200    382.66422   -1021.8183    15.234675   -1006.5836 
  264400    409.88484   -1022.1714    16.318386    -1005.853 
  264600    393.34674   -1019.6467     15.65997   -1003.9867 
  264800     387.2717   -1020.7986    15.418109   -1005.3805 
  265000    381.94322   -1021.6095    15.205971   -1006.4035 
  265200    387.04101   -1019.1918    15.408925   -1003.7829 
  265400    403.71497   -1020.5369    16.072751   -1004.4642 
  265600    368.06314   -1021.8388    14.653376   -1007.1854 
  265800    401.89195   -1020.8905    16.000172   -1004.8903 
  266000    404.25734   -1020.5724    16.094344    -1004.478 
  266200    383.42392   -1021.2616    15.264921   -1005.9966 
  266400    399.42832   -1019.4034     15.90209   -1003.5013 
  266600    395.38666   -1018.3578    15.741183   -1002.6166 
  266800    371.18143   -1020.6314    14.777521   -1005.8539 
  267000    374.75167   -1021.4463     14.91966   -1006.5267 
  267200    397.50783   -1020.6274    15.825631   -1004.8018 
  267400    368.91709   -1018.9784    14.687373   -1004.2911 
  267600     404.8929   -1019.6272    16.119647   -1003.5075 
  267800    406.79463   -1019.6627    16.195359   -1003.4674 
  268000    395.61186   -1021.2068    15.750149   -1005.4567 
  268200    363.05342   -1021.8293    14.453928   -1007.3754 
  268400    393.55203   -1020.0608    15.668142   -1004.3926 
  268600    401.41518   -1019.6283    15.981191   -1003.6472 
  268800     389.5156   -1019.6852    15.507444   -1004.1778 
  269000    392.89147   -1019.4205    15.641844   -1003.7786 
  269200    385.39983   -1021.2414    15.343586   -1005.8978 
  269400    409.18609   -1021.3662    16.290568   -1005.0756 
  269600    373.51602   -1018.9041    14.870466   -1004.0336 
  269800    441.72079   -1020.3628    17.585843    -1002.777 
  270000     372.0356    -1020.796    14.811528   -1005.9845 
  270200    389.71819   -1021.5309    15.515509   -1006.0154 
  270400      378.629   -1020.1314    15.074025   -1005.0574 
  270600    424.22073   -1020.1961    16.889129    -1003.307 
  270800    429.74556   -1021.7399    17.109084   -1004.6309 
  271000    386.21508   -1022.0251    15.376043   -1006.6491 
  271200    423.45293   -1021.3299    16.858561   -1004.4713 
  271400    374.58391   -1019.9271    14.912981   -1005.0141 
  271600    406.10362   -1021.4693    16.167848   -1005.3015 
  271800    400.94212   -1019.5358    15.962358   -1003.5734 
  272000    368.71533   -1020.4991    14.679341   -1005.8198 
  272200     405.9193   -1021.9391     16.16051   -1005.7786 
  272400    423.50493   -1021.1646    16.860631   -1004.3039 
  272600    389.26814   -1020.4359    15.497592   -1004.9383 
  272800     406.2373   -1022.0873     16.17317   -1005.9142 
  273000    402.29822   -1020.3538    16.016347   -1004.3374 
  273200    399.47707   -1019.7212    15.904031   -1003.8172 
  273400    361.26604   -1020.2601    14.382769   -1005.8773 
  273600    394.98327   -1021.2529    15.725123   -1005.5278 
  273800    394.96392    -1019.782    15.724353   -1004.0576 
  274000    414.72945   -1021.4017    16.511261   -1004.8905 
  274200    384.25013   -1021.6813    15.297814   -1006.3835 
  274400     411.4277   -1021.4698    16.379811     -1005.09 
  274600    410.10744   -1020.6532    16.327249    -1004.326 
  274800    386.84753   -1021.2982    15.401222    -1005.897 
  275000    395.65527   -1020.8895    15.751877   -1005.1376 
  275200    420.61683   -1021.2049     16.74565   -1004.4592 
  275400    404.68907   -1021.0065    16.111532    -1004.895 
  275600    365.54517   -1020.4918     14.55313   -1005.9387 
  275800    391.62941   -1020.2684    15.591599   -1004.6768 
  276000    429.63284   -1021.1822    17.104596   -1004.0776 
  276200    363.02471   -1020.6609    14.452785   -1006.2081 
  276400    400.49656   -1020.3174    15.944619   -1004.3728 
  276600    391.07918   -1019.7955    15.569693   -1004.2259 
  276800    379.40169   -1020.3743    15.104787   -1005.2696 
  277000     397.6443   -1020.8461    15.831065   -1005.0151 
  277200    404.88578   -1021.4601    16.119363   -1005.3407 
  277400    401.84844   -1021.3896     15.99844   -1005.3911 
  277600    398.38908   -1021.3328    15.860716   -1005.4721 
  277800    387.28997   -1020.9297    15.418836   -1005.5109 
  278000    415.11409   -1021.1745    16.526574    -1004.648 
  278200    390.66232   -1020.8588    15.553097   -1005.3057 
  278400    384.87593   -1021.5113    15.322728   -1006.1886 
  278600    408.04968    -1020.964    16.245325   -1004.7187 
  278800     390.3867   -1020.3368    15.542124   -1004.7947 
  279000    381.20112    -1020.162    15.176426   -1004.9856 
  279200    387.04324   -1021.2091    15.409014   -1005.8001 
  279400    391.62096   -1020.8388    15.591262   -1005.2476 
  279600    401.72357   -1020.4308    15.993469   -1004.4374 
  279800    393.63294   -1020.1853    15.671364   -1004.5139 
  280000    407.61531   -1021.9999    16.228031   -1005.7719 
  280200    411.15813   -1022.3322    16.369079   -1005.9631 
  280400    418.82176     -1020.85    16.674184   -1004.1758 
  280600    399.43813   -1021.2615     15.90248    -1005.359 
  280800    404.98594   -1021.7552    16.123351   -1005.6319 
  281000    394.06725   -1020.1264    15.688654   -1004.4377 
  281200    382.87231   -1019.8399     15.24296    -1004.597 
  281400    396.54946   -1020.7945    15.787477    -1005.007 
  281600    374.50718   -1020.9176    14.909926   -1006.0077 
  281800    397.99668   -1021.3154    15.845093   -1005.4703 
  282000    434.06788   -1021.3179    17.281164   -1004.0367 
  282200    425.35756   -1021.9208    16.934388   -1004.9864 
  282400    389.44897   -1022.0715    15.504791   -1006.5667 
  282600    396.09136   -1020.4453    15.769239   -1004.6761 
  282800    409.65229   -1020.8542    16.309128   -1004.5451 
  283000    376.63113   -1021.8048    14.994485   -1006.8103 
  283200    443.46254   -1021.4956    17.655186   -1003.8405 
  283400    399.03134   -1020.5549    15.886285   -1004.6686 
  283600     342.2513   -1021.2724    13.625752   -1007.6466 
  283800    422.78809    -1020.221    16.832092   -1003.3889 
  284000    389.11594   -1019.9087    15.491532   -1004.4172 
  284200    379.57702   -1021.6787    15.111768    -1006.567 
  284400    424.84496   -1021.9709     16.91398   -1005.0569 
  284600    379.13379   -1020.7018    15.094122   -1005.6077 
  284800    376.20427   -1020.0855    14.977491    -1005.108 
  285000    371.99716   -1019.1147    14.809997   -1004.3047 
  285200    394.37322    -1019.795    15.700836   -1004.0941 
  285400    363.61911   -1021.7468    14.476449   -1007.2704 
  285600    378.46395   -1020.9046    15.067454   -1005.8372 
  285800    434.05358   -1020.1095    17.280595   -1002.8289 
  286000    401.15298   -1021.0687    15.970752    -1005.098 
  286200    375.20892   -1020.2453    14.937864   -1005.3074 
  286400    414.87095   -1021.6555    16.516894   -1005.1387 
  286600    378.58552   -1020.4853    15.072294    -1005.413 
  286800    405.59534   -1020.5678    16.147612   -1004.4202 
  287000    423.57572   -1021.1379    16.863449   -1004.2744 
  287200    411.68809   -1022.1193    16.390177   -1005.7291 
  287400    382.39499   -1020.8649    15.223957    -1005.641 
  287600    408.94027   -1019.8432    16.280781   -1003.5624 
  287800    390.82813    -1021.135    15.559698   -1005.5753 
  288000    393.22988   -1021.4188    15.655317   -1005.7635 
  288200    431.77958   -1019.8587    17.190062   -1002.6687 
  288400    386.81567   -1020.4384    15.399954   -1005.0385 
  288600    409.11479   -1022.9914    16.287729   -1006.7037 
  288800    404.49214   -1020.0892    16.103691   -1003.9855 
  289000    408.19449   -1020.1121     16.25109    -1003.861 
  289200    389.86463   -1020.9481    15.521339   -1005.4267 
  289400    381.81543   -1020.5097    15.200883   -1005.3088 
  289600    418.70237   -1020.7234    16.669431   -1004.0539 
  289800    438.89762   -1021.2013    17.473447   -1003.7278 
  290000    360.21102   -1021.4114    14.340766   -1007.0706 
  290200    410.45876   -1019.7807    16.341235   -1003.4395 
  290400    415.69939   -1019.9605    16.549876   -1003.4107 
  290600    351.69948   -1021.7531    14.001903   -1007.7512 
  290800    444.33979   -1021.4203    17.690111   -1003.7302 
  291000    388.79429   -1019.1669    15.478727   -1003.6882 
  291200    395.20919   -1021.0872    15.734117   -1005.3531 
  291400    354.70069   -1019.6675    14.121388   -1005.5461 
  291600    423.39002     -1020.49    16.856056   -1003.6339 
  291800    390.81475   -1020.5356    15.559166   -1004.9764 
  292000     365.2543   -1020.9209     14.54155   -1006.3794 
  292200    417.94744   -1019.6657    16.639375   -1003.0263 
  292400    387.37621   -1021.2554     15.42227   -1005.8332 
  292600    378.49253   -1022.1879    15.068592   -1007.1193 
  292800    408.46747   -1020.0453    16.261958   -1003.7834 
  293000    409.51382   -1019.8509    16.303615   -1003.5473 
  293200    364.95049   -1020.3442    14.529454   -1005.8147 
  293400    420.04438   -1020.6909    16.722859   -1003.9681 
  293600    397.59817    -1021.078    15.829228   -1005.2488 
  293800    394.11159   -1020.8098     15.69042   -1005.1193 
  294000    419.21001   -1020.2226    16.689641   -1003.5329 
  294200    405.12323   -1021.3917    16.128817   -1005.2629 
  294400    391.84182   -1020.7403    15.600055   -1005.1403 
  294600    399.43086   -1020.2074    15.902191   -1004.3052 
  294800    415.65258   -1021.0942    16.548012   -1004.5461 
  295000    421.41524   -1021.3074    16.777436     -1004.53 
  295200    362.61593    -1019.904     14.43651   -1005.4675 
  295400    410.03963    -1020.293    16.324549   -1003.9685 
  295600    387.96507   -1020.0996    15.445714   -1004.6539 
  295800    391.56386   -1022.2121    15.588989   -1006.6231 
  296000    438.79559   -1021.8141    17.469385   -1004.3447 
  296200     422.0201   -1020.4368    16.801517   -1003.6353 
  296400    400.85697   -1020.6314    15.958968   -1004.6725 
  296600     420.0731   -1019.9337    16.724003   -1003.2097 
  296800    415.61317   -1021.2233    16.546443   -1004.6769 
  297000    362.26874   -1021.4707    14.422688    -1007.048 
  297200    424.70187   -1020.2486    16.908284   -1003.3403 
  297400    403.32645   -1020.6191    16.057283   -1004.5618 
  297600    373.35038   -1020.8226    14.863872   -1005.9588 
  297800    390.34027    -1019.097    15.540275   -1003.5567 
  298000     404.3452   -1020.2032    16.097842   -1004.1053 
  298200    395.32393   -1020.9511    15.738686   -1005.2124 
  298400    410.16634   -1020.5252    16.329594   -1004.1956 
  298600    390.32731   -1020.6929     15.53976   -1005.1531 
  298800    445.86963   -1020.9114    17.751017   -1003.1604 
  299000    390.80974   -1019.6789    15.558966     -1004.12 
  299200    386.01597   -1021.3423    15.368116   -1005.9742 
  299400    428.05841   -1021.0971    17.041915   -1004.0552 
  299600    391.92339   -1019.7673    15.603303    -1004.164 
  299800    373.32718   -1019.6483    14.862948   -1004.7853 
  300000    449.91601   -1021.7672    17.912112   -1003.8551 
  300200    400.98894   -1020.5712    15.964221    -1004.607 
  300400    404.15517   -1019.9648    16.090276   -1003.8745 
  300600    388.64207   -1020.3943    15.472667   -1004.9216 
  300800    416.07702   -1019.6805     16.56491   -1003.1156 
  301000    387.56803   -1019.2081    15.429907   -1003.7781 
  301200    380.76039   -1019.6858     15.15888   -1004.5269 
  301400    422.19686   -1020.5619    16.808554   -1003.7533 
  301600    398.70524   -1020.1189    15.873303   -1004.2456 
  301800    400.87194   -1021.2691    15.959564   -1005.3095 
  302000    434.61631   -1021.3338    17.302999   -1004.0308 
  302200      397.865   -1020.4173    15.839851   -1004.5775 
  302400     392.0668   -1021.0208    15.609012   -1005.4117 
  302600    411.31746   -1020.5638    16.375422   -1004.1883 
  302800    435.28936    -1021.234    17.329794   -1003.9042 
  303000    388.35539   -1020.9545    15.461253   -1005.4932 
  303200    414.67021   -1019.7294    16.508902   -1003.2205 
  303400    410.91302   -1020.6712     16.35932   -1004.3118 
  303600    368.94119   -1020.7849    14.688333   -1006.0966 
  303800    402.82134   -1020.1788    16.037173   -1004.1416 
  304000    435.75558   -1021.1118    17.348356   -1003.7635 
  304200    385.15862   -1020.8484    15.333983   -1005.5144 
  304400    414.21303   -1021.2045    16.490701   -1004.7138 
  304600    431.49131    -1020.193    17.178586   -1003.0144 
  304800    379.75804   -1020.4815    15.118975   -1005.3626 
  305000    423.38968   -1020.1779    16.856043   -1003.3218 
  305200    418.11161   -1020.0518    16.645912   -1003.4059 
  305400     372.7636   -1021.5452    14.840511   -1006.7047 
  305600    410.55963   -1020.3385    16.345251   -1003.9933 
  305800     408.4762    -1019.033    16.262305   -1002.7707 
  306000    393.74869   -1021.4758    15.675972   -1005.7998 
  306200    406.63641   -1020.6976    16.189059   -1004.5086 
  306400    427.54644    -1019.475    17.021532   -1002.4534 
  306600    400.30185   -1020.7988    15.936867   -1004.8619 
  306800    387.53834   -1022.1855    15.428725   -1006.7568 
  307000    442.18011   -1019.7872     17.60413   -1002.1831 
  307200    399.16018   -1019.2898    15.891415   -1003.3984 
  307400     376.1018   -1022.1607    14.973412   -1007.1873 
  307600    432.39611   -1020.6799    17.214608   -1003.4653 
  307800    399.25196   -1019.4728    15.895069   -1003.5777 
  308000    369.43152    -1020.289    14.707854   -1005.5811 
  308200    426.99363   -1018.8753    16.999524   -1001.8758 
  308400     410.4578   -1021.0832    16.341197    -1004.742 
  308600    387.34703   -1021.3998    15.421108   -1005.9787 
  308800    426.99013    -1020.131    16.999384   -1003.1316 
  309000    384.21784   -1020.5241    15.296529   -1005.2275 
  309200    398.97404   -1020.3668    15.884004   -1004.4828 
  309400    423.53064   -1019.9891    16.861655   -1003.1275 
  309600    407.09391   -1020.8158    16.207274   -1004.6085 
  309800     369.7336   -1021.5227     14.71988   -1006.8028 
  310000    435.05538   -1021.3288    17.320479   -1004.0083 
  310200    438.90734   -1019.5228    17.473834    -1002.049 
  310400    375.43529   -1021.3576    14.946877   -1006.4108 
  310600    391.64757   -1020.6763    15.592322    -1005.084 
  310800    449.25986   -1020.3213     17.88599   -1002.4353 
  311000    423.68947    -1021.164    16.867978   -1004.2961 
  311200    409.96941   -1021.5466    16.321753   -1005.2249 
  311400    404.60224   -1020.6465    16.108075   -1004.5385 
  311600    420.59233    -1019.665    16.744674   -1002.9203 
  311800    432.91422   -1021.1321    17.235235   -1003.8969 
  312000    373.96367   -1021.0443    14.888288    -1006.156 
  312200    436.96334   -1020.3714    17.396439    -1002.975 
  312400    413.95195   -1019.8275    16.480307   -1003.3472 
  312600    374.34505   -1019.3902    14.903472   -1004.4867 
  312800    419.40253   -1019.4901    16.697306   -1002.7928 
  313000    409.94608   -1021.8848    16.320824    -1005.564 
  313200     417.3679   -1021.5662    16.616303   -1004.9499 
  313400    420.69203   -1019.7306    16.748643   -1002.9819 
  313600    389.86817   -1020.0531     15.52148   -1004.5316 
  313800    416.94581   -1020.5487    16.599498   -1003.9492 
  314000    430.79417   -1020.7978    17.150831    -1003.647 
  314200    409.34478   -1021.2458    16.296885    -1004.949 
  314400    408.51409   -1020.7612    16.263814   -1004.4974 
  314600     407.2799    -1019.724    16.214678   -1003.5093 
  314800    423.12517   -1020.9373    16.845512   -1004.0918 
  315000    417.66299    -1021.703    16.628051   -1005.0749 
  315200    377.25236   -1019.4562    15.019218    -1004.437 
  315400    440.26399   -1020.2565    17.527845   -1002.7286 
  315600    373.37509   -1020.2903    14.864856   -1005.4255 
  315800    406.81537   -1020.1372    16.196184    -1003.941 
  316000    396.74245   -1020.6762     15.79516   -1004.8811 
  316200    389.29485   -1020.5862    15.498655   -1005.0875 
  316400    463.18554   -1020.9787    18.440401   -1002.5383 
  316600    375.79197   -1019.0282    14.961077   -1004.0671 
  316800    414.11317   -1018.8565    16.486725   -1002.3698 
  317000    405.92341   -1019.4087    16.160673   -1003.2481 
  317200    372.37659   -1019.6442    14.825103   -1004.8191 
  317400    406.87304   -1020.6821     16.19848   -1004.4836 
  317600    405.98314   -1019.8572    16.163052   -1003.6942 
  317800    459.70886   -1020.6503    18.301987   -1002.3483 
  318000    375.02772   -1018.8461     14.93065   -1003.9154 
  318200    400.89316   -1020.4342    15.960409   -1004.4738 
  318400    411.81731   -1020.5295    16.395322   -1004.1341 
  318600    410.54166   -1019.2241    16.344536   -1002.8796 
  318800    408.34917   -1019.7496    16.257248   -1003.4924 
  319000    396.45444    -1019.084    15.783693   -1003.3003 
  319200    398.70092   -1019.7698    15.873131   -1003.8967 
  319400    411.63306   -1020.6709    16.387987    -1004.283 
  319600    384.02773   -1020.4518     15.28896   -1005.1628 
  319800     432.3985   -1021.0946    17.214703   -1003.8799 
  320000    406.56008   -1019.2899     16.18602   -1003.1038 
  320200    403.17834   -1021.4215    16.051386   -1005.3701 
  320400    395.06306   -1019.4601      15.7283   -1003.7318 
  320600    420.72431   -1019.1534    16.749929   -1002.4035 
  320800    386.34807   -1020.4662    15.381337   -1005.0849 
  321000    430.73693   -1019.8564    17.148552   -1002.7079 
  321200    439.83395   -1018.8793    17.510724   -1001.3686 
  321400    357.20941   -1020.8262    14.221265   -1006.6049 
  321600    412.08918   -1021.0332    16.406146   -1004.6271 
  321800    450.08124   -1018.9253    17.918691   -1001.0066 
  322000    374.58444   -1020.4998    14.913003   -1005.5868 
  322200    390.21823   -1020.7768    15.535417   -1005.2414 
  322400    416.69017   -1019.2872    16.589321   -1002.6979 
  322600    403.56945   -1019.2808    16.066957   -1003.2138 
  322800    396.05358    -1019.812    15.767734   -1004.0442 
  323000    392.36369   -1020.7494    15.620832   -1005.1286 
  323200    420.11232    -1020.584    16.725564   -1003.8585 
  323400    396.57815   -1019.1487    15.788619   -1003.3601 
  323600    397.54851   -1019.9701    15.827251   -1004.1429 
  323800    411.59487   -1020.2309    16.386466   -1003.8445 
  324000    409.07814   -1018.8322     16.28627   -1002.5459 
  324200    412.34464   -1020.0251    16.416316   -1003.6088 
  324400    402.10767   -1021.3492    16.008761   -1005.3404 
  324600    384.77956   -1020.4113    15.318892   -1005.0924 
  324800    435.05886   -1019.3904    17.320618   -1002.0698 
  325000    387.47221   -1018.2739    15.426092   -1002.8478 
  325200    399.29807   -1020.3415    15.896905   -1004.4446 
  325400    453.59721    -1021.219    18.058669   -1003.1603 
  325600    389.42447   -1020.9647    15.503816   -1005.4609 
  325800    392.54223   -1019.5611     15.62794   -1003.9332 
  326000    436.35815   -1018.8727    17.372345   -1001.5003 
  326200    401.84944   -1021.1442     15.99848   -1005.1457 
  326400    420.79965   -1021.8921    16.752928   -1005.1392 
  326600    430.72885   -1019.4128    17.148231   -1002.2646 
  326800    395.45196   -1020.8543    15.743783   -1005.1105 
  327000    409.39544   -1020.7046    16.298902   -1004.4057 
  327200    433.06234   -1020.1748    17.241132   -1002.9337 
  327400    380.56888    -1020.021    15.151256   -1004.8697 
  327600     407.4737   -1020.0906    16.222394   -1003.8682 
  327800     433.1943   -1020.4962    17.246386   -1003.2498 
  328000    432.62465   -1019.9395    17.223707   -1002.7157 
  328200    412.16716    -1020.697     16.40925   -1004.2878 
  328400    412.93601   -1021.4768     16.43986   -1005.0369 
  328600    432.77621   -1019.4785     17.22974   -1002.2487 
  328800    397.52426   -1019.5721    15.826285   -1003.7458 
  329000    402.95755    -1020.687    16.042596   -1004.6444 
  329200    434.73299   -1019.9932    17.307644   -1002.6855 
  329400    434.04761   -1020.8881    17.280358   -1003.6077 
  329600    446.90967    -1022.005    17.792424   -1004.2126 
  329800    388.15409   -1019.6738    15.453239   -1004.2205 
  330000    429.51778   -1019.8747    17.100015   -1002.7747 
  330200    408.34349   -1019.6154    16.257022   -1003.3584 
  330400    411.12495   -1021.2515    16.367758   -1004.8837 
  330600    404.09933   -1019.4951    16.088053   -1003.4071 
  330800    428.05464   -1020.2439    17.041765   -1003.2021 
  331000    418.16585   -1020.1996    16.648071   -1003.5516 
  331200    409.69802   -1020.5181    16.310948   -1004.2071 
  331400    393.15101   -1019.2581    15.652177   -1003.6059 
  331600    423.68523   -1018.9778    16.867809     -1002.11 
  331800    395.40514   -1019.5914    15.741919   -1003.8495 
  332000    425.66712   -1021.0199    16.946712   -1004.0732 
  332200    452.48605   -1021.2492    18.014431   -1003.2347 
  332400    402.15724   -1019.6126    16.010734   -1003.6018 
  332600    413.69823   -1019.5188    16.470205   -1003.0486 
  332800    388.44772   -1019.6387    15.464929   -1004.1738 
  333000    452.71752   -1020.5715    18.023646   -1002.5479 
  333200    446.53282   -1020.2238     17.77742   -1002.4464 
  333400    408.04674    -1019.596    16.245208   -1003.3508 
  333600    423.26369   -1018.9728    16.851027   -1002.1217 
  333800    400.97476   -1021.0658    15.963657   -1005.1022 
  334000    385.45106   -1019.0812    15.345626   -1003.7356 
  334200    453.50031   -1019.1843    18.054811   -1001.1295 
  334400    408.02605   -1019.8607    16.244384   -1003.6164 
  334600    453.94741   -1020.2499    18.072611   -1002.1773 
  334800     432.7511   -1021.0254    17.228741   -1003.7966 
  335000    429.92904   -1022.2739    17.116389   -1005.1575 
  335200    403.79326   -1019.1584    16.075867   -1003.0825 
  335400    428.42341   -1019.7119    17.056446   -1002.6555 
  335600    422.70403   -1020.3856    16.828745   -1003.5568 
  335800     425.2026   -1019.7228    16.928219   -1002.7945 
  336000    422.11947   -1019.9226    16.805473   -1003.1171 
  336200    417.86958    -1020.351    16.636276   -1003.7147 
  336400     409.5273    -1019.889    16.304152   -1003.5848 
  336600     442.4787   -1018.8728    17.616017   -1001.2567 
  336800    422.39903   -1019.9939    16.816603   -1003.1773 
  337000    367.64796   -1020.5558    14.636846    -1005.919 
  337200    450.64185   -1018.3631    17.941009   -1000.4221 
  337400    434.41699   -1019.3842    17.295063   -1002.0891 
  337600    388.92515   -1020.0753    15.483937   -1004.5914 
  337800    438.44837   -1019.5189    17.455561   -1002.0633 
  338000    400.10351    -1019.824    15.928971    -1003.895 
  338200    390.72444   -1019.3042     15.55557   -1003.7486 
  338400    435.03259   -1018.9645    17.319572    -1001.645 
  338600     413.5101    -1019.672    16.462716   -1003.2093 
  338800    424.96687   -1020.0981    16.918834   -1003.1792 
  339000    398.06828   -1019.5431    15.847944   -1003.6952 
  339200    419.35262    -1020.921    16.695319   -1004.2257 
  339400    414.63063   -1019.6027    16.507326   -1003.0953 
  339600    424.31287   -1020.3404    16.892797   -1003.4476 
  339800    427.66685   -1019.9773    17.026326    -1002.951 
  340000    415.84939   -1018.9878    16.555848    -1002.432 
  340200    427.30465   -1019.9068    17.011906   -1002.8949 
  340400    395.16429   -1020.6961     15.73233   -1004.9638 
  340600    416.07747   -1019.5348    16.564928   -1002.9699 
  340800    453.88598   -1018.6086    18.070165   -1000.5384 
  341000    422.70048    -1020.107    16.828604   -1003.2784 
  341200    396.55416    -1020.981    15.787664   -1005.1933 
  341400    444.47553   -1020.6819    17.695515   -1002.9864 
  341600    428.88513   -1019.5207    17.074828   -1002.4459 
  341800    383.90662   -1020.5293    15.284138   -1005.2451 
  342000    437.15863   -1019.4661    17.404214   -1002.0619 
  342200    426.69694   -1019.4393    16.987712   -1002.4516 
  342400     372.2998   -1020.0335    14.822046   -1005.2115 
  342600    425.19096   -1019.3026    16.927756   -1002.3748 
  342800    425.28071   -1018.7277    16.931329   -1001.7964 
  343000    409.74469   -1020.7777    16.312807   -1004.4649 
  343200    447.99126   -1019.8313    17.835484   -1001.9958 
  343400    435.33742   -1019.1585    17.331708   -1001.8268 
  343600    395.41763    -1021.001    15.742416   -1005.2586 
  343800    422.22331   -1019.7974    16.809607   -1002.9878 
  344000    458.45616    -1018.637    18.252114   -1000.3849 
  344200    411.00379   -1020.4038    16.362934   -1004.0409 
  344400    413.73304   -1020.5283    16.471592   -1004.0567 
  344600    430.77694   -1018.8205    17.150145   -1001.6704 
  344800     394.1656   -1019.8443     15.69257   -1004.1518 
  345000    394.47873   -1019.9819    15.705036   -1004.2769 
  345200    408.67067   -1018.0693    16.270047   -1001.7993 
  345400    425.94616   -1019.1024    16.957822   -1002.1446 
  345600    417.05957   -1020.7034    16.604027   -1004.0994 
  345800    416.22668   -1020.0151    16.570868   -1003.4442 
  346000    430.91718   -1019.6158    17.155728   -1002.4601 
  346200    428.69319   -1020.5646    17.067187   -1003.4974 
  346400    421.49366   -1019.4424    16.780558   -1002.6619 
  346600    422.97959   -1019.7545    16.839716   -1002.9148 
  346800    404.89449   -1020.0282     16.11971   -1003.9085 
  347000    387.11451   -1019.9472    15.411851   -1004.5353 
  347200    452.89417   -1019.6359    18.030679   -1001.6052 
  347400    457.38241   -1018.7676    18.209365   -1000.5582 
  347600    373.57476   -1018.5093    14.872805   -1003.6365 
  347800    418.76128   -1019.5776    16.671776   -1002.9058 
  348000    427.30674   -1019.5121    17.011989   -1002.5001 
  348200    405.15115   -1020.7528    16.129928   -1004.6229 
  348400    433.96727   -1019.6251    17.277159    -1002.348 
  348600    387.88997   -1017.4901    15.442724   -1002.0474 
  348800    438.99809   -1021.5013    17.477447   -1004.0238 
  349000    407.63221   -1019.8782    16.228704   -1003.6495 
  349200    412.97868   -1018.2344    16.441559   -1001.7929 
  349400    414.29163   -1019.1513     16.49383   -1002.6574 
  349600    425.69658   -1020.8494    16.947885   -1003.9015 
  349800    420.05233   -1019.1566    16.723176   -1002.4334 
  350000    421.51856   -1019.3628    16.781549   -1002.5813 
  350200    412.07015   -1020.7978    16.405388   -1004.3924 
  350400    427.19521   -1020.2298    17.007549   -1003.2222 
  350600    417.76314   -1019.5261    16.632038    -1002.894 
  350800    437.08118   -1020.1673     17.40113   -1002.7662 
  351000    414.81823   -1019.9776    16.514795   -1003.4628 
  351200    420.85933   -1019.7007    16.755304   -1002.9454 
  351400    447.16239   -1019.6335    17.802485    -1001.831 
  351600    378.23038   -1018.7104    15.058155   -1003.6523 
  351800    420.48306   -1019.7276    16.740324   -1002.9873 
  352000    415.44594   -1018.4876    16.539785   -1001.9478 
  352200    413.49834   -1021.8727    16.462247   -1005.4105 
  352400    420.13263   -1020.7105    16.726373   -1003.9841 
  352600     440.6262   -1018.1857    17.542265   -1000.6435 
  352800     406.5953   -1019.4147    16.187423   -1003.2273 
  353000    411.82404   -1020.6953     16.39559   -1004.2997 
  353200    440.94563   -1019.5764    17.554982   -1002.0214 
  353400    420.96736     -1019.73    16.759605   -1002.9704 
  353600    405.40267   -1020.7238    16.139942   -1004.5839 
  353800    419.44541   -1019.5728    16.699013   -1002.8738 
  354000    430.61571   -1018.3679    17.143726   -1001.2242 
  354200    436.49493   -1021.1504    17.377791   -1003.7726 
  354400    411.01004   -1020.8059    16.363183   -1004.4427 
  354600    447.94139   -1019.6027    17.833498   -1001.7692 
  354800    410.72649   -1019.6006    16.351894   -1003.2487 
  355000    396.43332   -1018.3621    15.782853   -1002.5792 
  355200    468.81308   -1019.7576    18.664445   -1001.0931 
  355400    412.37055   -1019.6873    16.417348     -1003.27 
  355600    413.90625   -1020.2651    16.478487   -1003.7866 
  355800     444.9996   -1020.1421     17.71638   -1002.4257 
  356000    428.35651    -1019.355    17.053783   -1002.3012 
  356200    435.83509   -1021.2118    17.351521   -1003.8603 
  356400     449.4632   -1020.7638    17.894085   -1002.8697 
  356600    428.49847   -1019.5177    17.059435   -1002.4583 
  356800    440.26728   -1020.7811    17.527976   -1003.2531 
  357000    406.49848   -1019.6091    16.183568   -1003.4256 
  357200    419.09975   -1019.9194    16.685251   -1003.2342 
  357400    448.48696   -1021.1399    17.855219   -1003.2846 
  357600     412.9836   -1020.7447    16.441755    -1004.303 
  357800     460.5038   -1020.7593    18.333635   -1002.4256 
  358000    445.48011   -1020.8268     17.73551   -1003.0913 
  358200    403.37215   -1020.7856    16.059102   -1004.7265 
  358400    426.45193   -1019.8705    16.977957   -1002.8925 
  358600    412.96411   -1019.8876    16.440979   -1003.4466 
  358800    443.40984   -1021.1849    17.653088   -1003.5318 
  359000    395.71269   -1020.3754    15.754163   -1004.6212 
  359200    437.60825   -1021.0266    17.422114   -1003.6045 
  359400     441.7014   -1020.4272    17.585071   -1002.8422 
  359600    396.00983    -1019.644    15.765993    -1003.878 
  359800    400.07565   -1020.1213    15.927861   -1004.1934 
  360000    423.17881    -1019.639    16.847648   -1002.7914 
  360200    444.91712   -1020.7677    17.713096   -1003.0546 
  360400    420.97817   -1019.7908    16.760035   -1003.0308 
  360600    418.69258   -1020.4206    16.669041   -1003.7515 
  360800    425.56835   -1020.7422     16.94278   -1003.7994 
  361000    437.37182   -1020.4858    17.412701   -1003.0731 
  361200    437.04906    -1021.383    17.399852   -1003.9831 
  361400    426.11793   -1020.6152     16.96466   -1003.6506 
  361600    463.64486   -1019.9569    18.458687   -1001.4982 
  361800    434.75882   -1020.0999    17.308672   -1002.7912 
  362000    422.38225   -1021.7169    16.815935    -1004.901 
  362200    430.71411    -1020.392    17.147644   -1003.2444 
  362400    458.37024    -1020.002    18.248693   -1001.7533 
  362600    417.52602   -1019.7533    16.622598   -1003.1307 
  362800    442.29183   -1020.2506    17.608578    -1002.642 
  363000    427.99819   -1019.2915    17.039517    -1002.252 
  363200    434.05554    -1020.828    17.280673   -1003.5473 
  363400    403.91181   -1020.4726    16.080587    -1004.392 
  363600    453.91549   -1019.5224     18.07134   -1001.4511 
  363800    435.02903   -1019.0478     17.31943   -1001.7284 
  364000    394.26247   -1018.6716    15.696427   -1002.9752 
  364200    433.91341   -1019.1474    17.275015   -1001.8724 
  364400    416.28713   -1020.5574    16.573275   -1003.9842 
  364600    417.79651   -1020.4017    16.633367   -1003.7683 
  364800    412.56022   -1019.6629    16.424899    -1003.238 
  365000    446.85534   -1020.9176     17.79026   -1003.1273 
  365200    423.34246   -1020.1004    16.854163   -1003.2463 
  365400    435.79907   -1021.7561    17.350087    -1004.406 
  365600    428.20957   -1020.1956    17.047933   -1003.1477 
  365800     425.0711   -1018.8947    16.922984   -1001.9718 
  366000    393.20704   -1020.8926    15.654408   -1005.2382 
  366200    446.20317   -1020.8513    17.764296    -1003.087 
  366400    449.01473   -1020.8402    17.876231    -1002.964 
  366600    389.75338    -1020.201     15.51691   -1004.6841 
  366800    468.66412    -1019.987    18.658514   -1001.3285 
  367000    438.16729    -1020.279    17.444371   -1002.8346 
  367200     395.6109   -1021.9492    15.750111   -1006.1991 
  367400     454.2181   -1020.0281    18.083388   -1001.9447 
  367600    438.95015   -1018.4667    17.475538   -1000.9912 
  367800    408.44251   -1020.1311    16.260964   -1003.8701 
  368000    436.47739    -1019.972    17.377092   -1002.5949 
  368200    428.84909   -1019.1493    17.073394   -1002.0759 
  368400    394.10148   -1021.3356    15.690017   -1005.6456 
  368600    452.12317   -1019.6579    17.999984   -1001.6579 
  368800    425.54432   -1018.9284    16.941824   -1001.9866 
  369000    412.27566   -1022.2283     16.41357   -1005.8148 
  369200     435.0776   -1019.7403    17.321364   -1002.4189 
  369400    440.15186   -1020.3567    17.523381   -1002.8333 
  369600    398.25263   -1020.8182    15.855283   -1004.9629 
  369800    453.92994    -1019.397    18.071915   -1001.3251 
  370000    431.85832   -1019.2928    17.193197   -1002.0996 
  370200    416.06863    -1022.141    16.564576   -1005.5764 
  370400    417.77374   -1020.6392     16.63246   -1004.0067 
  370600    459.03284   -1018.8303    18.275073   -1000.5552 
  370800    424.74053   -1019.5162    16.909823   -1002.6064 
  371000    433.43271   -1022.4068    17.255877   -1005.1509 
  371200    451.52755   -1020.5201    17.976271   -1002.5439 
  371400    471.88075   -1020.3202    18.786575   -1001.5336 
  371600    406.32437   -1021.6933    16.176636   -1005.5167 
  371800    436.36806   -1019.6524     17.37274   -1002.2797 
  372000    480.87702   -1018.1154    19.144736   -998.97068 
  372200    403.49388   -1019.8447    16.063949   -1003.7807 
  372400    425.71791   -1020.8354    16.948734   -1003.8867 
  372600    463.88017   -1021.0119    18.468055   -1002.5439 
  372800    454.18495   -1021.0785    18.082068   -1002.9964 
  373000    413.39222   -1020.0342    16.458023   -1003.5762 
  373200    415.80959   -1020.1753    16.554263   -1003.6211 
  373400    438.83644    -1021.195    17.471011    -1003.724 
  373600    436.15945   -1020.7635    17.364434   -1003.3991 
  373800    417.63067   -1020.0526    16.626764   -1003.4258 
  374000    439.00908   -1019.9567    17.477884   -1002.4788 
  374200    414.56772    -1019.733    16.504822   -1003.2282 
  374400    437.51112   -1020.7719    17.418247   -1003.3537 
  374600    429.33616   -1020.2803    17.092785   -1003.1875 
  374800     442.7581   -1019.5948    17.627141   -1001.9677 
  375000    392.41246   -1019.4861    15.622774   -1003.8633 
  375200    418.34273   -1020.1251    16.655113   -1003.4699 
  375400    466.68074   -1019.4675    18.579552   -1000.8879 
  375600    428.03552   -1020.2181    17.041004   -1003.1771 
  375800     440.3645   -1021.4905    17.531846   -1003.9586 
  376000    455.84889   -1021.1425    18.148313   -1002.9942 
  376200    446.28474   -1020.2797    17.767544   -1002.5121 
  376400    399.50705    -1019.841    15.905225   -1003.9358 
  376600    431.59533   -1018.4568    17.182727   -1001.2741 
  376800    445.87685   -1020.7188    17.751305   -1002.9675 
  377000    384.45579   -1020.3696    15.306002   -1005.0636 
  377200    442.94143   -1019.5308    17.634439   -1001.8963 
  377400    426.28551   -1018.9389    16.971332   -1001.9676 
  377600    429.81779   -1020.8233    17.111959   -1003.7113 
  377800    418.02172   -1019.3404    16.642333    -1002.698 
  378000    469.60788   -1019.9633    18.696087   -1001.2672 
  378200    399.85769   -1020.1008    15.919184   -1004.1816 
  378400    423.93902    -1021.296    16.877913   -1004.4181 
  378600      470.584   -1019.6181    18.734949   -1000.8832 
  378800    433.87949   -1019.4806    17.273664   -1002.2069 
  379000    406.01888   -1019.6203    16.164474   -1003.4558 
  379200    447.80532   -1019.3416    17.828081   -1001.5135 
  379400    405.29737   -1020.5366    16.135749   -1004.4008 
  379600    420.73135   -1019.9857    16.750209   -1003.2355 
  379800    435.04086   -1018.6138    17.319901   -1001.2939 
  380000    433.20766   -1019.7979    17.246917    -1002.551 
  380200    461.71209   -1020.5894    18.381739   -1002.2076 
  380400    394.49406   -1019.9012    15.705647   -1004.1955 
  380600    412.10959   -1019.5256    16.406959   -1003.1186 
  380800    449.52146   -1018.6002    17.896404   -1000.7038 
  381000    431.53734   -1020.3776    17.180418   -1003.1972 
  381200     443.1241   -1021.3629    17.641712   -1003.7211 
  381400    461.34186   -1020.0279       18.367   -1001.6609 
  381600    438.13809   -1020.4935    17.443208   -1003.0503 
  381800    415.09716   -1019.8006      16.5259   -1003.2747 
  382000     411.1385   -1018.4091    16.368297   -1002.0408 
  382200    450.82388   -1018.7713    17.948257    -1000.823 
  382400    417.25808   -1019.1485    16.611931   -1002.5366 
  382600    392.46041   -1020.2133    15.624683   -1004.5886 
  382800    466.00162     -1019.44    18.552514   -1000.8875 
  383000    406.52048   -1019.4248    16.184444   -1003.2403 
  383200      414.084   -1020.4304    16.485564   -1003.9449 
  383400    422.89441   -1018.4643    16.836325    -1001.628 
  383600    439.57921   -1019.2446    17.500582    -1001.744 
  383800    420.05056   -1020.3052    16.723105   -1003.5821 
  384000    438.17603   -1021.3101    17.444719   -1003.8654 
  384200    444.35951   -1019.1297    17.690896   -1001.4388 
  384400    461.61324   -1020.2321    18.377804   -1001.8543 
  384600     403.3698   -1019.5035    16.059009   -1003.4445 
  384800    430.91524   -1020.2959    17.155651   -1003.1402 
  385000    439.03396   -1019.3895    17.478875   -1001.9106 
  385200     442.1246    -1019.606     17.60192    -1002.004 
  385400    421.80302   -1018.5437    16.792874   -1001.7508 
  385600     457.4217   -1018.8787     18.21093   -1000.6678 
  385800    404.39768   -1019.6189    16.099931    -1003.519 
  386000    408.43554    -1020.584    16.260687   -1004.3233 
  386200    421.47495   -1017.9446    16.779813   -1001.1648 
  386400    423.73445   -1019.0877    16.869769   -1002.2179 
  386600     396.5633   -1018.5156    15.788028   -1002.7276 
  386800    432.00187   -1019.0223    17.198912   -1001.8234 
  387000    442.26124   -1020.7885     17.60736   -1003.1811 
  387200    422.27548   -1020.7914    16.811684   -1003.9797 
  387400    405.78218   -1018.4171    16.155051   -1002.2621 
  387600    465.65086   -1018.3715     18.53855   -999.83296 
  387800    394.76187   -1019.2063    15.716309     -1003.49 
  388000    401.00062   -1019.8219    15.964687   -1003.8572 
  388200     441.8458   -1018.3332     17.59082   -1000.7424 
  388400    431.66545   -1019.2791    17.185519   -1002.0936 
  388600    442.49774   -1021.0868    17.616775   -1003.4701 
  388800    457.05581   -1020.6075    18.196363   -1002.4111 
  389000    435.60853   -1018.6767    17.342501   -1001.3342 
  389200     413.4364   -1020.8726    16.459782   -1004.4128 
  389400    440.86301   -1020.4094    17.551693   -1002.8577 
  389600    438.33598   -1018.6938    17.451087   -1001.2427 
  389800    441.30534   -1020.1038    17.569303   -1002.5345 
  390000    434.52497   -1020.6659    17.299362   -1003.3665 
  390200    448.66285   -1020.7399    17.862221   -1002.8777 
  390400    450.22387   -1019.2202    17.924369   -1001.2958 
  390600    433.66135   -1020.0028     17.26498   -1002.7378 
  390800    443.06155    -1020.541    17.639222   -1002.9018 
  391000    470.11402   -1019.3845    18.716238   -1000.6682 
  391200    400.84013   -1019.0675    15.958297   -1003.1092 
  391400    461.84556   -1020.0948    18.387053   -1001.7077 
  391600    435.50506   -1018.5664    17.338382    -1001.228 
  391800    427.03632   -1018.7946    17.001223   -1001.7934 
  392000     449.2522   -1019.0011    17.885684   -1001.1154 
  392200    426.09053   -1019.0816    16.963569    -1002.118 
  392400    425.04054   -1019.6191    16.921767   -1002.6973 
  392600    437.94918   -1019.1173    17.435687   -1001.6816 
  392800    463.36399   -1019.2678    18.447505   -1000.8203 
  393000    400.32424    -1018.866    15.937759   -1002.9282 
  393200    444.71826   -1020.1901    17.705179   -1002.4849 
  393400    442.30956   -1019.1297    17.609283   -1001.5204 
  393600    408.35734   -1020.0393    16.257573   -1003.7817 
  393800      430.965   -1019.1928    17.157632   -1002.0352 
  394000    442.77078   -1017.8724    17.627646   -1000.2447 
  394200    455.81297   -1019.5473    18.146883   -1001.4004 
  394400    409.89832    -1020.331    16.318923   -1004.0121 
  394600    396.16342    -1018.657    15.772107   -1002.8849 
  394800     453.2911   -1018.5739    18.046482   -1000.5274 
  395000    427.41594    -1019.547    17.016337   -1002.5307 
  395200    434.35441   -1018.9034    17.292572   -1001.6109 
  395400     455.0871   -1018.9905    18.117984   -1000.8725 
  395600    430.97119   -1019.5041    17.157879   -1002.3462 
  395800    427.08661   -1019.8508    17.003225   -1002.8476 
  396000    457.62896   -1019.0744    18.219181   -1000.8553 
  396200    454.99588   -1020.5589    18.114353   -1002.4445 
  396400     439.6167   -1020.6384    17.502075   -1003.1363 
  396600    470.91853   -1019.9294    18.748267   -1001.1811 
  396800    420.07232   -1019.8884    16.723972   -1003.1644 
  397000    448.21293   -1020.8497    17.844309   -1003.0054 
  397200    426.41236   -1019.1408    16.976382   -1002.1644 
  397400    444.13522    -1019.766    17.681967    -1002.084 
  397600    417.34294    -1018.486    16.615309   -1001.8706 
  397800    426.86414   -1018.1004    16.994368   -1001.1061 
  398000    456.13211   -1019.3308    18.159588   -1001.1712 
  398200    414.85375   -1020.4351    16.516209   -1003.9188 
  398400     449.9604   -1018.6063     17.91388   -1000.6924 
  398600    455.49743   -1018.1931     18.13432   -1000.0587 
  398800    406.77693   -1020.0262    16.194654   -1003.8316 
  399000     464.4678   -1020.4668     18.49145   -1001.9753 
  399200    476.11517   -1019.6208    18.955157   -1000.6657 
  399400    421.07044   -1021.2367    16.763709    -1004.473 
  399600    430.33725   -1019.8793     17.13264   -1002.7466 
  399800    447.44529   -1018.1291    17.813748   -1000.3153 
  400000     440.1603   -1021.2659    17.523717   -1003.7422 
  400200    447.32642   -1020.7905    17.809015   -1002.9815 
  400400    443.04524    -1018.592    17.638572   -1000.9534 
  400600    433.50385   -1019.4329     17.25871   -1002.1742 
  400800    413.65195   -1020.1404    16.468363    -1003.672 
  401000     441.0202   -1020.2335    17.557951   -1002.6755 
  401200     474.5949   -1020.7568    18.894631   -1001.8622 
  401400     423.1925   -1019.6624    16.848192   -1002.8142 
  401600    432.97552   -1020.8203    17.237675   -1003.5826 
  401800    447.49278   -1019.5528    17.815638   -1001.7372 
  402000    433.15824   -1019.7807     17.24495   -1002.5358 
  402200    442.31108   -1021.1666    17.609344   -1003.5573 
  402400    445.80142   -1021.1432    17.748302   -1003.3949 
  402600    443.53171   -1019.3632     17.65794   -1001.7052 
  402800    450.00651   -1019.0796    17.915715   -1001.1639 
  403000    443.32975    -1020.764    17.649899   -1003.1141 
  403200    447.24844   -1021.1538     17.80591   -1003.3479 
  403400    436.58026   -1018.8927    17.381188   -1001.5115 
  403600    395.56721   -1017.9067    15.748371   -1002.1583 
  403800    425.02995   -1018.2944    16.921345    -1001.373 
  404000    453.38932   -1018.1721    18.050392   -1000.1217 
  404200    426.56658   -1019.5721    16.982522   -1002.5896 
  404400    496.92008   -1021.4475    19.783444   -1001.6641 
  404600    430.69766   -1018.5326    17.146989   -1001.3856 
  404800    453.71938   -1018.9649    18.063532   -1000.9014 
  405000     436.1468   -1020.8077    17.363931   -1003.4438 
  405200    429.54555   -1019.6673    17.101121   -1002.5662 
  405400    418.15533   -1016.1967    16.647652   -999.54907 
  405600    405.00645   -1019.3721    16.124167   -1003.2479 
  405800     427.0237   -1019.2364    17.000721   -1002.2357 
  406000    420.40897   -1017.2508    16.737374   -1000.5134 
  406200    451.69489   -1019.1512    17.982933   -1001.1683 
  406400    416.28011   -1019.6372    16.572996   -1003.0642 
  406600    446.68302   -1019.0884      17.7834    -1001.305 
  406800    468.32317   -1018.0534     18.64494   -999.40841 
  407000     435.5387   -1019.8849    17.339721   -1002.5452 
  407200    489.96607   -1021.6446     19.50659   -1002.1381 
  407400    424.03963   -1019.4229    16.881919    -1002.541 
  407600    418.33018   -1020.1331    16.654613   -1003.4785 
  407800    490.89474   -1020.7837    19.543563   -1001.2402 
  408000    452.92902   -1021.3753    18.032066   -1003.3433 
  408200    411.37239   -1019.9242    16.377609   -1003.5466 
  408400    457.49486   -1019.2324    18.213842   -1001.0186 
  408600    391.55108   -1019.8178     15.58848   -1004.2293 
  408800    424.74873   -1020.4306     16.91015   -1003.5205 
  409000    488.76259   -1020.6132    19.458677   -1001.1545 
  409200    409.92631   -1020.9451    16.320037   -1004.6251 
  409400    426.39329   -1021.9145    16.975623   -1004.9389 
  409600    464.73512   -1019.3632    18.502093   -1000.8611 
  409800    470.58775   -1018.7995    18.735098   -1000.0644 
  410000    416.14367   -1021.5583    16.567564   -1004.9907 
  410200    468.15494   -1020.8564    18.638243   -1002.2182 
  410400    448.22909   -1018.0962    17.844952   -1000.2512 
  410600    433.80705   -1021.0976     17.27078   -1003.8268 
  410800    480.34658   -1022.7464    19.123618   -1003.6228 
  411000     472.0237   -1018.5231    18.792266   -999.73087 
  411200     436.6602   -1019.7979     17.38437   -1002.4136 
  411400    405.41963   -1020.3221    16.140617   -1004.1815 
  411600    451.10888   -1019.6548    17.959603   -1001.6952 
  411800    457.53968   -1019.8403    18.215627   -1001.6246 
  412000    459.80602   -1022.3084    18.305855   -1004.0025 
  412200    448.39954   -1021.2596    17.851738   -1003.4079 
  412400     497.0064   -1020.2871    19.786881   -1000.5002 
  412600    440.34559   -1020.1833    17.531093   -1002.6522 
  412800    432.31986   -1022.1566    17.211572    -1004.945 
  413000    452.69987    -1021.128    18.022944   -1003.1051 
  413200     458.7385   -1020.3224    18.263355    -1002.059 
  413400    430.81496   -1019.0033    17.151659   -1001.8516 
  413600    449.00223   -1018.1757    17.875733      -1000.3 
  413800    457.08759   -1021.5581    18.197628   -1003.3605 
  414000     405.4295   -1021.9279     16.14101   -1005.7869 
  414200    476.16397   -1019.9306    18.957099   -1000.9735 
  414400    476.40251   -1019.7438    18.966596   -1000.7772 
  414600    432.95657    -1022.841    17.236921   -1005.6041 
  414800    471.77937   -1020.4654    18.782539   -1001.6828 
  415000    470.23674    -1019.629    18.721124   -1000.9079 
  415200    428.78093   -1022.4052     17.07068   -1005.3346 
  415400    413.02969   -1020.1993    16.443589   -1003.7557 
  415600    470.84655   -1018.5324    18.745401   -999.78704 
  415800    434.75149   -1020.4672    17.308381   -1003.1588 
  416000     401.0898    -1020.513    15.968237   -1004.5447 
  416200    490.17271   -1019.9025    19.514817   -1000.3877 
  416400    420.05555   -1020.1171    16.723304   -1003.3938 
  416600    391.89979   -1021.6758    15.602363   -1006.0734 
  416800    477.43925   -1019.7045    19.007871   -1000.6967 
  417000    451.08544   -1019.6275     17.95867   -1001.6688 
  417200    413.55346   -1021.8866    16.464442   -1005.4221 
  417400    473.78127   -1020.8525    18.862239   -1001.9903 
  417600    473.01427   -1019.5334    18.831703   -1000.7017 
  417800    418.46617   -1021.7466    16.660027   -1005.0866 
  418000    433.18697   -1020.9177    17.246094   -1003.6716 
  418200    467.23803   -1018.9708    18.601739   -1000.3691 
  418400    446.07905   -1020.5103    17.759355    -1002.751 
  418600    439.40827   -1022.1404    17.493777   -1004.6467 
  418800     448.5985   -1021.3344     17.85966   -1003.4747 
  419000    454.84643   -1021.0329    18.108403   -1002.9245 
  419200    452.70958   -1020.6599     18.02333   -1002.6366 
  419400    470.50252   -1021.4228    18.731705   -1002.6911 
  419600    426.79103   -1021.8605    16.991458   -1004.8691 
  419800    458.54491   -1019.9009    18.255647   -1001.6452 
  420000     471.2723   -1020.6724    18.762351     -1001.91 
  420200    438.38581   -1022.5768    17.453071   -1005.1237 
  420400    439.18244   -1019.4202    17.484786   -1001.9354 
  420600    450.41888   -1018.8269    17.932133   -1000.8948 
  420800    407.77168   -1020.6693    16.234257   -1004.4351 
  421000    469.77919   -1021.0519    18.702908    -1002.349 
  421200    465.31117   -1022.1065    18.525026   -1003.5815 
  421400     379.4796   -1020.3761    15.107889   -1005.2682 
  421600     489.8062   -1020.4447    19.500226   -1000.9445 
  421800    491.90844   -1021.6521     19.58392   -1002.0682 
  422000     414.4879   -1022.1262    16.501644   -1005.6246 
  422200    452.44981   -1021.6291    18.012988   -1003.6161 
  422400    479.77186   -1020.9582    19.100737   -1001.8574 
  422600    436.35086   -1020.7879    17.372055   -1003.4158 
  422800    450.50035    -1022.058    17.935376   -1004.1226 
  423000    451.77411   -1020.5683    17.986087   -1002.5822 
  423200    408.81917   -1019.6144     16.27596   -1003.3385 
  423400    446.96586   -1021.6291    17.794661   -1003.8344 
  423600     459.3191   -1021.7896    18.286469   -1003.5031 
  423800    480.53931   -1021.2961    19.131291   -1002.1648 
  424000    422.39492    -1021.011    16.816439   -1004.1946 
  424200    432.92909   -1021.6428    17.235827   -1004.4069 
  424400    461.11088   -1020.7219    18.357804   -1002.3641 
  424600    446.55042   -1020.5714    17.778121   -1002.7933 
  424800    425.19741   -1021.9463    16.928012   -1005.0182 
  425000    446.19343   -1020.4331    17.763909   -1002.6692 
  425200    464.30012   -1020.7271    18.484774   -1002.2423 
  425400    419.79584   -1022.4171    16.712964   -1005.7041 
  425600    452.38449    -1020.364    18.010388   -1002.3536 
  425800    465.47776   -1020.9431    18.531659   -1002.4115 
  426000    428.28329   -1022.4607    17.050868   -1005.4099 
  426200    423.26475   -1019.9339    16.851069   -1003.0828 
  426400    450.83793   -1019.7363    17.948816   -1001.7874 
  426600    467.57766    -1022.946     18.61526   -1004.3307 
  426800    431.70156   -1022.4018    17.186956   -1005.2148 
  427000    412.02089   -1018.4103    16.403427   -1002.0069 
  427200    478.81586   -1022.0614    19.062677   -1002.9987 
  427400     416.9847   -1023.1207    16.601047   -1006.5197 
  427600    438.19515   -1019.4294     17.44548   -1001.9839 
  427800    424.33195   -1019.7152    16.893557   -1002.8216 
  428000    413.80495   -1021.7781    16.474454   -1005.3036 
  428200    496.53072    -1021.955    19.767943    -1002.187 
  428400    439.36969   -1021.2863    17.492241    -1003.794 
  428600    437.28196   -1020.4683    17.409124   -1003.0591 
  428800    431.66106   -1020.2863    17.185344    -1003.101 
  429000      442.042   -1021.6152    17.598631   -1004.0166 
  429200    479.15446   -1021.8202    19.076157    -1002.744 
  429400    462.13733   -1020.8082    18.398669   -1002.4096 
  429600    472.32479   -1021.3305    18.804253   -1002.5263 
  429800    451.35511   -1021.1731    17.969406   -1003.2037 
  430000    460.64126   -1021.6333    18.339107   -1003.2942 
  430200     464.1042   -1021.1673    18.476974   -1002.6904 
  430400    470.15199   -1020.6377     18.71775     -1001.92 
  430600    422.11078   -1021.0895    16.805127   -1004.2844 
  430800    447.34546   -1021.9245    17.809773   -1004.1147 
  431000    448.86825   -1020.5588    17.870399   -1002.6884 
  431200    485.19905   -1020.9249    19.316805   -1001.6081 
  431400    447.26131   -1021.6978    17.806423   -1003.8914 
  431600    437.67057   -1021.4424    17.424595   -1004.0178 
  431800    459.96221     -1021.62    18.312073   -1003.3079 
  432000    448.53505   -1021.2932    17.857133   -1003.4361 
  432200    475.81033   -1020.9485     18.94302   -1002.0055 
  432400    437.68578   -1021.2949    17.425201   -1003.8697 
  432600    464.97132   -1023.0946    18.511496   -1004.5831 
  432800     442.6497   -1021.9174    17.622825   -1004.2946 
  433000    465.08231   -1021.3272    18.515915   -1002.8113 
  433200    459.65909   -1022.3392    18.300005   -1004.0392 
  433400    437.25083   -1021.5268    17.407885   -1004.1189 
  433600     456.5063   -1021.0576    18.174486   -1002.8832 
  433800    436.14323   -1021.3978    17.363789   -1004.0341 
  434000    481.54589   -1021.3634    19.171365    -1002.192 
  434200    451.60461   -1022.5942    17.979339   -1004.6149 
  434400    473.66467   -1023.0857    18.857597   -1004.2281 
  434600    446.24266   -1019.1174    17.765868   -1001.3515 
  434800    444.31628   -1021.9761    17.689175   -1004.2869 
  435000    428.90328   -1021.2433    17.075551   -1004.1677 
  435200    461.15733   -1020.5925    18.359653   -1002.2329 
  435400    456.90257   -1021.4878    18.190262   -1003.2975 
  435600     451.5205   -1022.9349     17.97599   -1004.9589 
  435800    443.02522   -1021.0366    17.637775   -1003.3989 
  436000    430.32899   -1019.8598    17.132311   -1002.7275 
  436200    453.21204   -1021.3206    18.043334   -1003.2772 
  436400      457.812   -1022.8498    18.226468   -1004.6233 
  436600    470.89485   -1021.7459    18.747324   -1002.9986 
  436800    420.03133   -1019.3211     16.72234   -1002.5988 
  437000    453.83938   -1023.1175     18.06831   -1005.0492 
  437200    454.06149   -1021.4105    18.077153   -1003.3334 
  437400    467.36196   -1021.2887    18.606673    -1002.682 
  437600    450.31448    -1022.745    17.927976    -1004.817 
  437800    479.56715   -1023.2134    19.092587   -1004.1209 
  438000    480.21968   -1021.1357    19.118566   -1002.0171 
  438200    441.67027   -1021.4829    17.583832    -1003.899 
  438400    473.78432    -1023.145     18.86236   -1004.2827 
  438600    461.76232   -1021.8307    18.383739    -1003.447 
  438800    445.65807   -1021.7636    17.742595    -1004.021 
  439000    463.56977    -1023.275    18.455697   -1004.8193 
  439200     440.6684   -1020.5528    17.543945   -1003.0088 
  439400    470.22715   -1021.4972    18.720742   -1002.7764 
  439600    422.72611    -1021.663    16.829625   -1004.8334 
  439800    454.53654   -1021.9557    18.096065   -1003.8596 
  440000    462.07264   -1021.4623    18.396094   -1003.0662 
  440200    472.64937   -1022.6878    18.817175   -1003.8707 
  440400    437.89601   -1022.8647    17.433571   -1005.4312 
  440600    470.04292   -1021.6326    18.713407   -1002.9192 
  440800    482.25488   -1021.2177    19.199591   -1002.0182 
  441000    472.17092   -1023.4135    18.798127   -1004.6153 
  441200    453.51122   -1022.6351    18.055245   -1004.5798 
  441400    447.82477   -1021.1565    17.828856   -1003.3277 
  441600    460.67573   -1022.3173    18.340479   -1003.9768 
  441800     428.8422   -1021.2248    17.073119   -1004.1516 
  442000     462.5312   -1021.2403     18.41435   -1002.8259 
  442200    416.03182   -1021.8295    16.563111   -1005.2664 
  442400    467.05512   -1022.4603    18.594457   -1003.8658 
  442600    467.32001   -1021.3219    18.605002   -1002.7169 
  442800    489.81575   -1022.0854    19.500606   -1002.5848 
  443000    465.38665    -1021.639    18.528031    -1003.111 
  443200     458.6172   -1022.6301    18.258525   -1004.3716 
  443400    459.90583   -1021.9513    18.309828   -1003.6415 
  443600    428.63311   -1021.4714    17.064795   -1004.4066 
  443800     441.5347     -1022.02    17.578434   -1004.4416 
  444000    470.42109   -1021.0601    18.728463   -1002.3317 
  444200    447.63987   -1022.4373    17.821494   -1004.6158 
  444400    436.83705   -1021.4052    17.391411   -1004.0138 
  444600    455.01848   -1021.3207    18.115252   -1003.2054 
  444800    421.51414   -1021.1235    16.781374   -1004.3421 
  445000    487.20954   -1021.5831    19.396847   -1002.1862 
  445200    428.23513   -1021.3729     17.04895    -1004.324 
  445400    437.66201   -1021.7953    17.424254    -1004.371 
  445600    438.94453     -1020.66    17.475315   -1003.1847 
  445800    482.12669   -1022.6469    19.194488   -1003.4524 
  446000    451.51047   -1022.5605    17.975591   -1004.5849 
  446200    458.18698   -1021.7799    18.241397   -1003.5385 
  446400    466.25599   -1021.4483    18.562642   -1002.8856 
  446600    459.29936   -1022.0061    18.285683   -1003.7204 
  446800    462.22949   -1022.1417    18.402338   -1003.7394 
  447000    506.06806   -1022.8776    20.147645   -1002.7299 
  447200    450.46512   -1022.5266    17.933974   -1004.5926 
  447400    470.73615   -1022.8451    18.741006   -1004.1041 
  447600     464.6349   -1019.7091    18.498103    -1001.211 
  447800    423.44628   -1021.7803    16.858296    -1004.922 
  448000    439.11077    -1023.538    17.481933   -1006.0561 
  448200    497.11102   -1021.4697    19.791046   -1001.6787 
  448400    429.17517   -1021.2477    17.086375   -1004.1613 
  448600    418.89158   -1021.4804    16.676964   -1004.8034 
  448800    448.15408   -1019.3613    17.841966   -1001.5194 
  449000    462.05294   -1020.8727    18.395309   -1002.4774 
  449200    421.16256   -1022.1924    16.767376   -1005.4251 
  449400    443.43901   -1020.8202    17.654249   -1003.1659 
  449600    497.19739   -1021.8966    19.794485   -1002.1021 
  449800    445.49723   -1022.8022    17.736191    -1005.066 
  450000    459.09918   -1022.1835    18.277714   -1003.9058 
  450200    451.33437   -1020.8592     17.96858   -1002.8907 
  450400     442.8846   -1021.1696    17.632177   -1003.5374 
  450600    441.52621   -1021.6379    17.578096   -1004.0598 
  450800    487.99653   -1021.1101    19.428179   -1001.6819 
  451000    456.59316   -1023.1153    18.177944   -1004.9374 
  451200    415.64309   -1021.3516    16.547634   -1004.8039 
  451400    472.19761   -1021.0091     18.79919   -1002.2099 
  451600    433.12703   -1022.1674    17.243707   -1004.9236 
  451800    427.31376    -1020.849    17.012269   -1003.8367 
  452000    478.90751     -1021.06    19.066325   -1001.9936 
  452200    423.39922     -1021.97    16.856422   -1005.1135 
  452400    434.15405    -1022.423    17.284595   -1005.1384 
  452600    497.82662   -1019.6733    19.819535   -999.85374 
  452800    466.77957   -1021.8708    18.583487   -1003.2873 
  453000    437.15285    -1023.115    17.403984   -1005.7111 
  453200    494.19714   -1021.0478    19.675038   -1001.3727 
  453400    470.63212   -1020.6545    18.736865   -1001.9176 
  453600    446.47484   -1023.9105    17.775112   -1006.1354 
  453800    446.77104   -1020.5982    17.786904   -1002.8113 
  454000    496.14608   -1021.5309    19.752629   -1001.7783 
  454200    426.56108   -1022.6325    16.982303   -1005.6502 
  454400    436.61016   -1020.8977    17.382378   -1003.5154 
  454600    485.77124    -1021.221    19.339585   -1001.8814 
  454800    423.85905   -1022.5781    16.874729   -1005.7034 
  455000    443.54794   -1021.9554    17.658586   -1004.2969 
  455200    489.61664    -1021.656    19.492679   -1002.1633 
  455400    431.73763    -1020.767    17.188392   -1003.5786 
  455600    469.86419   -1022.3725    18.706292   -1003.6662 
  455800    488.39326   -1023.1148    19.443973   -1003.6709 
  456000    466.06713   -1021.7971    18.555123    -1003.242 
  456200    471.35186   -1022.9825    18.765519   -1004.2169 
  456400    447.64177   -1022.7182     17.82157   -1004.8966 
  456600    496.85926   -1022.9483    19.781023   -1003.1673 
  456800    449.76462   -1021.3527    17.906085   -1003.4466 
  457000    456.51154     -1022.28    18.174694   -1004.1053 
  457200    445.39649   -1022.0624     17.73218   -1004.3302 
  457400     466.8771    -1021.301    18.587369   -1002.7136 
  457600    466.35642    -1022.999     18.56664   -1004.4324 
  457800    430.00461    -1021.807    17.119397   -1004.6876 
  458000    481.07761   -1023.3319    19.152722   -1004.1791 
  458200    452.58753    -1022.118    18.018471   -1004.0996 
  458400    469.87754   -1023.4482    18.706823   -1004.7413 
  458600    469.37511   -1024.7912    18.686821   -1006.1043 
  458800    479.99097   -1023.4916     19.10946   -1004.3821 
  459000    482.44141    -1022.637    19.207018   -1003.4299 
  459200    467.39116   -1023.9399    18.607835    -1005.332 
  459400    472.28692   -1024.2202    18.802746   -1005.4175 
  459600     459.5216   -1023.0069    18.294531   -1004.7123 
  459800    482.99384   -1023.6165    19.229011   -1004.3875 
  460000    424.09291   -1022.6643     16.88404   -1005.7803 
  460200    464.74446   -1022.1189    18.502464   -1003.6164 
  460400     459.8348   -1024.1141    18.307001   -1005.8071 
  460600    465.74839   -1024.1757    18.542433   -1005.6332 
  460800     524.1751   -1024.0717    20.868524   -1003.2032 
  461000    456.24651   -1024.6231    18.164143    -1006.459 
  461200    455.07552    -1023.962    18.117523   -1005.8445 
  461400    462.44906   -1022.3627     18.41108   -1003.9516 
  461600    495.67009   -1022.9543     19.73368   -1003.2206 
  461800    441.29851   -1024.3762    17.569031   -1006.8072 
  462000    459.08709    -1023.637    18.277232   -1005.3597 
  462200    481.16835   -1022.1442    19.156335   -1002.9879 
  462400    468.68479   -1024.6214    18.659337   -1005.9621 
  462600    474.50196   -1024.6041    18.890931   -1005.7132 
  462800    472.12227    -1022.363    18.796191   -1003.5668 
  463000    464.86826   -1024.0743    18.507393   -1005.5669 
  463200    435.21469   -1023.4257    17.326822   -1006.0989 
  463400    516.78649   -1023.4958    20.574368   -1002.9214 
  463600    444.88853   -1023.5223    17.711958   -1005.8103 
  463800    468.80069   -1023.4107    18.663951   -1004.7467 
  464000    446.98063   -1022.1576    17.795249   -1004.3623 
  464200    423.82635   -1022.7884    16.873428    -1005.915 
  464400     477.2999   -1023.1643    19.002323   -1004.1619 
  464600    463.38301   -1023.6668    18.448262   -1005.2185 
  464800    455.59276    -1023.185    18.138116   -1005.0469 
  465000    441.86702   -1022.9952    17.591665   -1005.4036 
  465200     491.7187   -1022.4172    19.576366   -1002.8409 
  465400    443.55198   -1024.0957    17.658747   -1006.4369 
  465600    457.54372   -1024.1563    18.215787   -1005.9405 
  465800    504.36955    -1022.732    20.080023    -1002.652 
  466000    478.44701   -1024.1656    19.047992   -1005.1176 
  466200    425.02826   -1024.6605    16.921278   -1007.7392 
  466400     501.5567   -1024.4159    19.968038   -1004.4479 
  466600    447.39192   -1021.4581    17.811623   -1003.6465 
  466800    439.59365   -1024.3683    17.501157   -1006.8672 
  467000    446.40647   -1022.8538     17.77239   -1005.0814 
  467200    495.96434   -1022.7511    19.745394   -1003.0057 
  467400    459.74428   -1023.9986    18.303396   -1005.6952 
  467600    476.82838   -1024.1957    18.983551   -1005.2121 
  467800    449.37766   -1021.0774    17.890679   -1003.1867 
  468000    463.70673   -1023.3639     18.46115   -1004.9027 
  468200      441.255   -1024.3596    17.567299   -1006.7923 
  468400    486.88885   -1022.5562     19.38408   -1003.1721 
  468600    425.18562   -1021.4679    16.927543   -1004.5404 
  468800    425.71077   -1023.9609     16.94845   -1007.0125 
  469000    494.98814   -1023.9875    19.706529    -1004.281 
  469200    453.15193   -1025.3025    18.040941   -1007.2615 
  469400    477.00842   -1025.8489    18.990719   -1006.8582 
  469600    473.99619   -1022.2906    18.870795   -1003.4198 
  469800    457.18391   -1024.2972    18.201463   -1006.0958 
  470000    454.03739   -1024.5988    18.076193   -1006.5226 
  470200    507.56646   -1023.3965    20.207299   -1003.1892 
  470400    456.59884   -1024.3994     18.17817   -1006.2213 
  470600    440.16891    -1024.679     17.52406    -1007.155 
  470800    478.34879   -1022.0268    19.044082   -1002.9827 
  471000    493.41128   -1024.0798    19.643751    -1004.436 
  471200    425.87165   -1024.4216    16.954855   -1007.4667 
  471400    467.62944   -1023.4631    18.617321   -1004.8458 
  471600    478.47089   -1023.2807    19.048943   -1004.2317 
  471800     446.0323   -1025.1814    17.757494   -1007.4239 
  472000    447.08302   -1023.1821    17.799325   -1005.3828 
  472200    471.31251   -1022.8002    18.763952   -1004.0362 
  472400    504.04072   -1026.0053    20.066932   -1005.9383 
  472600    437.85282   -1024.4898    17.431851   -1007.0579 
  472800    468.36753   -1021.2301    18.646707   -1002.5834 
  473000    463.86621   -1022.2012    18.467499   -1003.7337 
  473200    463.65321   -1025.2969    18.459019   -1006.8378 
  473400    474.65431   -1023.9058    18.896997   -1005.0088 
  473600    459.93294   -1023.5346    18.310907   -1005.2237 
  473800    466.47637   -1023.2892    18.571415   -1004.7178 
  474000    456.02527    -1023.471    18.155335   -1005.3157 
  474200    482.00625   -1024.9177    19.189693    -1005.728 
  474400    469.75206   -1023.1402    18.701827   -1004.4383 
  474600    486.35922   -1024.0636    19.362994   -1004.7006 
  474800    464.24078   -1025.0356    18.482412   -1006.5532 
  475000    494.60688   -1024.3828    19.691351   -1004.6915 
  475200    478.39804   -1023.6889    19.046042   -1004.6428 
  475400    447.76922   -1025.9649    17.826644   -1008.1382 
  475600     468.5538   -1024.7017    18.654122   -1006.0476 
  475800    530.11371   -1023.9028    21.104953   -1002.7978 
  476000    433.60048   -1024.2749    17.262556   -1007.0123 
  476200    430.86299   -1023.8836    17.153571   -1006.7301 
  476400    473.30548   -1021.7713    18.843297    -1002.928 
  476600    474.97857   -1022.7327    18.909906   -1003.8228 
  476800    463.84575   -1024.5169    18.466685   -1006.0502 
  477000    465.20431    -1025.102    18.520772   -1006.5813 
  477200    469.40491   -1023.1776    18.688007   -1004.4896 
  477400    484.04124   -1025.1669     19.27071   -1005.8962 
  477600    470.09208   -1024.3676    18.715365   -1005.6522 
  477800    470.55553   -1023.6102    18.733816   -1004.8764 
  478000    438.67665   -1024.2833    17.464649   -1006.8186 
  478200    483.98754   -1024.8185    19.268572   -1005.5499 
  478400    472.55763   -1023.5449    18.813523   -1004.7313 
  478600    464.43864   -1024.6277    18.490289   -1006.1374 
  478800    434.45524   -1023.9384    17.296586   -1006.6418 
  479000    480.76972   -1023.4126    19.140464   -1004.2722 
  479200    480.93704   -1024.7812    19.147126   -1005.6341 
  479400     467.3507   -1024.4049    18.606224   -1005.7987 
  479600    463.61386   -1023.8412    18.457453   -1005.3837 
  479800    446.03562   -1024.0391    17.757626   -1006.2815 
  480000    465.07239   -1024.4975     18.51552    -1005.982 
  480200    502.75296   -1024.4807    20.015663    -1004.465 
  480400    455.01822     -1024.46    18.115242   -1006.3447 
  480600    479.80884   -1024.9508    19.102209   -1005.8486 
  480800    481.78294   -1023.5739    19.180802   -1004.3931 
  481000    453.92282   -1022.4426    18.071632    -1004.371 
  481200    476.88947   -1024.7586    18.985983   -1005.7726 
  481400    468.66483   -1022.7076    18.658542    -1004.049 
  481600    492.34256   -1022.9752    19.601203    -1003.374 
  481800    420.64391   -1023.9151    16.746728   -1007.1684 
  482000     463.9427   -1023.4807    18.470544   -1005.0102 
  482200    461.90951   -1022.6736    18.389599    -1004.284 
  482400    488.09817    -1025.032    19.432225   -1005.5998 
  482600    453.46654   -1024.3944    18.053467    -1006.341 
  482800    483.20781   -1024.9784    19.237529   -1005.7408 
  483000    452.66507    -1022.703    18.021558   -1004.6814 
  483200    483.54795   -1025.2148    19.251071   -1005.9637 
  483400     442.1501   -1024.4227    17.602935   -1006.8198 
  483600       486.71   -1024.8278    19.376959   -1005.4508 
  483800    465.63079   -1024.9644    18.537751   -1006.4266 
  484000    491.61119   -1025.6973    19.572086   -1006.1252 
  484200     448.1455   -1023.9606    17.841625   -1006.1189 
  484400    515.53221   -1026.0316    20.524433   -1005.5072 
  484600    449.70777   -1025.1726    17.903822   -1007.2688 
  484800    482.95301   -1024.8396    19.227385   -1005.6122 
  485000    476.88231    -1023.738    18.985698   -1004.7523 
  485200    478.24166   -1026.0434    19.039817   -1007.0036 
  485400    456.06951    -1025.153    18.157096   -1006.9959 
  485600    511.75597   -1025.1388    20.374093   -1004.7647 
  485800    511.14817   -1026.2629    20.349895    -1005.913 
  486000    477.49563   -1025.1829    19.010116   -1006.1728 
  486200    503.40822   -1024.7774    20.041751   -1004.7357 
  486400     466.4254   -1024.2932    18.569386   -1005.7238 
  486600    461.22951   -1024.5764    18.362527   -1006.2138 
  486800     504.3023   -1024.6143    20.077346    -1004.537 
  487000    471.37042   -1025.6254    18.766258   -1006.8591 
  487200    477.64588   -1024.4448    19.016097   -1005.4287 
  487400      478.004   -1022.4746    19.030355   -1003.4442 
  487600    465.71375   -1024.8347    18.541054   -1006.2937 
  487800    448.16041   -1024.2158    17.842218   -1006.3736 
  488000    500.94245   -1023.8186    19.943583    -1003.875 
  488200    494.62279   -1025.4678    19.691984   -1005.7758 
  488400    416.84513   -1023.9073     16.59549   -1007.3118 
  488600    509.51221   -1024.4334    20.284764   -1004.1487 
  488800     468.7401   -1024.3971    18.661539   -1005.7355 
  489000    452.00142    -1025.267    17.995137   -1007.2719 
  489200    446.30006   -1022.1235    17.768153   -1004.3553 
  489400    503.42724   -1023.9606    20.042508   -1003.9181 
  489600    444.68771   -1025.8261    17.703963   -1008.1221 
  489800     480.9286   -1023.7927    19.146789   -1004.6459 
  490000    485.14654    -1023.124    19.314714   -1003.8093 
  490200    458.90299   -1027.5999    18.269903     -1009.33 
  490400    497.26946   -1025.3504    19.797354    -1005.553 
  490600    508.11793   -1023.9638    20.229254   -1003.7345 
  490800    439.27353   -1026.2817    17.488413   -1008.7933 
  491000    456.21233   -1026.2689    18.162782   -1008.1061 
  491200    521.68465   -1024.1331    20.769374   -1003.3637 
  491400    458.38297   -1025.7395      18.2492   -1007.4903 
  491600    437.24496   -1025.6882    17.407651   -1008.2805 
  491800    508.69622   -1025.0912    20.252277   -1004.8389 
  492000    479.33356   -1024.9589    19.083287   -1005.8756 
  492200    433.80487   -1024.8842    17.270693   -1007.6135 
  492400    459.89019   -1024.4853    18.309206   -1006.1761 
  492600    472.43102   -1024.7856    18.808483   -1005.9771 
  492800    457.03124   -1025.3333    18.195385   -1007.1379 
  493000    467.21354   -1024.9268    18.600764   -1006.3261 
  493200    476.52057   -1024.6494    18.971296   -1005.6781 
  493400     444.4036    -1026.278    17.692651   -1008.5853 
  493600    481.24493     -1026.88    19.159383   -1007.7206 
  493800    483.92368   -1025.0131     19.26603    -1005.747 
  494000    448.19505   -1025.4886    17.843597    -1007.645 
  494200    479.01117   -1026.7913    19.070452   -1007.7208 
  494400    449.59517   -1025.2191    17.899339   -1007.3197 
  494600    471.63748   -1025.2143     18.77689   -1006.4374 
  494800    463.31327   -1024.3279    18.445486   -1005.8824 
  495000    436.70953   -1024.8177    17.386334   -1007.4314 
  495200    457.71623    -1025.852    18.222655   -1007.6293 
  495400    500.94122   -1027.7974    19.943534   -1007.8538 
  495600    494.15483   -1026.9023    19.673354    -1007.229 
  495800    483.65183   -1025.7609    19.255207   -1006.5057 
  496000    489.48162   -1026.4116    19.487303   -1006.9243 
  496200    469.59093   -1026.1052    18.695413   -1007.4097 
  496400    457.41753   -1025.6566    18.210764   -1007.4458 
  496600    502.26191   -1026.3698    19.996114   -1006.3737 
  496800    503.52502   -1026.7589    20.046401   -1006.7125 
  497000    477.09746   -1025.4522    18.994263   -1006.4579 
  497200    470.32324   -1026.0431    18.724567   -1007.3185 
  497400    469.53877   -1026.9428    18.693336   -1008.2495 
  497600     517.8259    -1024.953    20.615749   -1004.3373 
  497800    454.19285   -1024.9978    18.082382   -1006.9155 
  498000    462.02203   -1026.4006    18.394079   -1008.0065 
  498200    500.32147   -1026.2808    19.918861   -1006.3619 
  498400    490.19242   -1026.1366    19.515602    -1006.621 
  498600    462.15783   -1026.3815    18.399485    -1007.982 
  498800    496.86764   -1025.9575    19.781356   -1006.1761 
  499000     488.4335   -1025.6975    19.445575   -1006.2519 
  499200    454.47901   -1025.6734    18.093775   -1007.5796 
  499400    476.96128   -1026.7979    18.988842    -1007.809 
  499600     472.9695   -1025.6531    18.829921   -1006.8232 
  499800      470.679   -1024.4298    18.738731    -1005.691 
  500000    442.24167   -1026.2826    17.606581    -1008.676 
  500200    475.25602   -1025.8464    18.920952   -1006.9254 
  500400    473.14565   -1024.4525    18.836933   -1005.6156 
  500600    492.03032   -1026.2941    19.588773   -1006.7053 
  500800    456.26798   -1027.5073    18.164998   -1009.3423 
  501000    495.01263   -1026.3359    19.707505   -1006.6284 
  501200    479.97096   -1025.3743    19.108664   -1006.2656 
  501400    470.85339   -1028.2665    18.745674   -1009.5208 
  501600    482.49112   -1025.5615    19.208997   -1006.3525 
  501800    478.27998   -1024.6967    19.041342   -1005.6553 
  502000    444.23238   -1026.5342    17.685835   -1008.8483 
  502200    482.70072   -1025.3732    19.217341   -1006.1559 
  502400     486.3059    -1025.703    19.360871   -1006.3422 
  502600    443.87339    -1026.446    17.671543   -1008.7745 
  502800    463.79659    -1027.307    18.464728   -1008.8422 
  503000    507.60916   -1025.7638    20.208999   -1005.5548 
  503200    456.44107   -1025.7783    18.171889   -1007.6064 
  503400    467.01096   -1026.4973    18.592699   -1007.9046 
  503600     449.9281   -1024.4009    17.912594   -1006.4883 
  503800    478.16684   -1025.6855    19.036838   -1006.6487 
  504000    498.20367   -1027.7691    19.834547   -1007.9345 
  504200    481.90553   -1026.0086    19.185683    -1006.823 
  504400    506.55286    -1025.599    20.166946   -1005.4321 
  504600    437.95377   -1025.6429     17.43587    -1008.207 
  504800    490.58488    -1025.241    19.531227   -1005.7098 
  505000      481.152   -1025.2156    19.155683   -1006.0599 
  505200    463.80659   -1026.8233    18.465126   -1008.3582 
  505400    512.24463   -1027.2832    20.393547   -1006.8896 
  505600    433.89378    -1024.547    17.274233   -1007.2727 
  505800    494.49045   -1025.2065    19.686715   -1005.5198 
  506000    451.47028   -1025.3664    17.973991   -1007.3924 
  506200    471.68162   -1025.8896    18.778648    -1007.111 
  506400    472.20649   -1025.2565    18.799544    -1006.457 
  506600    462.48762   -1027.2699    18.412615   -1008.8573 
  506800    477.03223   -1025.4616    18.991666     -1006.47 
  507000    476.50662    -1024.259    18.970741   -1005.2882 
  507200    480.50185   -1026.4847    19.129799   -1007.3549 
  507400    440.70707   -1026.0982    17.545485   -1008.5527 
  507600    519.83018   -1026.6208    20.695544   -1005.9252 
  507800    472.50585    -1026.216    18.811462   -1007.4045 
  508000    455.75135   -1026.1354     18.14443    -1007.991 
  508200    498.54443    -1024.211    19.848113   -1004.3629 
  508400    450.53391   -1025.9219    17.936712   -1007.9852 
  508600    457.50851   -1027.3805    18.214386   -1009.1661 
  508800    498.02871   -1025.0547    19.827581   -1005.2271 
  509000    474.03096   -1025.2988     18.87218   -1006.4266 
  509200    436.76439   -1026.9222    17.388518   -1009.5336 
  509400    498.31451   -1026.9777    19.838959   -1007.1387 
  509600    505.98287   -1025.6121    20.144253   -1005.4679 
  509800    477.68988   -1024.5525    19.017849   -1005.5346 
  510000    428.33516   -1025.9871    17.052933   -1008.9341 
  510200    463.50566   -1023.8825    18.453145   -1005.4294 
  510400    492.96348   -1024.5189    19.625924    -1004.893 
  510600    425.10229     -1025.84    16.924225   -1008.9158 
  510800    474.03167   -1026.2099    18.872208   -1007.3377 
  511000    500.28674   -1024.6261    19.917478   -1004.7086 
  511200    467.35074    -1027.052    18.606226   -1008.4457 
  511400    479.04404   -1025.7009    19.071761   -1006.6291 
  511600    521.76495   -1025.3824    20.772571   -1004.6098 
  511800    441.84267   -1026.5832    17.590695   -1008.9925 
  512000    480.62528   -1026.1215    19.134713   -1006.9868 
  512200    550.46583   -1025.6298    21.915214   -1003.7146 
  512400     426.5356    -1026.095    16.981289   -1009.1137 
  512600    453.63897   -1026.2609    18.060331   -1008.2005 
  512800    520.96677   -1025.9362    20.740794   -1005.1954 
  513000      443.118   -1024.9392    17.641469   -1007.2977 
  513200    457.98748   -1025.5729    18.233455   -1007.3395 
  513400    498.50864   -1024.7195    19.846688   -1004.8728 
  513600    470.23263   -1026.0424     18.72096   -1007.3214 
  513800    447.92215   -1026.3063    17.832732   -1008.4736 
  514000    471.44828   -1025.3944    18.769358    -1006.625 
  514200    478.48612   -1025.8038    19.049549   -1006.7543 
  514400    449.82813   -1026.0305    17.908613   -1008.1219 
  514600    469.58161   -1025.5744    18.695042   -1006.8793 
  514800    465.74904   -1025.8824    18.542459   -1007.3399 
  515000    471.53296   -1026.6372    18.772729   -1007.8644 
  515200    512.08444    -1027.323    20.387169   -1006.9359 
  515400    507.54451   -1027.8218    20.206425   -1007.6154 
  515600    454.14952     -1026.09    18.080657   -1008.0094 
  515800    466.59927   -1025.7323    18.576308    -1007.156 
  516000    490.75319   -1026.1525    19.537927   -1006.6145 
  516200    461.41519   -1026.3142    18.369919   -1007.9443 
  516400    473.31716   -1028.2042    18.843762   -1009.3605 
  516600    450.18477   -1025.1093    17.922812   -1007.1865 
  516800    494.70566   -1024.8212    19.695283   -1005.1259 
  517000    437.75157   -1026.7656     17.42782   -1009.3378 
  517200    492.00641   -1026.6909    19.587821   -1007.1031 
  517400    497.00241   -1025.7769    19.786722   -1005.9902 
  517600    453.65017   -1027.5616    18.060777   -1009.5008 
  517800    496.24503   -1026.9567    19.756569   -1007.2001 
  518000    479.49732   -1025.8312    19.089807   -1006.7414 
  518200    455.67493   -1025.9908    18.141387   -1007.8494 
  518400    498.06032   -1024.9196     19.82884   -1005.0908 
  518600    493.26844   -1026.9642    19.638064   -1007.3261 
  518800    455.74884   -1027.9266    18.144329   -1009.7822 
  519000    514.15055     -1027.87    20.469426   -1007.4006 
  519200    486.79811   -1026.5029    19.380467   -1007.1224 
  519400    505.66828   -1027.5431    20.131728   -1007.4113 
  519600    440.42027   -1026.2598    17.534067   -1008.7257 
  519800    471.87902   -1027.5864    18.786506   -1008.7999 
  520000    524.50883   -1026.9583    20.881811   -1006.0765 
  520200     469.6652   -1026.1287     18.69837   -1007.4303 
  520400    469.42476   -1026.9557    18.688797   -1008.2669 
  520600     465.3913   -1026.1966    18.528216   -1007.6684 
  520800    486.64122   -1025.3034    19.374221   -1005.9292 
  521000    482.43333   -1028.2657    19.206696    -1009.059 
  521200     452.7902   -1027.1152     18.02654   -1009.0887 
  521400      485.722   -1025.3503    19.337625   -1006.0126 
  521600    506.69989   -1028.0804    20.172799   -1007.9076 
  521800    464.60183   -1027.2972    18.496786   -1008.8005 
  522000    517.21296   -1026.0624    20.591347   -1005.4711 
  522200    459.57358    -1025.899    18.296601   -1007.6024 
  522400    476.07947    -1026.977    18.953735   -1008.0232 
  522600    483.97074   -1026.2864    19.267903   -1007.0185 
  522800    458.97279   -1025.9885    18.272682   -1007.7158 
  523000    508.20027   -1027.9282    20.232532   -1007.6957 
  523200     476.7767   -1025.7209    18.981494   -1006.7394 
  523400    482.74313   -1026.7924     19.21903   -1007.5734 
  523600    462.46152   -1027.0966    18.411576    -1008.685 
  523800    501.35538   -1025.8976    19.960023   -1005.9376 
  524000    501.97775   -1026.9907    19.984801   -1007.0059 
  524200    483.94303   -1027.0258      19.2668    -1007.759 
  524400    485.32276   -1025.8696     19.32173   -1006.5479 
  524600    453.34094   -1025.8733    18.048466   -1007.8249 
  524800    463.12192   -1026.2066    18.437868   -1007.7687 
  525000    458.87875   -1023.8289    18.268938     -1005.56 
  525200    519.61188   -1027.0403    20.686853   -1006.3535 
  525400    460.76069   -1027.7327    18.343862   -1009.3888 
  525600    479.92516   -1025.3157     19.10684   -1006.2089 
  525800     519.4367   -1025.9767    20.679879   -1005.2968 
  526000    483.12352   -1028.0664    19.234174   -1008.8322 
  526200    469.79868    -1026.249    18.703683   -1007.5453 
  526400    489.79111   -1025.3198    19.499625   -1005.8202 
  526600    464.84506    -1027.965     18.50647   -1009.4585 
  526800     491.5212   -1028.4477    19.568503   -1008.8792 
  527000    497.89319   -1025.5988    19.822186   -1005.7767 
  527200    510.25503   -1027.6637    20.314337   -1007.3494 
  527400    447.95266   -1027.9994    17.833947   -1010.1654 
  527600    523.90662    -1027.438    20.857836   -1006.5801 
  527800    517.87513   -1026.8205    20.617709   -1006.2028 
  528000    461.53248   -1028.9411    18.374589   -1010.5665 
  528200    473.09043   -1026.7387    18.834735   -1007.9039 
  528400     489.3118   -1025.5988    19.480542   -1006.1182 
  528600    485.28905   -1028.3169    19.320388   -1008.9965 
  528800    486.55781   -1026.6659      19.3709    -1007.295 
  529000    469.20108   -1025.4854    18.679892   -1006.8055 
  529200    489.23396   -1026.3125    19.477443   -1006.8351 
  529400    491.45108   -1027.2836    19.565712   -1007.7179 
  529600    489.72741   -1025.6377    19.497089   -1006.1406 
  529800    499.53875   -1026.6254    19.887699   -1006.7377 
  530000    475.48141   -1027.2769    18.929925    -1008.347 
  530200    462.74432   -1026.6078    18.422835    -1008.185 
  530400     490.2337    -1025.977    19.517245   -1006.4598 
  530600     468.6994   -1026.4291    18.659919   -1007.7692 
  530800    485.72452   -1029.2453    19.337725   -1009.9076 
  531000    516.07446    -1027.722    20.546021    -1007.176 
  531200    487.98138   -1026.6962    19.427575   -1007.2687 
  531400    440.86554   -1025.4533    17.551794   -1007.9015 
  531600     516.0743   -1026.4324    20.546015   -1005.8864 
  531800    487.28986   -1027.8787    19.400045   -1008.4787 
  532000    447.33863   -1027.0001    17.809501   -1009.1906 
  532200    504.23206   -1026.8798     20.07455   -1006.8052 
  532400    538.41819   -1028.9893    21.435572   -1007.5537 
  532600    471.56327   -1029.3071    18.773936   -1010.5331 
  532800    499.89309   -1027.4448    19.901806    -1007.543 
  533000    498.84307    -1024.478    19.860002    -1004.618 
  533200    478.05699   -1028.8495    19.032464    -1009.817 
  533400    469.36045   -1027.7566    18.686237   -1009.0703 
  533600      520.607    -1026.894    20.726471   -1006.1676 
  533800    466.89368   -1027.1024    18.588029   -1008.5143 
  534000    458.86101   -1027.0294    18.268232   -1008.7612 
  534200    478.89712   -1025.2844    19.065912   -1006.2185 
  534400    509.49161   -1025.6535    20.283943   -1005.3695 
  534600    478.54762   -1028.6797    19.051997   -1009.6277 
  534800    479.65221   -1027.1172    19.095974   -1008.0212 
  535000    510.52628   -1026.2178    20.325136   -1005.8927 
  535200    469.42583   -1028.5728     18.68884   -1009.8839 
  535400    506.33442   -1027.3826    20.158249   -1007.2243 
  535600    505.90577   -1025.4916    20.141183   -1005.3504 
  535800    495.52961   -1028.1363    19.728086   -1008.4082 
  536000    460.50867   -1027.0004    18.333829   -1008.6665 
  536200    495.59136   -1026.3734    19.730545   -1006.6428 
  536400    487.57636    -1026.263    19.411451   -1006.8516 
  536600    481.53579   -1027.6556    19.170963   -1008.4846 
  536800     490.1056   -1027.3603    19.512145   -1007.8482 
  537000    482.24891   -1025.9499    19.199354   -1006.7506 
  537200     461.9402    -1027.241    18.390821   -1008.8502 
  537400    471.17533   -1027.5776    18.758491   -1008.8191 
  537600    510.24703   -1026.4116    20.314018   -1006.0976 
  537800    437.36602   -1025.6778    17.412471   -1008.2653 
  538000    444.70251   -1025.9747    17.704552   -1008.2701 
  538200    530.90429   -1027.3644    21.136428   -1006.2279 
  538400    489.59249   -1027.8984    19.491717   -1008.4066 
  538600    481.96148   -1026.6594    19.187911   -1007.4715 
  538800    472.66127   -1025.7561    18.817649   -1006.9385 
  539000    460.24636   -1026.5288    18.323385   -1008.2054 
  539200    484.26808   -1027.6331    19.279741   -1008.3533 
  539400    528.59084   -1027.5817    21.044325   -1006.5374 
  539600    488.19579   -1028.2251    19.436112    -1008.789 
  539800    456.13929   -1027.1619    18.159874   -1009.0021 
  540000    521.26262   -1026.1808    20.752572   -1005.4282 
  540200    501.13702   -1026.2204     19.95133   -1006.2691 
  540400    448.86032   -1028.3863    17.870083   -1010.5162 
  540600    476.76762   -1025.8044    18.981132   -1006.8233 
  540800     496.4515   -1025.9086    19.764789   -1006.1438 
  541000    473.06926   -1027.3384    18.833892   -1008.5045 
  541200     502.8191   -1027.2352    20.018297   -1007.2169 
  541400    512.03421   -1026.9402     20.38517    -1006.555 
  541600    468.85746   -1025.5798    18.666212   -1006.9136 
  541800    443.98563   -1025.4916    17.676011   -1007.8156 
  542000    474.73684   -1023.7654    18.900282   -1004.8651 
  542200    518.81651   -1028.3634    20.655187   -1007.7082 
  542400    471.94496   -1026.8472    18.789132   -1008.0581 
  542600    521.56866   -1027.8888    20.764756   -1007.1241 
  542800    505.30377   -1028.0358    20.117217   -1007.9186 
  543000    487.40735    -1026.643    19.404722   -1007.2383 
  543200    512.79539   -1025.7584    20.415474    -1005.343 
  543400    490.17657     -1027.73    19.514971   -1008.2151 
  543600    462.04103   -1027.9078    18.394835    -1009.513 
  543800    518.26013   -1026.0885    20.633037   -1005.4555 
  544000    490.76825   -1027.2122    19.538527   -1007.6737 
  544200    457.12848   -1028.6207    18.199256   -1010.4215 
  544400    474.24039   -1025.3967    18.880517   -1006.5161 
  544600    465.95408   -1025.0406    18.550622     -1006.49 
  544800    470.16424   -1029.6485    18.718237   -1010.9302 
  545000    486.62341   -1027.5476    19.373512   -1008.1741 
  545200    543.75922   -1026.4935     21.64821   -1004.8453 
  545400      464.938   -1029.0966    18.510169   -1010.5864 
  545600    504.02547   -1028.8082    20.066325   -1008.7419 
  545800     556.8836   -1027.0231    22.170719   -1004.8524 
  546000    487.98649   -1028.4108    19.427779   -1008.9831 
  546200    475.43736    -1028.562    18.928171   -1009.6338 
  546400      512.639    -1027.132    20.409248   -1006.7227 
  546600    505.14572   -1026.8988    20.110925   -1006.7879 
  546800    452.82649   -1027.0041    18.027985   -1008.9761 
  547000    482.24352   -1026.6079    19.199139   -1007.4088 
  547200    489.26654   -1026.0242     19.47874   -1006.5454 
  547400    484.10149   -1026.8019    19.273109   -1007.5287 
  547600    499.24906   -1026.0743    19.876166   -1006.1982 
  547800     498.0899   -1026.9672    19.830017   -1007.1372 
  548000    463.63574   -1028.4063    18.458324    -1009.948 
  548200    497.21571   -1027.2366    19.795214   -1007.4414 
  548400     497.6082    -1025.435     19.81084   -1005.6242 
  548600     507.1165   -1028.5528    20.189385   -1008.3634 
  548800    467.89356   -1028.0496    18.627837   -1009.4218 
  549000    507.05741   -1025.6428    20.187033   -1005.4557 
  549200     476.9131   -1026.8092    18.986924   -1007.8223 
  549400    482.37526   -1027.9706    19.204384   -1008.7662 
  549600     505.0164   -1028.0911    20.105776   -1007.9853 
  549800     469.8471   -1026.2331    18.705611   -1007.5275 
  550000    483.69459   -1026.8693    19.256909   -1007.6123 
  550200    504.81477   -1027.8702    20.097748   -1007.7724 
  550400    508.70884   -1028.3776     20.25278   -1008.1249 
  550600    502.65788   -1026.3033    20.011878   -1006.2914 
  550800    478.81405   -1025.7357    19.062605   -1006.6731 
  551000    482.77335   -1028.5258    19.220233   -1009.3056 
  551200     489.9505   -1026.7007     19.50597   -1007.1947 
  551400    509.95663   -1027.2016    20.302457   -1006.8991 
  551600    482.05032   -1028.7331    19.191447   -1009.5417 
  551800    484.88804   -1027.3479    19.304423   -1008.0435 
  552000    521.69511   -1025.3554    20.769791   -1004.5856 
  552200     498.7632   -1027.7096    19.856823   -1007.8528 
  552400    475.49411   -1027.9307    18.930431   -1009.0003 
  552600    497.35367   -1024.6733    19.800706   -1004.8725 
  552800    498.24119   -1028.0529    19.836041   -1008.2169 
  553000    466.62891   -1029.2411    18.577488   -1010.6637 
  553200    499.34897    -1024.876    19.880143   -1004.9958 
  553400     520.1663   -1026.7301    20.708925   -1006.0212 
  553600    446.59813   -1029.6252     17.78002   -1011.8452 
  553800    490.90707     -1027.24    19.544053   -1007.6959 
  554000    573.01252    -1025.492    22.812846   -1002.6792 
  554200     447.9555    -1028.572     17.83406   -1010.7379 
  554400     476.7961   -1027.8007    18.982266   -1008.8184 
  554600      525.896   -1024.0323    20.937037   -1003.0953 
  554800    516.60682   -1029.3619    20.567215   -1008.7947 
  555000    462.60121   -1028.4099    18.417137   -1009.9927 
  555200    508.80268    -1024.472    20.256516   -1004.2155 
  555400    497.53109   -1026.3321     19.80777   -1006.5243 
  555600    447.62657   -1029.0051    17.820965   -1011.1841 
  555800    481.76051    -1025.085    19.179909   -1005.9051 
  556000    486.40679   -1024.5907    19.364888   -1005.2258 
  556200    447.40929   -1028.4804    17.812314    -1010.668 
  556400    525.85278   -1026.9395    20.935316   -1006.0041 
  556600    494.80416   -1025.4279    19.699205   -1005.7287 
  556800     434.2013   -1027.1498    17.286476   -1009.8634 
  557000    482.38838   -1027.1158    19.204906   -1007.9109 
  557200    505.89448   -1025.9546    20.140734   -1005.8138 
  557400    501.19305   -1028.1229     19.95356   -1008.1693 
  557600    486.60733   -1028.7696    19.372872   -1009.3967 
  557800    560.96327   -1026.5534     22.33314   -1004.2203 
  558000    480.97749   -1026.0295    19.148736   -1006.8808 
  558200    479.79444   -1026.9052    19.101636   -1007.8036 
  558400    514.22897    -1027.799    20.472548   -1007.3265 
  558600    492.24872   -1027.1256    19.597467   -1007.5281 
  558800    525.08461   -1027.7442    20.904734   -1006.8395 
  559000    449.38309   -1027.5929    17.890896    -1009.702 
  559200     525.9033   -1026.5394    20.937328   -1005.6021 
  559400      505.503   -1026.8173    20.125148   -1006.6922 
  559600    494.83932   -1027.0412    19.700605   -1007.3406 
  559800    496.57047   -1026.9247    19.769525   -1007.1552 
  560000    505.92026   -1026.5957    20.141761   -1006.4539 
  560200    486.26496    -1026.258    19.359241   -1006.8988 
  560400    473.12118   -1026.5149     18.83596    -1007.679 
  560600    488.21035   -1025.5311    19.436691   -1006.0944 
  560800    460.69779   -1025.4393    18.341358    -1007.098 
  561000    466.34389   -1025.8868    18.566141   -1007.3207 
  561200    509.79693   -1027.3699    20.296099   -1007.0738 
  561400    480.90744   -1025.1538    19.145947   -1006.0078 
  561600    465.32171   -1026.3287    18.525446   -1007.8032 
  561800    516.55977   -1028.1042    20.565342   -1007.5389 
  562000    505.31887   -1026.7792    20.117818   -1006.6614 
  562200    478.00535   -1026.5126    19.030409   -1007.4822 
  562400    522.94037   -1028.5063    20.819367   -1007.6869 
  562600    520.47043   -1028.9801    20.721034   -1008.2591 
  562800    522.63357   -1026.8781    20.807153    -1006.071 
  563000    534.97804   -1029.2271    21.298612   -1007.9285 
  563200    509.72373   -1028.5486    20.293185   -1008.2554 
  563400    530.40329    -1026.008    21.116482   -1004.8915 
  563600    512.98245   -1026.2706    20.422921   -1005.8477 
  563800    480.06455   -1027.9099     19.11239   -1008.7976 
  564000    490.82492   -1027.1077    19.540783   -1007.5669 
  564200    542.66645    -1027.044    21.604705   -1005.4393 
  564400    486.55616   -1028.2124    19.370835   -1008.8416 
  564600    491.27564   -1026.7277    19.558727    -1007.169 
  564800    512.14631   -1022.8495    20.389633   -1002.4599 
  565000     506.3675   -1028.4618    20.159566   -1008.3023 
  565200    470.12246   -1029.1824    18.716574   -1010.4659 
  565400     543.7497   -1024.9274    21.647831   -1003.2796 
  565600    499.80525   -1024.5847    19.898309   -1004.6864 
  565800    441.86222   -1028.6409    17.591474   -1011.0495 
  566000    510.49397   -1026.3211    20.323849   -1005.9973 
  566200    536.38349   -1024.2182    21.354567   -1002.8637 
  566400    452.15634   -1028.2065    18.001305   -1010.2052 
  566600     471.0962   -1026.9165    18.755341   -1008.1612 
  566800    540.90784   -1023.3875     21.53469   -1001.8528 
  567000    456.27325   -1026.7874    18.165208   -1008.6222 
  567200     435.1274   -1027.4366    17.323346   -1010.1132 
  567400    519.69868   -1023.4573    20.690309    -1002.767 
  567600    489.84461   -1024.7405    19.501755   -1005.2387 
  567800    461.97409   -1027.4042     18.39217   -1009.0121 
  568000    486.91015    -1024.895    19.384928   -1005.5101 
  568200    547.69645   -1026.8449    21.804959   -1005.0399 
  568400    447.04448   -1028.5446    17.797791   -1010.7468 
  568600    500.55193   -1028.1973    19.928036   -1008.2692 
  568800    550.52514   -1025.9397    21.917575   -1004.0222 
  569000    475.99667   -1027.8019    18.950439   -1008.8515 
  569200    482.51662   -1026.6307    19.210012   -1007.4207 
  569400    542.93054   -1026.0273    21.615218   -1004.4121 
  569600    459.35207   -1027.4735    18.287782   -1009.1857 
  569800    488.79852   -1028.5055    19.460108   -1009.0454 
  570000    525.07436   -1025.2632    20.904326   -1004.3589 
  570200    473.65374   -1026.1275    18.857162   -1007.2704 
  570400     469.4068   -1026.9202    18.688082   -1008.2321 
  570600    542.26089   -1025.3972    21.588558   -1003.8087 
  570800    512.18654   -1026.8063    20.391234   -1006.4151 
  571000    460.84674   -1027.3973    18.347288     -1009.05 
  571200    482.30054    -1025.044    19.201409   -1005.8426 
  571400    557.08756   -1026.5505    22.178839   -1004.3717 
  571600    496.11144   -1028.5621     19.75125   -1008.8108 
  571800    496.65406   -1027.4173    19.772853   -1007.6444 
  572000    498.06008   -1024.2497     19.82883   -1004.4208 
  572200    497.82406   -1027.0491    19.819434   -1007.2297 
  572400    465.63083   -1026.8699    18.537753   -1008.3321 
  572600    493.57939    -1025.704    19.650444   -1006.0535 
  572800    546.10011   -1028.3568    21.741406   -1006.6154 
  573000     476.2741   -1027.6601    18.961484   -1008.6986 
  573200    528.43744   -1026.7237    21.038217   -1005.6855 
  573400    503.18485    -1027.593    20.032858   -1007.5601 
  573600    511.89759   -1029.0185    20.379731   -1008.6388 
  573800    514.17931    -1026.895    20.470571   -1006.4244 
  574000    500.07164   -1027.5755    19.908914   -1007.6666 
  574200    476.74395   -1026.8928     18.98019   -1007.9127 
  574400    527.10256    -1027.506    20.985073   -1006.5209 
  574600       488.49   -1027.1956    19.447825   -1007.7478 
  574800    486.76192   -1028.8125    19.379026   -1009.4335 
  575000    483.69888    -1025.473     19.25708   -1006.2159 
  575200    531.42876   -1027.7176    21.157308   -1006.5603 
  575400     469.6876   -1028.6525    18.699261   -1009.9533 
  575600    510.99561    -1026.462    20.343821   -1006.1182 
  575800    502.57022   -1027.0306    20.008388   -1007.0222 
  576000    495.91262     -1029.15    19.743335   -1009.4067 
  576200    499.69333   -1026.8997    19.893853   -1007.0059 
  576400    476.38898   -1024.5264    18.966058   -1005.5603 
  576600    461.62669   -1026.4899    18.378339   -1008.1116 
  576800    500.93392   -1027.3727    19.943244   -1007.4294 
  577000    552.04076   -1026.6609    21.977916    -1004.683 
  577200    487.87107   -1028.4022    19.423184    -1008.979 
  577400    498.93878   -1027.7642    19.863813   -1007.9004 
  577600    520.53507   -1025.3897    20.723607   -1004.6661 
  577800    474.90119   -1027.4715    18.906826   -1008.5647 
  578000    474.07805   -1029.1706    18.874055   -1010.2965 
  578200    504.70515   -1026.1303    20.093384   -1006.0369 
  578400    541.04644   -1027.8964    21.540208   -1006.3562 
  578600    468.71228   -1029.2121    18.660432   -1010.5517 
  578800     507.9021   -1027.3616    20.220662    -1007.141 
  579000    519.69474   -1026.6647    20.690152   -1005.9745 
  579200    488.42232   -1029.9464     19.44513   -1010.5013 
  579400    495.49588    -1029.227    19.726744   -1009.5003 
  579600     523.5352   -1025.2994    20.843049   -1004.4563 
  579800     513.8182   -1028.4164    20.456194   -1007.9602 
  580000    499.44916   -1030.5341    19.884132     -1010.65 
  580200    533.05766   -1028.3291    21.222158   -1007.1069 
  580400    468.45451   -1026.0687    18.650169   -1007.4185 
  580600    488.11837   -1028.6969    19.433029   -1009.2638 
  580800    510.12592   -1027.1834    20.309197   -1006.8742 
  581000     487.8074   -1026.5421    19.420649   -1007.1215 
  581200    511.24581   -1029.5256    20.353782   -1009.1718 
  581400    524.40987   -1029.2926    20.877871   -1008.4147 
  581600    508.16885   -1027.1437    20.231281   -1006.9124 
  581800    485.16945   -1027.8736    19.315627   -1008.5579 
  582000     511.1833   -1027.3065    20.351293   -1006.9552 
  582200     516.9862   -1027.4778    20.582319   -1006.8955 
  582400    496.10123   -1026.7497    19.750844   -1006.9988 
  582600    493.33834    -1027.475    19.640847   -1007.8342 
  582800    476.83595   -1027.5172    18.983852   -1008.5334 
  583000    495.18831   -1028.5694    19.714499   -1008.8549 
  583200    511.87975   -1027.8175    20.379021   -1007.4385 
  583400    514.01382    -1027.929    20.463982   -1007.4651 
  583600    454.47132   -1028.5092    18.093469   -1010.4157 
  583800    475.90756   -1027.0314    18.946891   -1008.0846 
  584000    539.69109   -1028.5145    21.486249   -1007.0282 
  584200    508.87817   -1029.0823    20.259521   -1008.8227 
  584400    522.29659   -1028.5577    20.793737    -1007.764 
  584600     478.8065   -1026.8921    19.062304   -1007.8298 
  584800    499.85984    -1028.162    19.900482   -1008.2615 
  585000    512.53234   -1028.6383    20.405001   -1008.2333 
  585200    501.72293   -1026.7491    19.974656   -1006.7745 
  585400    511.29106   -1027.9575    20.355583   -1007.6019 
  585600    476.25859   -1029.6823    18.960866   -1010.7214 
  585800    543.17188   -1028.1635    21.624826   -1006.5387 
  586000    486.95289   -1027.0977    19.386629   -1007.7111 
  586200    489.18937   -1028.1707    19.475668    -1008.695 
  586400      523.728   -1027.5405    20.850725   -1006.6897 
  586600    500.51001   -1027.8154    19.926367   -1007.8891 
  586800      493.184   -1028.3122    19.634703   -1008.6775 
  587000    510.28359   -1027.9626    20.315474   -1007.6471 
  587200    506.57453   -1028.9871    20.167808   -1008.8193 
  587400    507.60677   -1027.6421    20.208904   -1007.4332 
  587600    511.48843   -1026.4113    20.363441   -1006.0478 
  587800    500.79558   -1028.3458    19.937736    -1008.408 
  588000    502.06912   -1028.7686    19.988438   -1008.7802 
  588200    499.36476   -1026.8973    19.880772   -1007.0166 
  588400    485.92659   -1026.5021     19.34577   -1007.1564 
  588600    501.84465   -1028.8694    19.979502   -1008.8899 
  588800    532.28882   -1028.3078    21.191549   -1007.1163 
  589000    552.68611   -1027.2498    22.003608   -1005.2462 
  589200    474.22835   -1026.8471    18.880038    -1007.967 
  589400    514.29616   -1027.0838    20.475223   -1006.6086 
  589600    528.64142    -1026.767    21.046338   -1005.7207 
  589800    521.01265   -1028.4341    20.742621   -1007.6915 
  590000    465.37567   -1026.3039    18.527594   -1007.7763 
  590200    539.68205   -1028.2023    21.485889   -1006.7164 
  590400    485.97804   -1027.1672    19.347818   -1007.8194 
  590600    476.40939   -1028.2347     18.96687   -1009.2678 
  590800    508.72494   -1026.7209    20.253421   -1006.4675 
  591000    493.83798   -1026.1142    19.660739   -1006.4535 
  591200    492.78381   -1028.4092    19.618771   -1008.7904 
  591400    505.24687   -1028.0432    20.114951   -1007.9282 
  591600     527.4803   -1026.7662    21.000112   -1005.7661 
  591800    520.59436   -1027.5058    20.725968   -1006.7798 
  592000    470.91269   -1028.0108    18.748035   -1009.2628 
  592200     527.2131   -1026.6947    20.989474   -1005.7052 
  592400    513.03701   -1027.9105    20.425093   -1007.4854 
  592600    490.05187   -1028.1642    19.510006   -1008.6542 
  592800    519.00693   -1026.2638    20.662769   -1005.6011 
  593000    474.20604   -1026.5619     18.87915   -1007.6827 
  593200    534.23991   -1028.5742    21.269226    -1007.305 
  593400    516.29893   -1026.8284    20.554957   -1006.2734 
  593600    466.02975   -1025.4757    18.553635   -1006.9221 
  593800    532.02232   -1027.8805    21.180939   -1006.6995 
  594000    496.84677   -1028.2077    19.780526   -1008.4272 
  594200    550.32239   -1028.1391    21.909504   -1006.2296 
  594400    467.67766    -1026.079    18.619241   -1007.4597 
  594600    544.76058   -1027.1782    21.688076   -1005.4901 
  594800    479.64933   -1027.9487    19.095859   -1008.8528 
  595000    451.45326   -1025.0273    17.973314    -1007.054 
  595200    543.33449   -1026.7154      21.6313   -1005.0841 
  595400    503.56691   -1028.1829    20.048069   -1008.1348 
  595600    506.78717   -1027.7693    20.176274    -1007.593 
  595800    494.90596   -1026.4562    19.703258    -1006.753 
  596000    517.08235   -1027.5979    20.586147   -1007.0117 
  596200    489.74798   -1029.0812    19.497908   -1009.5833 
  596400    531.43601   -1028.2337    21.157597   -1007.0761 
  596600    490.54681    -1026.173    19.529711   -1006.6433 
  596800    468.85413   -1028.3731    18.666079    -1009.707 
  597000    537.36068    -1027.898     21.39347   -1006.5045 
  597200    515.57454   -1027.4752    20.526118   -1006.9491 
  597400    508.30543    -1028.816    20.236719   -1008.5793 
  597600    535.92192   -1027.7814     21.33619   -1006.4452 
  597800    511.98306   -1026.3306    20.383134   -1005.9475 
  598000    512.55189   -1027.4327     20.40578   -1007.0269 
  598200    487.17868    -1029.168    19.395618   -1009.7724 
  598400     504.1213    -1027.572     20.07014   -1007.5019 
  598600    534.32027   -1027.3494    21.272425   -1006.0769 
  598800    490.25595   -1029.4287    19.518131   -1009.9106 
  599000    486.94036   -1027.2262    19.386131     -1007.84 
  599200    521.01479   -1027.1588    20.742706   -1006.4161 
  599400    481.01656   -1029.0954    19.150291   -1009.9451 
  599600    514.51469   -1028.0583    20.483923   -1007.5744 
  599800    498.25286   -1025.7849    19.836505   -1005.9484 
  600000    494.93199   -1027.9132    19.704294   -1008.2089 
  600200    490.97999   -1028.2593    19.546957   -1008.7124 
  600400    534.60693   -1027.6915    21.283838   -1006.4077 
  600600     527.3407   -1027.2774    20.994554   -1006.2828 
  600800    509.50393   -1027.8489    20.284434   -1007.5645 
  601000      491.326   -1027.9672    19.560732   -1008.4065 
  601200    502.55778   -1027.4194    20.007893   -1007.4115 
  601400    494.00257   -1027.9618    19.667292   -1008.2946 
  601600    514.90199   -1027.6968    20.499342   -1007.1975 
  601800    504.58614   -1028.3124    20.088646   -1008.2238 
  602000    487.44205   -1028.9614    19.406104   -1009.5553 
  602200    555.59579   -1028.7072    22.119449   -1006.5878 
  602400    506.52625   -1027.8126    20.165886   -1007.6467 
  602600    532.93414   -1030.6231    21.217241   -1009.4058 
  602800     523.4882   -1028.1061    20.841178   -1007.2649 
  603000    546.14888   -1029.1019    21.743347   -1007.3585 
  603200    475.05116   -1027.8322    18.912796   -1008.9194 
  603400    492.79641   -1026.8755    19.619272   -1007.2562 
  603600    497.17193   -1025.0442    19.793471   -1005.2507 
  603800    534.55914   -1028.0839    21.281935    -1006.802 
  604000    507.33231   -1028.1133    20.197977   -1007.9153 
  604200    538.97671   -1028.0614    21.457808   -1006.6036 
  604400    530.67666   -1027.6265    21.127365   -1006.4992 
  604600    524.67925   -1028.5261    20.888596   -1007.6375 
  604800    508.70345   -1028.3022    20.252565   -1008.0496 
  605000    494.93502    -1027.194    19.704415   -1007.4896 
  605200    515.80484   -1028.7694    20.535286   -1008.2342 
  605400    531.95918   -1029.8084    21.178425     -1008.63 
  605600    518.25891   -1029.6228    20.632988   -1008.9898 
  605800    503.62606    -1027.483    20.050423   -1007.4325 
  606000    570.31219   -1030.0189     22.70534   -1007.3135 
  606200    469.48563   -1028.3363    18.691221   -1009.6451 
  606400    501.83293   -1027.1756    19.979035   -1007.1965 
  606600    551.38809   -1027.4672    21.951931   -1005.5152 
  606800     469.4234   -1029.4622    18.688743   -1010.7734 
  607000    503.54003   -1028.0268    20.046998   -1007.9798 
  607200    575.59338     -1025.04    22.915595   -1002.1244 
  607400    442.71136   -1028.2962     17.62528   -1010.6709 
  607600    526.09218   -1028.1633    20.944847   -1007.2184 
  607800    573.76736   -1025.6807    22.842898   -1002.8378 
  608000    463.72388   -1029.2054    18.461833   -1010.7436 
  608200    489.49281     -1028.45    19.487749   -1008.9623 
  608400    561.71434   -1026.0959    22.363041   -1003.7329 
  608600    486.00867   -1028.2959    19.349038   -1008.9469 
  608800    498.25451    -1029.131     19.83657   -1009.2944 
  609000    557.78747   -1027.4434    22.206704   -1005.2367 
  609200    523.07376   -1027.7288    20.824678   -1006.9041 
  609400    477.01109   -1029.1052    18.990825   -1010.1144 
  609600     528.8139   -1028.2666    21.053205   -1007.2133 
  609800    535.64713   -1028.4706     21.32525   -1007.1453 
  610000    498.03877   -1029.4605    19.827981   -1009.6325 
  610200    541.57425   -1029.8998    21.561222   -1008.3385 
  610400    511.20773   -1028.2407    20.352266   -1007.8884 
  610600       550.59    -1029.934    21.920158   -1008.0139 
  610800    484.00662   -1028.9706    19.269332   -1009.7012 
  611000    567.91878    -1027.112    22.610053    -1004.502 
  611200    513.01645   -1029.1771    20.424275   -1008.7528 
  611400    484.62569   -1030.2645    19.293978   -1010.9705 
  611600    604.27896   -1029.3466    24.057629    -1005.289 
  611800    531.11112   -1028.5326    21.144662   -1007.3879 
  612000    477.00247   -1029.9461    18.990482   -1010.9556 
  612200     512.2763   -1028.2641    20.394808   -1007.8693 
  612400    529.29585   -1027.2993    21.072392   -1006.2269 
  612600    481.38529   -1028.8217    19.164971   -1009.6568 
  612800    520.16153   -1028.3788    20.708736     -1007.67 
  613000     525.1874   -1027.7406    20.908826   -1006.8318 
  613200    473.26269   -1028.6458    18.841593   -1009.8042 
  613400     519.2571   -1028.8412    20.672729   -1008.1685 
  613600    531.96221   -1028.0227    21.178546   -1006.8442 
  613800    489.92763   -1028.7787     19.50506   -1009.2737 
  614000    557.32768   -1028.9617    22.188399   -1006.7733 
  614200    493.28504   -1027.0624    19.638725   -1007.4237 
  614400    512.27773   -1028.9428    20.394865   -1008.5479 
  614600    502.83156   -1028.5284    20.018793   -1008.5096 
  614800    526.59564   -1028.8869    20.964891   -1007.9221 
  615000    511.23042   -1028.3975    20.353169   -1008.0444 
  615200    495.89397   -1028.7359    19.742592   -1008.9933 
  615400    542.87868   -1028.6867    21.613154   -1007.0736 
  615600    482.15839   -1028.4892     19.19575   -1009.2935 
  615800     515.1306   -1028.6792    20.508443   -1008.1707 
  616000    546.68342   -1028.7667    21.764628   -1007.0021 
  616200    487.93804   -1029.1978     19.42585    -1009.772 
  616400    517.30875   -1027.6055     20.59516   -1007.0104 
  616600    512.08082   -1027.6507    20.387026   -1007.2637 
  616800    471.79032   -1028.2513    18.782975   -1009.4683 
  617000    518.21473   -1028.2123     20.63123    -1007.581 
  617200    507.39309   -1027.9194    20.200397    -1007.719 
  617400    510.58625   -1029.1809    20.327524   -1008.8534 
  617600    545.95252   -1029.0974     21.73553   -1007.3619 
  617800    512.51954   -1028.3829    20.404492   -1007.9785 
  618000    475.86882   -1028.8899    18.945349   -1009.9446 
  618200    537.14675   -1028.7485    21.384953   -1007.3635 
  618400    529.28645   -1029.0811    21.072018   -1008.0091 
  618600    516.69459   -1028.3689     20.57071   -1007.7982 
  618800      503.829   -1027.9604    20.058503   -1007.9019 
  619000    515.74345   -1027.6254    20.532843   -1007.0926 
  619200    516.27999   -1028.3987    20.554203   -1007.8445 
  619400    492.15667   -1028.5531    19.593803   -1008.9593 
  619600     558.7691   -1028.5491    22.245785   -1006.3033 
  619800    503.54422   -1028.7211    20.047165    -1008.674 
  620000    509.28721      -1030.3    20.275806   -1010.0242 
  620200    522.22867    -1027.443    20.791033   -1006.6519 
  620400    496.35184   -1026.8924    19.760821   -1007.1316 
  620600    514.80553   -1030.1728    20.495502   -1009.6773 
  620800     511.6394   -1028.7675    20.369452    -1008.398 
  621000    578.48338   -1028.8017    23.030653   -1005.7711 
  621200    480.37044    -1028.195    19.124568   -1009.0705 
  621400    525.65048   -1029.1063    20.927263    -1008.179 
  621600    532.51785    -1027.412    21.200667   -1006.2113 
  621800    510.75689   -1029.9054    20.334317   -1009.5711 
  622000    496.01793   -1029.0429    19.747528   -1009.2954 
  622200    543.15644   -1028.7497    21.624212   -1007.1255 
  622400    510.10348   -1029.6273    20.308304    -1009.319 
  622600    512.18582   -1029.1735    20.391206   -1008.7823 
  622800    519.49925    -1027.941    20.682369   -1007.2587 
  623000    513.87424   -1028.3729    20.458425   -1007.9145 
  623200    489.80431   -1029.1399     19.50015   -1009.6398 
  623400     506.0594   -1028.6352      20.1473   -1008.4879 
  623600    524.14525   -1027.6118    20.867336   -1006.7444 
  623800    511.38451   -1030.1242    20.359304   -1009.7649 
  624000    493.64895   -1029.0594    19.653214   -1009.4062 
  624200    544.52265   -1028.1519    21.678604   -1006.4733 
  624400    501.45084   -1028.2468    19.963823    -1008.283 
  624600    510.36451   -1030.4136    20.318695   -1010.0949 
  624800    505.84297   -1028.8279    20.138683   -1008.6892 
  625000     514.0653   -1027.5688    20.466032   -1007.1028 
  625200    487.84623   -1028.2775    19.422195   -1008.8553 
  625400    515.63911   -1028.9509    20.528689   -1008.4222 
  625600    556.66889   -1028.7467    22.162171   -1006.5845 
  625800    512.08576   -1028.9059    20.387222   -1008.5187 
  626000    544.62132   -1030.5041    21.682532   -1008.8216 
  626200    503.63257    -1029.459    20.050683   -1009.4083 
  626400    502.08331   -1029.9989    19.989003   -1010.0099 
  626600    516.70305   -1029.3947    20.571046   -1008.8236 
  626800    530.51218   -1029.8965    21.120817   -1008.7756 
  627000    517.25151   -1030.0091    20.592881   -1009.4162 
  627200    519.56298     -1029.55    20.684906   -1008.8651 
  627400    520.68288   -1029.1862    20.729492   -1008.4567 
  627600    516.17031   -1029.6259    20.549837   -1009.0761 
  627800    525.69374   -1029.4662    20.928985   -1008.5372 
  628000    531.03461   -1029.7959    21.141616   -1008.6543 
  628200    497.41802   -1029.1139    19.803268   -1009.3106 
  628400    532.75873   -1029.7468    21.210257   -1008.5365 
  628600    541.61599   -1030.2425    21.562883   -1008.6796 
  628800    502.99676   -1029.7947     20.02537   -1009.7693 
  629000    524.52857   -1029.2739    20.882597   -1008.3913 
  629200    489.38946   -1027.5648    19.483634   -1008.0812 
  629400    498.68097   -1029.7567    19.853549   -1009.9032 
  629600    540.53848   -1029.0938    21.519985   -1007.5738 
  629800    508.89698   -1030.0383     20.26027    -1009.778 
  630000    480.99756   -1030.1769    19.149535   -1011.0274 
  630200    591.27324   -1029.5917    23.539844   -1006.0519 
  630400    514.09908   -1030.4656    20.467377   -1009.9982 
  630600    450.87123   -1030.1646    17.950142   -1012.2144 
  630800    586.55894   -1028.2295    23.352158   -1004.8774 
  631000    501.07242   -1029.0497    19.948758   -1009.1009 
  631200    525.33153   -1032.3055    20.914564   -1011.3909 
  631400    522.20718   -1028.2686    20.790177   -1007.4785 
  631600    559.82242   -1030.3605     22.28772   -1008.0728 
  631800    503.67023   -1031.9356    20.052182   -1011.8834 
  632000    542.11614   -1029.0229    21.582795   -1007.4401 
  632200    542.02924   -1027.2206    21.579336   -1005.6412 
  632400    483.56517   -1030.8614    19.251757   -1011.6096 
  632600    518.98756   -1030.8381    20.661998   -1010.1761 
  632800     554.2127   -1028.5273    22.064385    -1006.463 
  633000    512.97887   -1030.1559    20.422779   -1009.7331 
  633200    496.06771   -1029.9208    19.749509   -1010.1713 
  633400    566.97177   -1029.6558    22.572351   -1007.0835 
  633600    553.30439   -1030.7585    22.028223   -1008.7302 
  633800     498.2978   -1031.5037    19.838294   -1011.6654 
  634000    533.23401    -1029.188    21.229179   -1007.9588 
  634200    532.52717   -1028.7067    21.201038   -1007.5057 
  634400    462.01809   -1030.4613    18.393922   -1012.0674 
  634600    532.75886   -1029.8818    21.210262   -1008.6716 
  634800     549.0865   -1028.9602      21.8603   -1007.0999 
  635000    539.32343   -1031.6987    21.471611   -1010.2271 
  635200    520.73792   -1030.8861    20.731683   -1010.1544 
  635400     572.7066   -1029.2082    22.800667   -1006.4075 
  635600    521.12127   -1029.2561    20.746945   -1008.5092 
  635800    511.83375   -1030.9927    20.377189   -1010.6155 
  636000    531.49122   -1029.7472    21.159795   -1008.5874 
  636200    541.20591    -1030.501    21.546557   -1008.9544 
  636400    472.25936   -1028.4526    18.801648   -1009.6509 
  636600    499.33551   -1029.9116    19.879608    -1010.032 
  636800    572.13554   -1029.7757    22.777931   -1006.9977 
  637000    493.38416   -1029.1675    19.642672   -1009.5248 
  637200    514.79633    -1028.971    20.495136   -1008.4759 
  637400    548.13284   -1028.7874    21.822333   -1006.9651 
  637600    501.93272   -1030.7131    19.983008   -1010.7301 
  637800    488.48667   -1029.9521    19.447692   -1010.5044 
  638000    525.74207   -1027.9987    20.930909   -1007.0678 
  638200    525.73607   -1029.6201     20.93067   -1008.6894 
  638400    529.54588   -1030.0657    21.082347   -1008.9833 
  638600    525.46512   -1028.5294    20.919883   -1007.6096 
  638800    529.35253   -1030.6693    21.074649   -1009.5946 
  639000    483.45485     -1030.14    19.247365   -1010.8926 
  639200     547.1996     -1028.64    21.785179   -1006.8548 
  639400    516.20257   -1030.1048    20.551121   -1009.5537 
  639600    526.52767   -1032.4111    20.962185   -1011.4489 
  639800    527.77527   -1029.3664    21.011855   -1008.3546 
  640000    548.06985   -1030.3882    21.819825   -1008.5684 
  640200    522.13392   -1031.2327    20.787261   -1010.4455 
  640400    511.70689   -1028.7179    20.372139   -1008.3458 
  640600    536.72409   -1028.4503    21.368126   -1007.0822 
  640800    501.14641   -1028.6881    19.951703   -1008.7364 
  641000    516.81738   -1030.2403    20.575598   -1009.6647 
  641200    533.83365   -1028.4044    21.253052   -1007.1514 
  641400     510.3986   -1028.4972    20.320053   -1008.1771 
  641600    464.23605   -1030.3732    18.482223    -1011.891 
  641800    526.48933   -1029.8756    20.960659   -1008.9149 
  642000    536.61983   -1028.7491    21.363975   -1007.3851 
  642200    513.57746   -1030.3918     20.44661   -1009.9452 
  642400     557.3718   -1030.5621    22.190156   -1008.3719 
  642600    533.37967   -1029.4822    21.234978   -1008.2472 
  642800    544.93608    -1031.041    21.695063   -1009.3459 
  643000    542.20301   -1030.1535    21.586254   -1008.5673 
  643200    518.48605   -1028.6953    20.642031   -1008.0533 
  643400    545.26854   -1030.2269    21.708299   -1008.5186 
  643600    535.67053   -1030.0726    21.326182   -1008.7464 
  643800    552.31454   -1030.0344    21.988815   -1008.0456 
  644000    524.23883   -1029.1546    20.871062   -1008.2835 
  644200    503.98728   -1027.3472    20.064805   -1007.2823 
  644400    515.07388   -1029.3167    20.506186   -1008.8105 
  644600    542.95743   -1031.1169    21.616289   -1009.5006 
  644800    539.47313    -1029.361    21.477571   -1007.8835 
  645000    506.31044   -1029.6545    20.157294   -1009.4972 
  645200     522.1087    -1029.329    20.786256   -1008.5427 
  645400    532.13973   -1029.2555    21.185613   -1008.0699 
  645600    539.14096   -1031.1173    21.464347   -1009.6529 
  645800    552.49016   -1030.4908    21.995807    -1008.495 
  646000    559.44849   -1029.6418    22.272833    -1007.369 
  646200    527.77946   -1030.4641    21.012021   -1009.4521 
  646400    530.98573   -1030.2356     21.13967   -1009.0959 
  646600    554.67208   -1027.0794    22.082674   -1004.9967 
  646800    518.03523   -1029.7678    20.624083   -1009.1437 
  647000    496.06643   -1030.2736    19.749458   -1010.5241 
  647200    529.92472   -1028.4468    21.097429   -1007.3494 
  647400    511.98889   -1029.5142    20.383366   -1009.1308 
  647600    510.58445   -1030.0978    20.327452   -1009.7704 
  647800    501.96007   -1030.3074    19.984097   -1010.3233 
  648000    574.74134   -1029.4718    22.881674   -1006.5901 
  648200    537.65658   -1030.4665    21.405251   -1009.0612 
  648400    533.42306    -1030.865    21.236705   -1009.6283 
  648600    545.19375   -1028.3786    21.705321   -1006.6733 
  648800    524.03209   -1030.4923    20.862831   -1009.6295 
  649000     515.1527    -1029.152    20.509323   -1008.6427 
  649200    555.60554   -1028.8966    22.119837   -1006.7767 
  649400    482.14027   -1029.9186    19.195028   -1010.7235 
  649600    526.98821   -1029.8557     20.98052   -1008.8752 
  649800    562.86487   -1029.0323    22.408846   -1006.6235 
  650000    527.00961   -1030.2208    20.981372   -1009.2395 
  650200    511.59539   -1029.8495    20.367699   -1009.4818 
  650400    519.82892   -1028.7824    20.695494   -1008.0869 
  650600    557.64013   -1030.6375    22.200839   -1008.4367 
  650800    534.04758    -1029.724    21.261569   -1008.4624 
  651000    549.64148   -1029.9779    21.882395   -1008.0955 
  651200     596.3435   -1030.1725    23.741702   -1006.4308 
  651400     518.7422   -1031.0665    20.652229   -1010.4143 
  651600    509.61937   -1030.9531     20.28903   -1010.6641 
  651800    588.46896   -1030.4008      23.4282   -1006.9726 
  652000     504.9004   -1029.4151    20.101158   -1009.3139 
  652200    500.89553   -1029.8542    19.941715   -1009.9125 
  652400    540.03117    -1030.229    21.499788   -1008.7292 
  652600    552.14007   -1029.4117    21.981869   -1007.4299 
  652800    538.37632   -1030.6648    21.433905   -1009.2309 
  653000    531.45812   -1029.5161    21.158477   -1008.3576 
  653200    543.02564   -1029.4647    21.619004   -1007.8457 
  653400    522.17151   -1030.7932    20.788757   -1010.0045 
  653600    532.01407   -1029.0845     21.18061   -1007.9039 
  653800    538.60269   -1029.4445    21.442917   -1008.0015 
  654000    513.82002   -1029.7979    20.456267   -1009.3416 
  654200    493.97307   -1029.3573    19.666117   -1009.6912 
  654400    521.25403   -1029.7602     20.75223   -1009.0079 
  654600    548.85771   -1028.4152    21.851191    -1006.564 
  654800    500.51715   -1029.2896    19.926651   -1009.3629 
  655000     536.9484   -1031.5081    21.377057    -1010.131 
  655200    572.81746    -1030.576     22.80508    -1007.771 
  655400    534.93164   -1029.3373    21.296765   -1008.0405 
  655600    503.70704   -1028.7345    20.053648   -1008.6809 
  655800     506.9635   -1029.8614    20.183294   -1009.6781 
  656000    519.15326   -1028.9886    20.668594     -1008.32 
  656200    536.06031   -1030.3972      21.3417   -1009.0555 
  656400    516.01331   -1030.5932    20.543586   -1010.0497 
  656600    559.09232   -1029.9094    22.258653   -1007.6508 
  656800    503.52181   -1029.4418    20.046273   -1009.3956 
  657000    506.02474   -1029.7368     20.14592   -1009.5908 
  657200    545.50786    -1030.107    21.717827   -1008.3892 
  657400    515.95389    -1029.949    20.541221   -1009.4078 
  657600     525.2335   -1028.8354    20.910662   -1007.9247 
  657800    531.56722   -1029.8179    21.162821   -1008.6551 
  658000    551.73223   -1029.9477    21.965632   -1007.9821 
  658200    538.18188   -1028.8627    21.426164   -1007.4365 
  658400    547.79311   -1032.2451    21.808808   -1010.4363 
  658600     541.0454   -1031.1282    21.540167    -1009.588 
  658800    549.21234   -1029.9194     21.86531    -1008.054 
  659000    544.73597   -1031.6711    21.687096    -1009.984 
  659200    513.47569   -1031.6053    20.442558   -1011.1627 
  659400    571.32142   -1032.1087    22.745519   -1009.3632 
  659600    545.37903   -1030.4098    21.712698   -1008.6971 
  659800    509.39903   -1031.7709    20.280258   -1011.4907 
  660000    526.96293   -1032.1988    20.979514   -1011.2193 
  660200    569.52854   -1031.4199    22.674141   -1008.7458 
  660400    516.93785   -1031.6199    20.580394   -1011.0395 
  660600    575.89605   -1032.3754    22.927645   -1009.4478 
  660800    495.00182   -1029.9125    19.707074   -1010.2055 
  661000    539.45784   -1031.1898    21.476963   -1009.7129 
  661200    529.77102   -1032.1937     21.09131   -1011.1024 
  661400    537.87162    -1030.565    21.413812   -1009.1512 
  661600    571.77162   -1031.5791    22.763443   -1008.8156 
  661800     529.7759   -1032.1259    21.091504   -1011.0344 
  662000    576.00097   -1031.8185    22.931822   -1008.8867 
  662200     527.9655   -1031.2076    21.019428   -1010.1882 
  662400    527.25203   -1031.0775    20.991024   -1010.0865 
  662600    526.09844   -1031.6476    20.945097   -1010.7025 
  662800     505.5942   -1032.4499    20.128779   -1012.3212 
  663000     528.8038   -1030.4342    21.052803   -1009.3814 
  663200    562.84949   -1031.7682    22.408234   -1009.3599 
  663400    530.31136   -1033.4695    21.112822   -1012.3566 
  663600    542.44552    -1032.866    21.595909   -1011.2701 
  663800    532.22218   -1030.3073    21.188896   -1009.1184 
  664000    536.90375    -1032.117    21.375279   -1010.7417 
  664200    535.48396   -1033.1534    21.318754   -1011.8347 
  664400    546.60264   -1031.2498    21.761412   -1009.4884 
  664600    530.71075   -1032.3363    21.128722   -1011.2076 
  664800    547.14077   -1034.5387    21.782836   -1012.7558 
  665000    557.50068   -1031.7869    22.195287   -1009.5916 
  665200    556.96584   -1032.4274    22.173993   -1010.2534 
  665400    511.38605   -1031.5526    20.359365   -1011.1932 
  665600    527.20298   -1031.4987    20.989071   -1010.5096 
  665800    540.44493   -1031.7999    21.516261   -1010.2836 
  666000    543.83856   -1032.0212    21.651369   -1010.3699 
  666200    508.45176   -1032.6418    20.242545   -1012.3992 
  666400    573.31443   -1031.2253    22.824865   -1008.4005 
  666600    531.20944   -1032.7969    21.148577   -1011.6484 
  666800    489.77013   -1033.3095    19.498789   -1013.8107 
  667000    564.83818   -1033.7605    22.487408   -1011.2731 
  667200    551.36048   -1034.7462    21.950832   -1012.7953 
  667400    530.15209   -1033.6491    21.106481   -1012.5426 
  667600    520.23967   -1031.4223    20.711846   -1010.7104 
  667800    532.98124   -1032.5694    21.219116   -1011.3503 
  668000    586.31153   -1033.9205    23.342308   -1010.5782 
  668200    529.72209   -1031.8889    21.089362   -1010.7995 
  668400    496.62336   -1030.4048    19.771631   -1010.6332 
  668600    518.03198   -1032.6608    20.623954   -1012.0368 
  668800    591.45242   -1033.4147    23.546977   -1009.8678 
  669000    523.13424   -1031.8539    20.827085   -1011.0268 
  669200    521.18872   -1032.8472     20.74963   -1012.0975 
  669400    529.47181   -1031.6218    21.079398   -1010.5424 
  669600    526.00118   -1031.1238    20.941225   -1010.1826 
  669800    567.43418   -1032.9764     22.59076   -1010.3857 
  670000    535.23818   -1033.3231    21.308969   -1012.0141 
  670200    535.95627   -1033.0381    21.337558   -1011.7005 
  670400    509.72738   -1031.5359     20.29333   -1011.2425 
  670600     546.0791   -1032.8444    21.740569   -1011.1038 
  670800    521.58885   -1034.1569     20.76556   -1013.3913 
  671000    547.86152   -1032.4973    21.811531   -1010.6858 
  671200    519.06618   -1032.6813    20.665127   -1012.0162 
  671400    499.65123   -1032.0063    19.892177   -1012.1141 
  671600    545.96346   -1033.6194    21.735965   -1011.8834 
  671800    575.50107   -1034.4565     22.91192   -1011.5446 
  672000    522.64343   -1033.1355    20.807545    -1012.328 
  672200    543.53606   -1034.3921    21.639326   -1012.7527 
  672400    536.14135   -1033.7576    21.344926   -1012.4127 
  672600     554.3228   -1035.5203    22.068768   -1013.4515 
  672800    502.08143   -1032.3759    19.988928    -1012.387 
  673000    580.53287   -1033.6242    23.112247    -1010.512 
  673200    510.90377   -1034.9989    20.340165   -1014.6587 
  673400    559.76335   -1033.1584    22.285368    -1010.873 
  673600    573.86847   -1033.2725    22.846923   -1010.4256 
  673800    534.36771   -1034.7379    21.274314   -1013.4636 
  674000    532.36724   -1033.1313    21.194671   -1011.9366 
  674200     540.8295   -1032.4585    21.531572   -1010.9269 
  674400    530.45613   -1033.5699    21.118586   -1012.4513 
  674600    503.05323    -1031.588    20.027618   -1011.5604 
  674800    585.38879   -1032.3939    23.305572   -1009.0883 
  675000    507.33079   -1033.1642    20.197917   -1012.9663 
  675200    571.32845    -1032.624      22.7458   -1009.8782 
  675400    508.12193   -1032.1907    20.229414   -1011.9613 
  675600    514.63139   -1033.1317    20.488569   -1012.6431 
  675800    535.25052    -1030.886     21.30946   -1009.5765 
  676000    524.29767    -1031.991    20.873404   -1011.1176 
  676200    526.38225   -1033.8249    20.956396   -1012.8685 
  676400    511.67517    -1032.625    20.370875   -1012.2542 
  676600     566.6464   -1030.3647    22.559397   -1007.8053 
  676800    538.59435   -1031.3321    21.442586   -1009.8895 
  677000    500.92623   -1033.2039    19.942938    -1013.261 
  677200    539.25692   -1032.1198    21.468964   -1010.6508 
  677400    581.70691   -1032.0413    23.158988   -1008.8824 
  677600    502.33458    -1032.166    19.999007    -1012.167 
  677800    522.73417   -1033.4883    20.811158   -1012.6771 
  678000    533.38896   -1031.0738    21.235348   -1009.8384 
  678200    547.44816   -1032.7374    21.795074   -1010.9423 
  678400    497.35054   -1033.5311    19.800582   -1013.7305 
  678600    592.16139   -1033.3395    23.575203   -1009.7643 
  678800    533.02388   -1032.8223    21.220813   -1011.6015 
  679000    545.43324   -1034.9198    21.714856   -1013.2049 
  679200    539.32627   -1032.6243    21.471725   -1011.1526 
  679400    560.14085   -1034.6031    22.300398   -1012.3027 
  679600    532.68342   -1033.6441    21.207259   -1012.4368 
  679800    503.13841   -1032.0062    20.031009   -1011.9752 
  680000    539.68725   -1032.6904    21.486096   -1011.2043 
  680200    514.97365   -1033.9686    20.502195   -1013.4664 
  680400    544.89074   -1033.3167    21.693258   -1011.6235 
  680600    574.28124   -1034.2256    22.863356   -1011.3622 
  680800    515.02742   -1035.3901    20.504336   -1014.8857 
  681000    543.52747   -1032.9489    21.638983   -1011.3099 
  681200    562.21143    -1032.808    22.382832   -1010.4252 
  681400    531.01976   -1034.1606    21.141025   -1013.0196 
  681600    554.81196   -1034.5856    22.088243   -1012.4974 
  681800    549.08364   -1033.1899    21.860186   -1011.3297 
  682000    512.24416   -1032.9256    20.393528   -1012.5321 
  682200    509.33943   -1033.7074    20.277885   -1013.4295 
  682400    550.99272    -1033.685    21.936191   -1011.7488 
  682600    545.30814   -1035.1548    21.709876   -1013.4449 
  682800    542.21994   -1034.7408    21.586928   -1013.1538 
  683000    531.64578   -1033.9547    21.165948   -1012.7888 
  683200    534.61886    -1034.517    21.284313   -1013.2326 
  683400    512.16673   -1033.1247    20.390446   -1012.7343 
  683600    550.10256   -1034.6917    21.900752   -1012.7909 
  683800     543.2987   -1031.9762    21.629876   -1010.3463 
  684000    564.00922   -1034.6498    22.454405   -1012.1954 
  684200    495.82261   -1034.3352    19.739751   -1014.5954 
  684400    581.50321   -1032.8545    23.150878   -1009.7036 
  684600    531.03551   -1033.7072    21.141652   -1012.5655 
  684800    484.90372   -1033.4464    19.305047   -1014.1413 
  685000    584.89771   -1036.2241    23.286021   -1012.9381 
  685200    530.73228   -1034.5636     21.12958   -1013.4341 
  685400    534.22826   -1033.8423    21.268762   -1012.5735 
  685600    550.24974   -1034.4313    21.906611   -1012.5247 
  685800    505.65112   -1033.8957    20.131045   -1013.7647 
  686000     525.5501   -1033.2685    20.923266   -1012.3452 
  686200     528.1268   -1033.2101     21.02585   -1012.1843 
  686400    502.24445   -1034.7001    19.995419   -1014.7047 
  686600    551.52233   -1033.7609    21.957276   -1011.8036 
  686800    564.99467   -1033.8164    22.493638   -1011.3227 
  687000    505.04982   -1034.7655    20.107106   -1014.6584 
  687200    535.31106   -1034.8781    21.311871   -1013.5662 
  687400    552.18169   -1034.1868    21.983526   -1012.2033 
  687600    529.05636   -1035.2643    21.062858   -1014.2015 
  687800    530.91099   -1033.3484    21.136695   -1012.2117 
  688000    557.56077   -1033.6406    22.197679   -1011.4429 
  688200    488.62924   -1034.9062    19.453368   -1015.4529 
  688400    572.13981   -1034.4308    22.778101   -1011.6527 
  688600    549.57767    -1034.889    21.879855   -1013.0091 
  688800    517.59356   -1034.5833    20.606499   -1013.9768 
  689000    575.96561    -1034.251    22.930415   -1011.3206 
  689200    531.40509   -1035.0294    21.156366   -1013.8731 
  689400    543.97997   -1034.3489    21.656998   -1012.6919 
  689600    538.47568   -1033.0784    21.437861   -1011.6405 
  689800    525.18442   -1033.8424    20.908708   -1012.9337 
  690000    529.10885   -1033.5295    21.064947   -1012.4646 
  690200    511.83537    -1032.973    20.377253   -1012.5958 
  690400    556.97275    -1034.259    22.174268   -1012.0847 
  690600    536.39349   -1034.4095    21.354965   -1013.0545 
  690800    578.05173   -1033.7577    23.013468   -1010.7443 
  691000    524.09884   -1033.3538    20.865488   -1012.4883 
  691200    516.02227    -1035.066    20.543943    -1014.522 
  691400    554.54543   -1034.0438    22.077632   -1011.9662 
  691600    562.49189   -1034.2387    22.393997   -1011.8447 
  691800    540.83324   -1034.1392     21.53172   -1012.6074 
  692000    560.60361   -1036.5385    22.318821   -1014.2196 
  692200    559.20106   -1033.8656    22.262982   -1011.6026 
  692400    536.86964   -1034.3853    21.373921   -1013.0114 
  692600    519.27679   -1035.2288    20.673512   -1014.5553 
  692800    565.53597   -1034.5879    22.515188   -1012.0727 
  693000    558.76152   -1035.3336    22.245483   -1013.0881 
  693200     515.2686   -1033.7397    20.513938   -1013.2258 
  693400      606.332   -1034.7403    24.139365    -1010.601 
  693600    529.66755   -1034.3032    21.087191    -1013.216 
  693800    542.79534   -1034.2588    21.609836    -1012.649 
  694000    547.17553     -1033.44     21.78422   -1011.6557 
  694200    542.88576   -1034.3352    21.613436   -1012.7218 
  694400    541.65523   -1035.1041    21.564446   -1013.5396 
  694600    532.28925   -1033.7879    21.191566   -1012.5963 
  694800    588.87911   -1034.7831    23.444529   -1011.3386 
  695000      549.292   -1034.4454    21.868482    -1012.577 
  695200    544.48372   -1035.1459    21.677054   -1013.4688 
  695400    577.88452   -1035.6689    23.006811   -1012.6621 
  695600    506.02208   -1034.5375    20.145814   -1014.3917 
  695800    571.46978   -1033.8576    22.751426   -1011.1062 
  696000    532.30012     -1033.67    21.191999    -1012.478 
  696200    525.45303   -1035.0758    20.919402   -1014.1564 
  696400     522.3365   -1033.5586    20.795326   -1012.7633 
  696600     546.4833   -1034.9335    21.756661   -1013.1768 
  696800    550.27691   -1035.6102    21.907693   -1013.7025 
  697000    562.63262   -1034.8776      22.3996    -1012.478 
  697200    557.17627   -1035.9043    22.182371   -1013.7219 
  697400    542.84076   -1034.4423    21.611644   -1012.8306 
  697600    523.21993   -1032.9134    20.830497   -1012.0829 
  697800    542.89501   -1032.3235    21.613804   -1010.7097 
  698000    555.37803   -1035.1513    22.110779   -1013.0405 
  698200    529.31967   -1035.3313    21.073341   -1014.2579 
  698400    571.40864   -1034.2323    22.748992   -1011.4833 
  698600    538.63505   -1034.8096    21.444206   -1013.3654 
  698800    539.66941   -1034.8655    21.485386   -1013.3802 
  699000    540.27153   -1031.5579    21.509358   -1010.0485 
  699200    555.58571   -1033.7681    22.119048    -1011.649 
  699400    521.34502   -1036.3978    20.755853   -1015.6419 
  699600    552.71037   -1034.5396    22.004574    -1012.535 
  699800    585.35352   -1033.7385    23.304167   -1010.4343 
  700000    560.39452   -1034.7303    22.310496   -1012.4198 
  700200    533.55798   -1034.4685    21.242077   -1013.2264 
  700400    571.53885   -1034.1791    22.754176   -1011.4249 
  700600    553.32136   -1034.3581    22.028899   -1012.3292 
  700800    507.07272   -1033.8907    20.187642   -1013.7031 
  701000    548.94214   -1033.0389    21.854553   -1011.1844 
  701200    530.23442    -1032.561    21.109759   -1011.4513 
  701400    558.89102   -1034.7019    22.250639   -1012.4513 
  701600    542.69706   -1033.4464    21.605923   -1011.8404 
  701800    533.59869   -1033.4507    21.243698    -1012.207 
  702000    581.91579   -1033.7661    23.167304   -1010.5988 
  702200    537.62396   -1032.9366    21.403952   -1011.5327 
  702400    506.46568   -1035.2974    20.163475    -1015.134 
  702600    529.08235   -1032.8007    21.063893   -1011.7368 
  702800    597.29676   -1032.8549    23.779653   -1009.0753 
  703000    548.68132    -1037.856    21.844169   -1016.0118 
  703200    556.03329   -1035.1892    22.136866   -1013.0524 
  703400    597.72115   -1033.2889    23.796549   -1009.4923 
  703600    529.30083   -1035.5056    21.072591    -1014.433 
  703800    527.52339   -1034.8009    21.001827    -1013.799 
  704000    537.65789   -1033.2262    21.405303   -1011.8209 
  704200    516.78627   -1033.0338    20.574359   -1012.4594 
  704400    514.01066   -1034.9427    20.463857   -1014.4788 
  704600    560.57423   -1034.2687    22.317651   -1011.9511 
  704800    544.40259   -1032.8903    21.673824   -1011.2165 
  705000    556.82092   -1034.9319    22.168224   -1012.7637 
  705200    547.89562   -1033.5017    21.812889   -1011.6888 
  705400    524.49861    -1032.296    20.881404   -1011.4146 
  705600    537.32176   -1034.3805    21.391921   -1012.9886 
  705800     531.0632   -1033.3914    21.142754   -1012.2486 
  706000    570.34791   -1034.3125    22.706762   -1011.6058 
  706200    521.92918   -1033.6093    20.779109   -1012.8302 
  706400    564.39329   -1034.2491    22.469696   -1011.7794 
  706600     534.8413   -1035.5567    21.293169   -1014.2635 
  706800    558.14714     -1034.79    22.221023    -1012.569 
  707000    569.13346   -1034.4673    22.658412   -1011.8088 
  707200    534.60364   -1034.6962    21.283707   -1013.4125 
  707400    567.71326   -1035.5348    22.601871   -1012.9329 
  707600    554.92148   -1034.5494    22.092603   -1012.4568 
  707800    540.02425   -1034.4128    21.499513   -1012.9132 
  708000    533.23757   -1034.7483    21.229321    -1013.519 
  708200    540.02935   -1033.4655    21.499716   -1011.9658 
  708400    556.87154   -1033.5145    22.170239   -1011.3442 
  708600    539.21649   -1035.3644    21.467354    -1013.897 
  708800    537.08156   -1034.4066    21.382358   -1013.0242 
  709000    578.14586   -1031.8759    23.017215   -1008.8587 
  709200    548.44983   -1035.2423    21.834953   -1013.4073 
  709400    537.71134   -1035.6656    21.407431   -1014.2582 
  709600    599.86504   -1033.3712    23.881902   -1009.4893 
  709800    549.77756    -1034.696    21.887813   -1012.8082 
  710000    521.43009   -1033.4055     20.75924   -1012.6463 
  710200    582.82169   -1033.5924     23.20337   -1010.3891 
  710400    530.02707   -1033.2751    21.101504   -1012.1736 
  710600    551.51805   -1034.1527    21.957105   -1012.1956 
  710800    590.37677   -1034.6485    23.504153   -1011.1443 
  711000    542.38674   -1033.8118    21.593568   -1012.2182 
  711200    541.26472   -1034.6245    21.548899   -1013.0756 
  711400    527.08696   -1033.0036    20.984452   -1012.0191 
  711600    547.69845     -1033.36    21.805039    -1011.555 
  711800    530.68018   -1035.1858    21.127506   -1014.0583 
  712000    562.18495    -1033.444    22.381777   -1011.0622 
  712200    562.14337   -1032.0444    22.380122   -1009.6643 
  712400    523.88659   -1033.4682    20.857038   -1012.6111 
  712600    553.00412   -1033.8861    22.016269   -1011.8698 
  712800    576.46992   -1033.6418    22.950492   -1010.6914 
  713000    553.87877    -1034.781    22.051091   -1012.7299 
  713200    556.70517    -1034.844    22.163616   -1012.6803 
  713400    545.75873   -1033.0315    21.727815   -1011.3037 
  713600    532.19911   -1035.1206    21.187977   -1013.9326 
  713800    543.80933   -1034.5611    21.650205   -1012.9109 
  714000    560.51907   -1032.8857    22.315455   -1010.5703 
  714200    511.03212   -1034.3158    20.345275   -1013.9705 
  714400    528.15916   -1032.7257    21.027138   -1011.6986 
  714600    588.93079   -1033.8616    23.446586   -1010.4151 
  714800     542.0803   -1035.0478    21.581368   -1013.4665 
  715000    544.90327   -1034.3245    21.693757   -1012.6307 
  715200    565.70408   -1033.5551    22.521882   -1011.0333 
  715400    566.76086    -1034.457    22.563954   -1011.8931 
  715600    520.00343   -1034.5289    20.702441   -1013.8265 
  715800    541.56023   -1032.2529    21.560664   -1010.6923 
  716000    594.74788   -1035.6757    23.678177   -1011.9975 
  716200    521.76777   -1036.4566    20.772683   -1015.6839 
  716400    559.62525   -1033.8065     22.27987   -1011.5266 
  716600    582.60817   -1034.9788    23.194869   -1011.7839 
  716800     524.5481   -1035.3249    20.883374   -1014.4416 
  717000    527.90488   -1034.7487    21.017015   -1013.7317 
  717200    561.56753   -1033.0315    22.357196   -1010.6743 
  717400    567.09097   -1035.0635    22.577097   -1012.4864 
  717600    490.19691   -1035.8931     19.51578   -1016.3773 
  717800    564.20623      -1035.3    22.462249   -1012.8378 
  718000    509.04181   -1034.4065    20.266036   -1014.1404 
  718200    561.34736   -1035.5839    22.348431   -1013.2355 
  718400     585.7831    -1035.942     23.32127   -1012.6208 
  718600    534.25094   -1035.4188    21.269665   -1014.1491 
  718800    563.83399   -1035.3063    22.447429   -1012.8589 
  719000    544.21562   -1033.9735     21.66638   -1012.3071 
  719200    548.43225   -1035.5598    21.834253   -1013.7256 
  719400    535.01503   -1034.6292    21.300085   -1013.3291 
  719600    562.58207    -1034.271    22.397587   -1011.8734 
  719800    548.49888   -1035.5715    21.836906   -1013.7346 
  720000    523.45737    -1035.591     20.83995   -1014.7511 
  720200    536.37081   -1033.8497    21.354062   -1012.4957 
  720400    580.44084   -1035.2805    23.108583   -1012.1719 
  720600    551.24523    -1035.332    21.946244   -1013.3857 
  720800     540.4556   -1034.8081    21.516686   -1013.2914 
  721000    566.23136   -1035.7149    22.542873    -1013.172 
  721200    575.31784   -1035.3546    22.904626     -1012.45 
  721400    542.67976   -1035.6457    21.605234   -1014.0405 
  721600     533.0007   -1034.8585     21.21989   -1013.6386 
  721800    571.84254   -1035.0295    22.766266   -1012.2632 
  722000    540.57946    -1036.324    21.521617   -1014.8024 
  722200    541.02385   -1036.2988    21.539309   -1014.7595 
  722400    572.35275   -1035.2639    22.786579   -1012.4773 
  722600    550.95796   -1034.8813    21.934807   -1012.9465 
  722800    517.14525    -1035.861    20.588651   -1015.2723 
  723000    585.15007   -1035.7101    23.296068   -1012.4141 
  723200    568.32278   -1034.8351    22.626137   -1012.2089 
  723400    547.73994   -1036.2153    21.806691   -1014.4086 
  723600    574.23779   -1036.1115    22.861626   -1013.2498 
  723800      583.045   -1035.5816     23.21226   -1012.3693 
  724000    536.07248   -1035.3755    21.342184   -1014.0333 
  724200    550.14302   -1036.7686    21.902362   -1014.8662 
  724400    542.01246   -1034.6127    21.578667    -1013.034 
  724600    554.36957   -1035.7191     22.07063   -1013.6485 
  724800    548.71341   -1035.6603    21.845447   -1013.8148 
  725000    571.50835   -1035.5966    22.752962   -1012.8437 
  725200    565.43501   -1037.5106    22.511169   -1014.9995 
  725400    504.94047   -1034.2999    20.102753   -1014.1971 
  725600     573.4667   -1033.2507    22.830928   -1010.4198 
  725800    525.49635   -1035.7496    20.921126   -1014.8285 
  726000     532.5624    -1034.334    21.202441   -1013.1315 
  726200      551.488   -1032.9839    21.955909    -1011.028 
  726400    529.77016   -1036.2475    21.091276   -1015.1562 
  726600    559.27291   -1035.4891    22.265843   -1013.2233 
  726800    577.86585   -1034.7237    23.006067   -1011.7176 
  727000    532.34513    -1035.712    21.193791   -1014.5182 
  727200    539.55062   -1035.1312    21.480656   -1013.6505 
  727400    579.98536   -1034.5634    23.090449   -1011.4729 
  727600    556.33261   -1035.1376    22.148783   -1012.9888 
  727800    516.53116   -1034.6022    20.564203    -1014.038 
  728000    558.98114   -1035.1203    22.254227   -1012.8661 
  728200    550.98077   -1034.9404    21.935715   -1013.0047 
  728400      588.877   -1034.5972    23.444444   -1011.1527 
  728600    559.91107   -1035.6874    22.291249   -1013.3961 
  728800    560.14319   -1036.5358     22.30049   -1014.2353 
  729000    537.64369   -1035.3543    21.404738   -1013.9496 
  729200    553.73384   -1035.7056    22.045321   -1013.6603 
  729400    548.78595   -1033.8428    21.848335   -1011.9944 
  729600     537.5185   -1034.0864    21.399753   -1012.6867 
  729800    610.04982   -1036.3471     24.28738   -1012.0598 
  730000    520.31989    -1034.874     20.71504    -1014.159 
  730200    544.94097   -1034.0885    21.695258   -1012.3932 
  730400    563.75707   -1035.1246    22.444367   -1012.6803 
  730600    525.42252   -1034.3246    20.918187   -1013.4064 
  730800    548.44134   -1035.5063    21.834615   -1013.6717 
  731000    561.34751   -1035.1102    22.348437   -1012.7617 
  731200    603.14505   -1035.6233    24.012486   -1011.6108 
  731400    562.32087   -1036.0989    22.387188   -1013.7117 
  731600    549.89034   -1034.9597    21.892303   -1013.0674 
  731800    552.36867   -1033.7967     21.99097   -1011.8058 
  732000    550.13953   -1035.2002    21.902224    -1013.298 
  732200    548.60405   -1035.0819    21.841093   -1013.2408 
  732400    572.77932   -1034.5308    22.803562   -1011.7273 
  732600    531.25438   -1034.4947    21.150366   -1013.3444 
  732800    566.15245   -1035.0744    22.539732   -1012.5347 
  733000    538.13893   -1035.1141    21.424454   -1013.6897 
  733200    557.53591    -1036.391    22.196689   -1014.1943 
  733400    586.03689   -1035.0936    23.331374   -1011.7622 
  733600    535.07471   -1033.7837    21.302461   -1012.4813 
  733800    578.63209   -1036.6113    23.036573   -1013.5747 
  734000    542.67444   -1034.9806    21.605022   -1013.3756 
  734200     523.9101   -1034.1815    20.857974   -1013.3236 
  734400    565.33872   -1035.6096    22.507335   -1013.1022 
  734600    560.81312   -1036.0434    22.327162   -1013.7162 
  734800    571.97044   -1034.3166    22.771358   -1011.5452 
  735000     523.2235   -1033.0665    20.830639   -1012.2359 
  735200    544.34899   -1033.4761     21.67169   -1011.8044 
  735400    548.57094    -1032.523    21.839775   -1010.6832 
  735600    527.87796   -1034.1446    21.015943   -1013.1287 
  735800     557.6325   -1034.6064    22.200535   -1012.4058 
  736000    559.86242   -1033.8078    22.289312   -1011.5185 
  736200     561.8918   -1035.8389    22.370106   -1013.4688 
  736400    571.85971   -1035.0393     22.76695   -1012.2723 
  736600    574.45391   -1034.6757    22.870231   -1011.8055 
  736800    528.18661   -1035.2057    21.028231   -1014.1774 
  737000    562.40754   -1032.7103    22.390639   -1010.3197 
  737200    568.53284   -1035.2551      22.6345   -1012.6206 
  737400    516.83932   -1035.1658    20.576472   -1014.5893 
  737600     564.2551   -1034.5396    22.464194   -1012.0754 
  737800    599.24832   -1034.6629    23.857349   -1010.8055 
  738000     536.6769   -1034.4657    21.366248   -1013.0994 
  738200    584.81841   -1037.3543    23.282863   -1014.0714 
  738400    595.60369   -1034.8265    23.712248   -1011.1143 
  738600    563.00619   -1034.1442    22.414473   -1011.7298 
  738800    572.37539   -1036.3687     22.78748   -1013.5812 
  739000    546.38678   -1034.6592    21.752819   -1012.9063 
  739200    583.77183   -1032.9637    23.241197   -1009.7225 
  739400    552.49281   -1034.1078    21.995912   -1012.1119 
  739600    531.24258   -1034.8261    21.149896   -1013.6762 
  739800    612.63476   -1034.9402    24.390292   -1010.5499 
  740000    569.56715   -1034.9785    22.675678   -1012.3028 
  740200    547.77285   -1036.0835    21.808001   -1014.2755 
  740400    579.84324   -1033.8008    23.084791    -1010.716 
  740600     572.7198   -1034.3694    22.801192   -1011.5682 
  740800    526.02111   -1033.8819    20.942018   -1012.9398 
  741000    592.54089   -1033.9113    23.590312    -1010.321 
  741200    568.44424   -1035.3061    22.630973   -1012.6752 
  741400    531.31277    -1035.685     21.15269   -1014.5323 
  741600    606.48193   -1035.3728    24.145334   -1011.2275 
  741800    548.41015   -1034.3705    21.833373   -1012.5372 
  742000    543.62324   -1035.7964    21.642796   -1014.1536 
  742200    549.91651   -1035.8179    21.893345   -1013.9246 
  742400    585.70269   -1034.7963    23.318069   -1011.4783 
  742600    544.91398   -1035.0256    21.694183   -1013.3314 
  742800    552.13118   -1036.4075    21.981515    -1014.426 
  743000    576.61072   -1033.4947    22.956098   -1010.5386 
  743200    574.83854   -1033.1061    22.885544   -1010.2206 
  743400    517.53711   -1035.6009    20.604252   -1014.9966 
  743600    567.52026   -1035.0198    22.594187   -1012.4256 
  743800    596.26382   -1033.9411    23.738529   -1010.2026 
  744000     516.4188   -1035.8005     20.55973   -1015.2407 
  744200    554.04927   -1033.9358    22.057878   -1011.8779 
  744400    553.29409   -1033.4296    22.027813   -1011.4018 
  744600     608.6567   -1037.4679    24.231917    -1013.236 
  744800    550.57688   -1036.6285    21.919635   -1014.7089 
  745000    621.18435    -1035.163    24.730669   -1010.4323 
  745200    572.98065   -1033.8345    22.811577   -1011.0229 
  745400    515.34687   -1035.2448    20.517054   -1014.7277 
  745600    572.92543   -1034.1421    22.809379   -1011.3327 
  745800    611.80256     -1035.17     24.35716   -1010.8128 
  746000    537.32212   -1036.7577    21.391935   -1015.3658 
  746200    571.68557   -1034.4024    22.760017   -1011.6424 
  746400    549.29251   -1033.6562    21.868502   -1011.7877 
  746600    555.25279   -1035.6337    22.105793   -1013.5279 
  746800     578.1285   -1035.3356    23.016524   -1012.3191 
  747000    518.78199   -1031.5679    20.653813   -1010.9141 
  747200    584.27699    -1034.607    23.261308   -1011.3457 
  747400     581.0501   -1037.5152    23.132839   -1014.3824 
  747600    545.49937   -1035.3112    21.717489   -1013.5937 
  747800    557.36032   -1034.4469    22.189699   -1012.2572 
  748000    571.12788   -1036.1104    22.737814   -1013.3726 
  748200    535.53456   -1034.8268    21.320769   -1013.5061 
  748400     524.0748   -1033.6374    20.864531   -1012.7729 
  748600     574.4393   -1036.1407    22.869649    -1013.271 
  748800    551.43293   -1035.3898    21.953717   -1013.4361 
  749000      593.481   -1035.1357    23.627739    -1011.508 
  749200    552.42503   -1035.9974    21.993214   -1014.0042 
  749400    562.81019   -1035.4031    22.406669   -1012.9964 
  749600    584.06486   -1033.2584    23.252863   -1010.0055 
  749800    512.72829   -1034.5632    20.412803   -1014.1504 
  750000    573.56917    -1035.602    22.835007    -1012.767 
  750200    550.47131   -1033.8994    21.915432    -1011.984 
  750400    556.93872   -1035.1689    22.172914    -1012.996 
  750600    568.36842   -1033.8254    22.627954   -1011.1974 
  750800    542.27964   -1034.2501    21.589305   -1012.6608 
  751000    559.83037   -1034.0004    22.288036   -1011.7123 
  751200    564.31949   -1033.1682    22.466758   -1010.7015 
  751400    556.49577   -1035.6376    22.155279   -1013.4823 
  751600    534.73874   -1035.0742    21.289085   -1013.7852 
  751800    609.77217   -1034.8069    24.276326   -1010.5305 
  752000    577.76603   -1035.9234    23.002093   -1012.9213 
  752200    568.34314   -1035.6886    22.626948   -1013.0617 
  752400    568.68513   -1034.8743    22.640563   -1012.2338 
  752600    554.26301   -1035.6538    22.066388   -1013.5874 
  752800    556.43145   -1036.4042    22.152718   -1014.2515 
  753000    551.40199   -1034.4912    21.952485   -1012.5387 
  753200    546.83849   -1034.1918    21.770802    -1012.421 
  753400    569.03615    -1036.221    22.654538   -1013.5664 
  753600     581.3237   -1036.7941    23.143732   -1013.6504 
  753800    592.89437   -1036.4961    23.604384   -1012.8917 
  754000    563.02772   -1035.9881     22.41533   -1013.5727 
  754200    578.96511   -1035.0209    23.049831    -1011.971 
  754400    562.34044   -1034.5684    22.387968   -1012.1805 
  754600     562.0866   -1035.6981    22.377862   -1013.3202 
  754800     543.0295   -1034.6289    21.619158   -1013.0097 
  755000    572.53056   -1035.3759    22.793658   -1012.5823 
  755200    538.63588   -1034.7355    21.444239   -1013.2912 
  755400    549.05836   -1036.3624     21.85918   -1014.5032 
  755600    556.74022   -1035.4402    22.165011   -1013.2752 
  755800    587.63212    -1036.455    23.394883   -1013.0601 
  756000    555.97284   -1035.4162     22.13446   -1013.2817 
  756200     556.7243   -1036.1908    22.164377   -1014.0264 
  756400    550.76642   -1033.9438    21.927181   -1012.0166 
  756600    553.83129   -1036.3587      22.0492   -1014.3095 
  756800    525.54204   -1036.3358    20.922945   -1015.4129 
  757000    597.96005   -1034.8956     23.80606   -1011.0895 
  757200    542.38578   -1035.8503     21.59353   -1014.2567 
  757400    532.31964   -1036.9821    21.192776   -1015.7894 
  757600    587.19432   -1034.4407    23.377454   -1011.0632 
  757800    544.62638    -1034.741    21.682733   -1013.0583 
  758000    543.89862    -1036.475     21.65376   -1014.8213 
  758200    602.74613   -1037.0936    23.996604    -1013.097 
  758400    548.15053   -1036.2294    21.823037   -1014.4063 
  758600    552.86436    -1036.114    22.010705   -1014.1033 
  758800     570.0873    -1035.783    22.696387   -1013.0866 
  759000    560.86773   -1036.1488    22.329336   -1013.8195 
  759200    612.12242   -1038.0113    24.369894   -1013.6415 
  759400    585.57808     -1037.45    23.313108   -1014.1369 
  759600    556.61147   -1035.9044    22.159885   -1013.7446 
  759800    589.30684   -1037.3731    23.461558   -1013.9116 
  760000    583.66038   -1036.0253     23.23676   -1012.7885 
  760200    547.75632   -1034.2151    21.807343   -1012.4078 
  760400     576.9624   -1035.2436    22.970099   -1012.2735 
  760600    521.16809   -1035.4401    20.748809   -1014.6913 
  760800    586.59347   -1036.6003    23.353532   -1013.2468 
  761000    599.02555   -1034.6364     23.84848   -1010.7879 
  761200     533.2137   -1033.6964     21.22837    -1012.468 
  761400    573.15487   -1035.2815    22.818513   -1012.4629 
  761600    556.64914   -1035.4582    22.161385   -1013.2968 
  761800    555.93226   -1032.7907    22.132844   -1010.6579 
  762000    574.71904   -1033.9662    22.880786   -1011.0854 
  762200    538.21514   -1035.3047    21.427488   -1013.8772 
  762400    576.93419   -1034.0507    22.968976   -1011.0817 
  762600    593.32407   -1036.0782    23.621492   -1012.4567 
  762800    540.36441   -1036.9178    21.513055   -1015.4048 
  763000    578.69935   -1035.6747    23.039251   -1012.6354 
  763200    598.81361   -1036.3654    23.840042   -1012.5254 
  763400    575.24846   -1036.2946    22.901864   -1013.3928 
  763600    577.71965   -1036.7699    23.000247   -1013.7696 
  763800    583.03509   -1034.1212    23.211866   -1010.9093 
  764000    612.18314   -1035.1121    24.372312   -1010.7398 
  764200    565.10576   -1037.6286    22.498061   -1015.1306 
  764400    598.15309   -1036.3587    23.813745    -1012.545 
  764600    564.75481   -1034.9955    22.484089   -1012.5114 
  764800    523.14403   -1033.8194    20.827475   -1012.9919 
  765000    605.58161   -1035.8307     24.10949   -1011.7212 
  765200    531.10699   -1036.4086    21.144498   -1015.2641 
  765400    566.99284   -1034.7965     22.57319   -1012.2233 
  765600    555.11703   -1034.2392    22.100389   -1012.1388 
  765800     550.3505   -1034.7227    21.910623   -1012.8121 
  766000    593.72219   -1036.6541    23.637342   -1013.0168 
  766200    608.05907   -1036.8165    24.208123   -1012.6084 
  766400    561.01621   -1035.6992    22.335247    -1013.364 
  766600    561.22951   -1035.5623    22.343739   -1013.2186 
  766800    572.36775   -1034.8388    22.787176   -1012.0516 
  767000    569.23199   -1035.6657    22.662335   -1013.0034 
  767200     563.4727   -1035.7856    22.433045   -1013.3526 
  767400    550.58986   -1034.8211    21.920152   -1012.9009 
  767600    553.30092   -1034.5226    22.028085   -1012.4945 
  767800    566.53556   -1035.1994    22.554984   -1012.6444 
  768000    589.73414   -1037.7919    23.478569   -1014.3133 
  768200    524.81622   -1035.4221    20.894049    -1014.528 
  768400    582.81512   -1035.0616    23.203108   -1011.8584 
  768600    561.91172    -1036.239      22.3709   -1013.8681 
  768800    545.87417   -1035.5653     21.73241   -1013.8329 
  769000    541.01713   -1034.0289    21.539041   -1012.4899 
  769200    590.90247   -1035.5951    23.525083     -1012.07 
  769400    612.20188   -1037.7942    24.373058   -1013.4211 
  769600    535.35787   -1036.8836    21.313734   -1015.5698 
  769800    619.79887   -1036.4404     24.67551   -1011.7649 
  770000    556.44353   -1035.5477    22.153199   -1013.3945 
  770200    570.34946   -1037.7374    22.706824   -1015.0306 
  770400    617.02669     -1037.66    24.565144   -1013.0948 
  770600    622.46179   -1036.0464    24.781526   -1011.2649 
  770800    523.58412   -1036.7089    20.844996   -1015.8639 
  771000    526.44542   -1035.9412    20.958911   -1014.9823 
  771200    651.37574   -1034.8711    25.932652   -1008.9385 
  771400    542.24196   -1037.7937    21.587804   -1016.2059 
  771600    584.21128    -1038.853    23.258692   -1015.5943 
  771800    609.57331   -1033.9696    24.268409   -1009.7012 
  772000    533.78084   -1036.6869    21.250949    -1015.436 
  772200       584.48   -1037.6884     23.26939    -1014.419 
  772400    595.79271   -1035.0332    23.719774   -1011.3134 
  772600    600.10414   -1037.0146    23.891421   -1013.1232 
  772800    566.22483   -1038.4914    22.542614   -1015.9488 
  773000    592.14384   -1036.1318    23.574505   -1012.5573 
  773200    611.50078   -1035.4732    24.345145   -1011.1281 
  773400     516.0406   -1034.7285    20.544673   -1014.1838 
  773600    579.11909   -1037.6912    23.055962   -1014.6352 
  773800    559.58693   -1035.2494    22.278345   -1012.9711 
  774000    534.91278   -1035.5107    21.296014   -1014.2147 
  774200    586.41164   -1036.6674    23.346293   -1013.3211 
  774400    575.53452   -1036.4483    22.913252   -1013.5351 
  774600    585.62509   -1036.4618    23.314979   -1013.1468 
  774800    598.13255   -1037.8084    23.812928   -1013.9955 
  775000    555.70313    -1035.184    22.123722   -1013.0603 
  775200    561.33893   -1035.2129    22.348096   -1012.8648 
  775400    561.79972    -1038.039     22.36644   -1015.6726 
  775600    576.14935   -1035.7585     22.93773   -1012.8208 
  775800    568.77101   -1035.1943    22.643982   -1012.5503 
  776000     596.0862   -1036.1828    23.731458   -1012.4513 
  776200     572.9362    -1036.193    22.809807   -1013.3832 
  776400    574.66643   -1037.1845    22.878691   -1014.3058 
  776600    580.10281   -1035.0839    23.095125   -1011.9888 
  776800    585.53477   -1036.1395    23.311383   -1012.8281 
  777000    566.62798   -1038.5086    22.558664   -1015.9499 
  777200    602.23126     -1036.37    23.976106   -1012.3939 
  777400     575.3936   -1035.5667    22.907642   -1012.6591 
  777600    542.02133   -1036.9743    21.579021   -1015.3953 
  777800    587.80169    -1035.071    23.401634   -1011.6694 
  778000    591.10357   -1036.0779    23.533089   -1012.5448 
  778200    564.51064   -1037.1061    22.474368   -1014.6317 
  778400    561.00421   -1035.3939     22.33477   -1013.0591 
  778600    594.36564   -1035.6603    23.662959   -1011.9973 
  778800    567.81722   -1036.3145     22.60601   -1013.7085 
  779000    580.19307   -1036.2565    23.098719   -1013.1577 
  779200    533.42336   -1034.4986    21.236717   -1013.2619 
  779400    572.05876    -1035.939    22.774875   -1013.1642 
  779600    549.00544   -1035.4218    21.857073   -1013.5648 
  779800    594.65542   -1036.1577    23.674496   -1012.4832 
  780000    576.39983   -1036.0796    22.947702   -1013.1319 
  780200    588.16301    -1036.262    23.416019    -1012.846 
  780400     583.3654   -1036.2738    23.225016   -1013.0488 
  780600    570.56434   -1036.4305    22.715379   -1013.7151 
  780800    591.47085   -1034.5006    23.547711   -1010.9529 
  781000    582.32033   -1035.5402    23.183409   -1012.3568 
  781200    496.97707   -1035.0638    19.785713    -1015.278 
  781400    579.27105   -1034.7919    23.062011   -1011.7298 
  781600    606.31276   -1035.9741    24.138599   -1011.8355 
  781800    560.08327   -1038.0422    22.298105   -1015.7441 
  782000    572.96732   -1036.2795    22.811047   -1013.4684 
  782200    593.69585   -1034.6704    23.636293   -1011.0341 
  782400    536.27684   -1034.5315     21.35032   -1013.1812 
  782600    575.17275   -1036.1969    22.898849   -1013.2981 
  782800    556.88921   -1035.7117    22.170943   -1013.5407 
  783000    584.38251   -1034.1494    23.265509   -1010.8839 
  783200    567.74931   -1036.3367    22.603306   -1013.7334 
  783400    557.88613    -1035.353    22.210632   -1013.1424 
  783600    589.87022   -1034.8799    23.483987   -1011.3959 
  783800    564.71187   -1037.3599    22.482379   -1014.8776 
  784000    582.17046   -1036.6045    23.177443   -1013.4271 
  784200    605.02808   -1036.0881    24.087453   -1012.0006 
  784400    538.33291   -1036.4994    21.432177   -1015.0672 
  784600    576.44992   -1036.7134    22.949696   -1013.7637 
  784800    574.31364   -1034.0991    22.864646   -1011.2344 
  785000    587.48674   -1036.4648    23.389095   -1013.0757 
  785200    530.26484   -1035.7406     21.11097   -1014.6296 
  785400    576.94687   -1034.5449    22.969481   -1011.5754 
  785600    569.05272   -1034.0278    22.655198   -1011.3726 
  785800    548.47153   -1036.0329    21.835817   -1014.1971 
  786000    581.14598   -1034.9614    23.136656   -1011.8247 
  786200    591.77257   -1035.1602    23.559723   -1011.6005 
  786400    593.41487   -1036.7764    23.625107   -1013.1513 
  786600    568.36698   -1036.0509    22.627897    -1013.423 
  786800    584.38633   -1035.3049    23.265662   -1012.0393 
  787000    558.73658   -1034.5014     22.24449    -1012.257 
  787200     567.5486   -1037.9306    22.595315   -1015.3353 
  787400    583.02729   -1036.1518    23.211555   -1012.9403 
  787600     593.7794   -1035.3587     23.63962    -1011.719 
  787800    538.93599   -1035.6992    21.456187    -1014.243 
  788000    608.33323   -1036.3289    24.219038   -1012.1099 
  788200    585.61027   -1035.1419    23.314389   -1011.8275 
  788400    559.77995   -1036.6587    22.286029   -1014.3726 
  788600    600.09268   -1035.3458    23.890964   -1011.4549 
  788800    585.43699   -1034.9242    23.307491   -1011.6167 
  789000    559.14616   -1036.4551    22.260797   -1014.1943 
  789200    565.73952   -1035.4126    22.523292   -1012.8893 
  789400    568.28782   -1034.0801    22.624745   -1011.4553 
  789600    560.83787   -1033.8228    22.328147   -1011.4947 
  789800    575.80109   -1036.4919    22.923865    -1013.568 
  790000    553.69515   -1035.4972     22.04378   -1013.4534 
  790200     613.3966   -1035.8169    24.420622   -1011.3963 
  790400    563.89105    -1036.414    22.449701   -1013.9643 
  790600    521.31805   -1033.9915    20.754779   -1013.2368 
  790800    558.75381   -1033.6603    22.245177   -1011.4151 
  791000    561.49372   -1035.3144    22.354258   -1012.9602 
  791200    580.72872   -1035.8628    23.120044   -1012.7428 
  791400    611.64227   -1038.3603    24.350778   -1014.0095 
  791600    565.31656   -1036.1055    22.506453    -1013.599 
  791800    577.33785   -1033.8979    22.985046   -1010.9128 
  792000    555.02587    -1035.403    22.096759   -1013.3062 
  792200    558.32505     -1036.06    22.228106   -1013.8319 
  792400    563.75261   -1034.9329    22.444189   -1012.4887 
  792600    602.11395   -1036.5046    23.971436   -1012.5332 
  792800    579.62728   -1036.1731    23.076194    -1013.097 
  793000    573.45704   -1034.5724    22.830543   -1011.7419 
  793200    582.72432   -1035.0195    23.199493     -1011.82 
  793400    550.80372   -1035.8903    21.928666   -1013.9616 
  793600    597.57141   -1035.6674    23.790588   -1011.8768 
  793800      547.568   -1034.0892    21.799846   -1012.2894 
  794000    572.62904   -1035.5475    22.797579   -1012.7499 
  794200    599.41182   -1035.6227    23.863858   -1011.7589 
  794400    599.61178   -1036.8598    23.871819    -1012.988 
  794600    605.24608   -1037.2016    24.096132   -1013.1055 
  794800    601.77669   -1036.8718    23.958009   -1012.9138 
  795000    579.55255   -1035.3242    23.073218    -1012.251 
  795200    587.19628   -1036.2527    23.377532   -1012.8752 
  795400     591.2246   -1037.3242    23.537907   -1013.7863 
  795600    650.36144   -1037.6244    25.892271   -1011.7321 
  795800    584.80832   -1036.7441    23.282462   -1013.4616 
  796000      575.086    -1035.959    22.895395   -1013.0636 
  796200    623.98208    -1036.223    24.842053    -1011.381 
  796400    581.93604   -1037.9141     23.16811    -1014.746 
  796600    534.20678   -1035.3979    21.267907   -1014.1299 
  796800    612.33582   -1036.2832     24.37839   -1011.9048 
  797000    572.15239   -1034.9486    22.778602     -1012.17 
  797200    580.00638   -1036.3115    23.091286   -1013.2202 
  797400    601.27253    -1037.163    23.937937    -1013.225 
  797600    562.95833   -1035.4016    22.412567    -1012.989 
  797800    572.51379   -1034.3949     22.79299    -1011.602 
  798000    589.13202   -1034.5571    23.454598   -1011.1025 
  798200    553.05035   -1035.8583     22.01811   -1013.8401 
  798400    560.75302   -1034.9808    22.324769    -1012.656 
  798600    614.46266   -1036.3256    24.463064   -1011.8625 
  798800    587.36213   -1037.4577    23.384134   -1014.0735 
  799000    610.02698   -1037.1577     24.28647   -1012.8712 
  799200    626.41357   -1036.0337    24.938855   -1011.0948 
  799400    568.75092   -1038.3742    22.643183   -1015.7311 
  799600    602.08898   -1037.5011    23.970442   -1013.5307 
  799800    578.93373   -1034.0671    23.048582   -1011.0185 
  800000     549.9617   -1037.3793    21.895144   -1015.4842 
  800200    577.60211   -1036.7847    22.995567   -1013.7891 
  800400    616.02673   -1034.6226    24.525333   -1010.0972 
  800600    546.07033   -1036.4276     21.74022   -1014.6873 
  800800    534.16483   -1035.6651    21.266237   -1014.3988 
  801000    604.11661    -1034.019    24.051166   -1009.9678 
  801200    537.89877   -1036.0614    21.414893   -1014.6465 
  801400    536.55394   -1036.5663    21.361352   -1015.2049 
  801600    607.18698    -1034.356    24.173404   -1010.1826 
  801800    553.67686   -1035.7867    22.043052   -1013.7436 
  802000    555.79077   -1037.9092    22.127211    -1015.782 
  802200     592.6223   -1035.6842    23.593553   -1012.0907 
  802400    565.45142   -1034.3235    22.511822   -1011.8117 
  802600     569.0455   -1038.1067     22.65491   -1015.4518 
  802800    615.81668   -1038.1547     24.51697   -1013.6377 
  803000    570.03221   -1035.6274    22.694193   -1012.9332 
  803200    557.21658   -1036.5909    22.183976   -1014.4069 
  803400    573.03754   -1037.3219    22.813842   -1014.5081 
  803600    590.40818   -1036.9004    23.505404    -1013.395 
  803800    568.66193    -1035.677     22.63964   -1013.0373 
  804000    577.95795   -1036.8931    23.009734   -1013.8834 
  804200    606.69311   -1036.0361    24.153742   -1011.8824 
  804400    557.69991   -1036.1333    22.203218     -1013.93 
  804600    567.25134   -1035.6686    22.583481   -1013.0851 
  804800    584.87076   -1037.1383    23.284948   -1013.8534 
  805000    569.83146   -1037.4192    22.686201    -1014.733 
  805200    596.44889   -1036.1448    23.745897   -1012.3989 
  805400    572.13836    -1037.566    22.778044   -1014.7879 
  805600     615.5339   -1038.5385    24.505712   -1014.0328 
  805800    606.03601   -1038.9486    24.127581   -1014.8211 
  806000    542.08977   -1037.3377    21.581745    -1015.756 
  806200    573.35053   -1035.6873    22.826303    -1012.861 
  806400    565.44296   -1035.6976    22.511486   -1013.1861 
  806600     583.1869   -1037.3063     23.21791   -1014.0884 
  806800    567.41914   -1038.7698    22.590162   -1016.1797 
  807000    595.51619   -1036.7616    23.708765   -1013.0529 
  807200     606.4463   -1037.5676    24.143916   -1013.4236 
  807400    579.28045    -1039.145    23.062385   -1016.0827 
  807600    568.65836   -1036.4529    22.639497   -1013.8135 
  807800    580.57424   -1035.0944    23.113894   -1011.9805 
  808000     577.4332   -1037.7318    22.988842   -1014.7429 
  808200    549.20266   -1036.0669    21.864925    -1014.202 
  808400    622.69061   -1036.3857    24.790636    -1011.595 
  808600    576.87771    -1037.607    22.966727   -1014.6403 
  808800    574.62622   -1037.4796    22.877091   -1014.6025 
  809000    577.22473   -1034.6976    22.980543    -1011.717 
  809200    565.44852   -1037.8843    22.511707   -1015.3725 
  809400    579.64389   -1038.5734    23.076855   -1015.4966 
  809600    679.15459   -1038.6557    27.038587   -1011.6172 
  809800    558.84943   -1037.0213    22.248983   -1014.7723 
  810000    543.82581   -1037.5629    21.650861   -1015.9121 
  810200    638.79369    -1037.212    25.431734   -1011.7803 
  810400    575.00769   -1036.2476    22.892278   -1013.3553 
  810600    583.50328   -1038.9805    23.230505     -1015.75 
  810800    575.45702   -1036.2594    22.910167   -1013.3492 
  811000    614.57857   -1034.9699    24.467679   -1010.5023 
  811200    574.01581   -1037.5613    22.852789   -1014.7085 
  811400     582.0412   -1037.6651    23.172297   -1014.4928 
  811600     623.5088    -1035.869     24.82321   -1011.0458 
  811800    581.68094   -1036.3932    23.157954   -1013.2353 
  812000    566.64582   -1037.7534    22.559374   -1015.1941 
  812200    585.21819    -1035.926    23.298779   -1012.6272 
  812400    610.26437   -1035.5122    24.295921   -1011.2163 
  812600     534.5266   -1038.1644     21.28064   -1016.8838 
  812800    587.44335   -1035.6349    23.387368   -1012.2476 
  813000    583.31311   -1035.3739    23.222934    -1012.151 
  813200    529.12541    -1035.874    21.065607   -1014.8083 
  813400    592.33542   -1036.3042    23.582132    -1012.722 
  813600    574.86764   -1035.0206    22.886702   -1012.1339 
  813800    573.53504   -1035.8993    22.833649   -1013.0656 
  814000     547.0611   -1037.6115    21.779665   -1015.8318 
  814200     568.8458   -1035.1127     22.64696   -1012.4658 
  814400    578.34842   -1036.2373     23.02528    -1013.212 
  814600     558.9274    -1037.251    22.252088   -1014.9989 
  814800    621.83853   -1037.8135    24.756713   -1013.0568 
  815000    596.07841   -1036.1085    23.731148   -1012.3773 
  815200    546.17031   -1036.7578      21.7442   -1015.0136 
  815400    551.89781   -1035.5704    21.972224   -1013.5982 
  815600    629.09931   -1036.0626     25.04578   -1011.0168 
  815800    542.61914   -1036.4367    21.602821   -1014.8339 
  816000    588.81197   -1036.8436    23.441855   -1013.4017 
  816200    599.97306   -1036.0476    23.886202   -1012.1614 
  816400    550.24793   -1036.6409    21.906539   -1014.7343 
  816600     582.0022   -1037.1725    23.170744   -1014.0018 
  816800    580.62455   -1036.3707    23.115897   -1013.2548 
  817000    552.21176   -1037.7126    21.984723   -1015.7278 
  817200    594.63205   -1037.1581    23.673565   -1013.4845 
  817400    624.21229   -1036.1194    24.851217   -1011.2682 
  817600    594.43468   -1037.7976    23.665707   -1014.1319 
  817800    541.85722   -1035.7926    21.572487   -1014.2201 
  818000    601.48051   -1035.5737    23.946217   -1011.6274 
  818200    578.20575   -1037.8146    23.019599    -1014.795 
  818400    577.91342   -1037.9636    23.007961   -1014.9557 
  818600    624.16974   -1038.2697    24.849523   -1013.4201 
  818800    557.25655   -1036.8209    22.185567   -1014.6353 
  819000    591.63914   -1038.4016    23.554411   -1014.8472 
  819200    595.40567   -1038.0154    23.704365   -1014.3111 
  819400    661.52517   -1039.0996    26.336723   -1012.7629 
  819600    589.21019   -1037.6338     23.45771    -1014.176 
  819800    576.92848   -1037.9306    22.968749   -1014.9618 
  820000    572.89227    -1035.783    22.808058   -1012.9749 
  820200    601.19366   -1037.1859    23.934797   -1013.2511 
  820400    595.07171   -1039.0635    23.691069   -1015.3724 
  820600    605.86771     -1039.33    24.120881   -1015.2091 
  820800    591.87219   -1036.6204    23.563689   -1013.0568 
  821000     611.5483   -1039.0608    24.347037   -1014.7138 
  821200     548.4809   -1037.8628     21.83619   -1016.0266 
  821400     620.4943   -1037.8499    24.703196   -1013.1467 
  821600     568.9274   -1035.7463    22.650209    -1013.096 
  821800    560.76541   -1037.8367    22.325262   -1015.5114 
  822000    549.46887   -1037.1277    21.875523   -1015.2522 
  822200    595.94304   -1035.8727    23.725758   -1012.1469 
  822400     589.1667   -1037.0849    23.455978   -1013.6289 
  822600     550.6225   -1038.7167    21.921452   -1016.7953 
  822800    611.89606   -1038.0368    24.360882   -1013.6759 
  823000    595.76589   -1037.2463    23.718706   -1013.5276 
  823200    583.07561   -1037.5927    23.213479   -1014.3792 
  823400    600.55711   -1038.3535    23.909454   -1014.4441 
  823600    592.66351   -1037.2219    23.595194   -1013.6268 
  823800    568.64415   -1037.7502    22.638932   -1015.1113 
  824000    609.82246   -1037.4009    24.278328   -1013.1226 
  824200    589.55194   -1036.0375    23.471315   -1012.5662 
  824400    600.36873   -1038.8625    23.901955   -1014.9606 
  824600    552.74967   -1036.9129    22.006139   -1014.9067 
  824800    594.47246   -1036.9579    23.667212   -1013.2907 
  825000    564.33275   -1037.6371    22.467286   -1015.1698 
  825200    575.79202   -1037.5245    22.923504    -1014.601 
  825400    612.05992   -1037.4281    24.367406   -1013.0607 
  825600    549.13049   -1037.8701    21.862052    -1016.008 
  825800    597.84137   -1037.7429    23.801335   -1013.9416 
  826000    616.40069   -1036.6532    24.540221    -1012.113 
  826200    600.85048   -1039.1295    23.921134   -1015.2083 
  826400    592.19911   -1037.0718    23.576705   -1013.4951 
  826600    578.88192    -1035.935    23.046519   -1012.8884 
  826800    583.16755   -1037.3778    23.217139   -1014.1607 
  827000    555.75095   -1039.0475    22.125626   -1016.9219 
  827200    585.91121   -1037.9926     23.32637   -1014.6662 
  827400    617.02361   -1037.4916    24.565021   -1012.9265 
  827600    534.92438   -1037.7004    21.296476   -1016.4039 
  827800    640.78218   -1038.5552      25.5109   -1013.0443 
  828000    577.40073   -1036.9573     22.98755   -1013.9698 
  828200    594.55159   -1040.5942    23.670362   -1016.9238 
  828400    558.22019   -1036.1071    22.223932   -1013.8832 
  828600    612.31917   -1035.7847    24.377727    -1011.407 
  828800    534.11471   -1038.2266    21.264241   -1016.9624 
  829000    610.23503   -1038.9855    24.294753   -1014.6907 
  829200    656.41367   -1034.5505    26.133223   -1008.4173 
  829400    573.15351   -1038.3869    22.818459   -1015.5684 
  829600    565.17995   -1039.5194    22.501015   -1017.0183 
  829800    621.45477   -1035.8227    24.741435   -1011.0813 
  830000    616.40572   -1037.0357    24.540421   -1012.4953 
  830200     505.6532   -1037.2356    20.131128   -1017.1045 
  830400    611.94796   -1036.1153    24.362948   -1011.7523 
  830600    582.32069   -1034.5481    23.183424   -1011.3647 
  830800    527.06694   -1037.9347    20.983655   -1016.9511 
  831000    624.30096   -1037.4754    24.854748   -1012.6207 
  831200    570.69242   -1035.5505    22.720478     -1012.83 
  831400    569.48346   -1038.3414    22.672346   -1015.6691 
  831600    573.45728    -1037.927    22.830553   -1015.0965 
  831800    596.14789   -1037.3978    23.733914   -1013.6639 
  832000      536.178   -1036.8999    21.346386   -1015.5535 
  832200    592.58213   -1037.5187    23.591953   -1013.9267 
  832400     594.3039   -1037.9983    23.660501   -1014.3378 
  832600    551.64823   -1037.4038    21.962288   -1015.4415 
  832800    630.54767   -1038.2346    25.103442   -1013.1311 
  833000    604.58281   -1038.9037    24.069726    -1014.834 
  833200     614.4244   -1038.8306    24.461541   -1014.3691 
  833400    612.40722   -1038.0882    24.381233    -1013.707 
  833600    570.99524   -1037.0767    22.732534   -1014.3441 
  833800    566.86278   -1036.2667    22.568012   -1013.6987 
  834000    614.89573   -1037.2281    24.480306   -1012.7478 
  834200    594.54555   -1039.1449    23.670122   -1015.4747 
  834400    613.88076   -1038.1881    24.439897   -1013.7482 
  834600    621.94498   -1037.3399    24.760951    -1012.579 
  834800    555.28113    -1036.969    22.106921    -1014.862 
  835000    585.45072   -1035.8117    23.308037   -1012.5036 
  835200     567.3908   -1037.4569    22.589033   -1014.8679 
  835400     616.2347   -1038.1721    24.533613   -1013.6385 
  835600    600.51838   -1036.5173    23.907913   -1012.6094 
  835800    576.75224   -1038.4626    22.961732   -1015.5009 
  836000    625.90238   -1039.0878    24.918504   -1014.1693 
  836200    602.47986   -1037.1829    23.986003   -1013.1969 
  836400    579.29218   -1037.2293    23.062853   -1014.1665 
  836600    578.09455   -1036.5461    23.015172   -1013.5309 
  836800    619.08285   -1038.0575    24.647004   -1013.4105 
  837000    620.33817   -1037.2227     24.69698   -1012.5258 
  837200    568.42242   -1035.7014    22.630104   -1013.0713 
  837400    583.41519   -1037.5301    23.226998   -1014.3031 
  837600    552.53152    -1037.169    21.997454   -1015.1716 
  837800    584.63468   -1037.2223    23.275549   -1013.9467 
  838000    592.00132    -1037.471     23.56883   -1013.9021 
  838200    601.62001   -1038.4719    23.951771   -1014.5202 
  838400    597.39844   -1038.4948    23.783701   -1014.7111 
  838600    605.97528   -1038.1237    24.125164   -1013.9985 
  838800    593.14114   -1037.4436    23.614209   -1013.8294 
  839000    582.68569   -1038.6885    23.197955   -1015.4905 
  839200    583.84687   -1037.3502    23.244184   -1014.1061 
  839400    606.23345   -1036.1193    24.135442   -1011.9838 
  839600    605.21574   -1039.0564    24.094924   -1014.9615 
  839800    573.14106    -1039.425    22.817963    -1016.607 
  840000     634.1286   -1035.9199    25.246007   -1010.6739 
  840200    593.48582   -1037.9413    23.627932   -1014.3134 
  840400    583.91817   -1040.1242    23.247023   -1016.8772 
  840600    577.41393   -1034.5824    22.988075   -1011.5943 
  840800    596.76224    -1036.092    23.758373   -1012.3337 
  841000    571.85869   -1039.8428    22.766909   -1017.0759 
  841200    569.50772   -1035.7472    22.673312   -1013.0739 
  841400    625.87084   -1035.3755    24.917248   -1010.4583 
  841600    535.41251   -1039.1002    21.315909   -1017.7842 
  841800    633.24705   -1039.3031    25.210911   -1014.0922 
  842000    652.66215   -1037.1082    25.983867   -1011.1244 
  842200    566.50317   -1040.6724    22.553695   -1018.1187 
  842400    630.78018   -1037.9677    25.112699    -1012.855 
  842600    642.50628   -1037.0575     25.57954    -1011.478 
  842800    582.71535   -1037.9581    23.199136   -1014.7589 
  843000    603.81381   -1038.6682    24.039111   -1014.6291 
  843200    608.55889   -1036.7788    24.228022   -1012.5508 
  843400    581.41238   -1038.6943    23.147262    -1015.547 
  843600    547.33671    -1037.879    21.790637   -1016.0884 
  843800    648.88097   -1036.4143     25.83333    -1010.581 
  844000     555.1815   -1036.2607    22.102955   -1014.1577 
  844200    589.40639   -1039.2794    23.465521   -1015.8139 
  844400    593.39654    -1037.421    23.624377   -1013.7966 
  844600     570.7427   -1035.4908    22.722479   -1012.7683 
  844800    587.73884   -1038.1351    23.399132    -1014.736 
  845000    600.43606   -1037.4251    23.904635   -1013.5205 
  845200    603.73643   -1037.3499     24.03603   -1013.3138 
  845400    573.32215   -1036.8034    22.825173   -1013.9782 
  845600    598.79765   -1037.7626    23.839407   -1013.9232 
  845800    614.32384   -1036.9214    24.457537   -1012.4638 
  846000    567.15135   -1037.0694      22.5795   -1014.4899 
  846200     623.5814   -1037.7802      24.8261   -1012.9541 
  846400    636.87275   -1038.7505    25.355257   -1013.3953 
  846600    574.34836   -1037.0799    22.866029   -1014.2138 
  846800    589.04232   -1036.1791    23.451026   -1012.7281 
  847000    563.58882   -1036.5216    22.437668    -1014.084 
  847200    597.96814   -1036.0447    23.806382   -1012.2383 
  847400    574.24487   -1037.7295    22.861908   -1014.8676 
  847600    610.48876   -1038.1208    24.304854   -1013.8159 
  847800    601.15137   -1035.0688    23.933113   -1011.1357 
  848000    625.95208    -1038.504    24.920482   -1013.5835 
  848200    591.84669   -1037.5503    23.562674   -1013.9876 
  848400    570.85431    -1037.252    22.726923   -1014.5251 
  848600    652.23827   -1037.2274    25.966991   -1011.2604 
  848800    588.23685    -1037.087    23.418959    -1013.668 
  849000    604.80528   -1037.5156    24.078583    -1013.437 
  849200    638.33234   -1037.6203    25.413367   -1012.2069 
  849400     601.7123   -1038.7497    23.955445   -1014.7942 
  849600    622.12408   -1038.4845    24.768081   -1013.7165 
  849800    614.59787   -1037.4251    24.468447   -1012.9567 
  850000     610.7126   -1038.8989    24.313766   -1014.5851 
  850200    601.53078   -1037.7611    23.948218   -1013.8128 
  850400    627.21012   -1037.2746    24.970567   -1012.3041 
  850600    594.03947   -1037.0463    23.649973   -1013.3963 
  850800    640.22435   -1039.2466    25.488692   -1013.7579 
  851000    587.44928   -1036.8351    23.387604   -1013.4475 
  851200    596.75997   -1036.8667    23.758282   -1013.1084 
  851400    593.85139   -1038.6253    23.642486   -1014.9828 
  851600    592.31118   -1037.4999    23.581167   -1013.9187 
  851800    608.78111   -1038.0141     24.23687   -1013.7772 
  852000    592.35124   -1037.2051    23.582761   -1013.6223 
  852200     601.6444   -1038.2191    23.952742   -1014.2664 
  852400    560.36402   -1038.0323    22.309282    -1015.723 
  852600    616.09277   -1036.8728    24.527962   -1012.3448 
  852800    603.74223   -1038.8988    24.036261   -1014.8625 
  853000    583.25599    -1038.141     23.22066   -1014.9204 
  853200    648.79045   -1036.7993    25.829726   -1010.9695 
  853400    606.21736   -1038.6831    24.134801   -1014.5483 
  853600    568.81048   -1037.3947    22.645554   -1014.7492 
  853800    620.56776   -1035.9845    24.706121   -1011.2784 
  854000    575.83844   -1037.6057    22.925352   -1014.6803 
  854200    583.96735   -1039.9038    23.248981   -1016.6548 
  854400    641.04954   -1037.3931    25.521544   -1011.8716 
  854600    607.35075    -1038.272    24.179924   -1014.0921 
  854800    597.88148   -1040.0491    23.802932   -1016.2461 
  855000    640.61024   -1036.4402    25.504055   -1010.9361 
  855200    615.80891   -1038.0298    24.516661   -1013.5131 
  855400    585.07424   -1039.8885    23.293049   -1016.5954 
  855600    625.45674   -1038.0546    24.900762   -1013.1539 
  855800    600.38546   -1035.7195    23.902621   -1011.8169 
  856000    590.00728   -1039.8841    23.489443   -1016.3947 
  856200     595.0918   -1038.2191    23.691869   -1014.5272 
  856400    683.22466   -1036.1498    27.200625   -1008.9492 
  856600    581.64065   -1038.3807     23.15635   -1015.2243 
  856800     564.2778   -1038.8123    22.465098   -1016.3472 
  857000    620.13029   -1035.7219    24.688704   -1011.0332 
  857200    608.13174   -1036.2477    24.211017   -1012.0367 
  857400    569.42813   -1038.8466    22.670144   -1016.1765 
  857600    631.12498   -1037.5208    25.126426   -1012.3944 
  857800    607.22164   -1035.9699    24.174784   -1011.7951 
  858000    568.04489   -1040.1131    22.615074   -1017.4981 
  858200    589.25798   -1036.3663    23.459612   -1012.9067 
  858400    613.58657   -1036.3696    24.428185   -1011.9414 
  858600    571.69476   -1038.6369    22.760383   -1015.8765 
  858800    596.62903   -1036.8882    23.753069   -1013.1352 
  859000    625.34403   -1037.6675    24.896274   -1012.7712 
  859200    608.74351    -1039.612    24.235372   -1015.3766 
  859400    617.84762   -1038.7917    24.597827   -1014.1939 
  859600    626.01463    -1037.195    24.922972    -1012.272 
  859800    588.22695   -1038.5492    23.418565   -1015.1306 
  860000    630.84853   -1037.7846     25.11542   -1012.6692 
  860200    618.20634   -1035.4131    24.612108    -1010.801 
  860400    577.48783   -1037.1898    22.991017   -1014.1988 
  860600    609.33171   -1037.4585     24.25879   -1013.1997 
  860800    625.56614   -1036.7241    24.905117    -1011.819 
  861000    537.62774   -1037.4376    21.404102   -1016.0335 
  861200    623.60006   -1038.5474    24.826843   -1013.7206 
  861400     601.2153   -1036.2624    23.935659   -1012.3267 
  861600    580.87938    -1037.116    23.126042     -1013.99 
  861800    584.10078   -1036.9365    23.254293   -1013.6822 
  862000    601.25086   -1036.3528    23.937074   -1012.4157 
  862200    594.47837   -1036.5853    23.667447   -1012.9178 
  862400    579.54587    -1038.507    23.072953    -1015.434 
  862600    639.76256   -1038.7221    25.470307   -1013.2518 
  862800    629.00281   -1037.3729    25.041938   -1012.3309 
  863000    575.12222   -1037.1048    22.896838    -1014.208 
  863200    617.10285   -1038.0847    24.568176   -1013.5165 
  863400    559.90031   -1036.3059    22.290821   -1014.0151 
  863600     634.4031   -1035.7367    25.256935   -1010.4798 
  863800    570.54187   -1037.7851    22.714484   -1015.0706 
  864000    634.61062   -1039.7107    25.265197   -1014.4455 
  864200     633.3101   -1037.5949    25.213421   -1012.3814 
  864400    631.98257   -1038.7268    25.160569   -1013.5663 
  864600    609.32219   -1038.1622    24.258411   -1013.9038 
  864800    574.41181   -1037.7532    22.868554   -1014.8847 
  865000    616.40376   -1037.0437    24.540343   -1012.5033 
  865200     545.9822   -1036.3027    21.736712    -1014.566 
  865400    565.08898   -1036.8716    22.497393   -1014.3742 
  865600    655.54273   -1037.9796    26.098549    -1011.881 
  865800    608.69592   -1037.9506    24.233478   -1013.7171 
  866000    599.93032   -1038.3932    23.884501   -1014.5087 
  866200    581.43273   -1035.6152    23.148072   -1012.4671 
  866400    631.01415   -1036.0879    25.122014   -1010.9659 
  866600    547.66773   -1037.6555    21.803816   -1015.8517 
  866800    612.45484   -1037.1648    24.383128   -1012.7817 
  867000    616.05784    -1034.269    24.526572   -1009.7424 
  867200    551.73032   -1036.5246    21.965556   -1014.5591 
  867400    613.85155   -1038.7056    24.438735   -1014.2668 
  867600    609.83265   -1035.8125    24.278733   -1011.5337 
  867800     623.9005   -1037.2559    24.838805   -1012.4171 
  868000    549.11619   -1038.3659    21.861482   -1016.5044 
  868200    662.94315   -1037.6899    26.393175   -1011.2968 
  868400    623.15856   -1036.2997    24.809266   -1011.4904 
  868600    553.33156   -1038.9576    22.029305   -1016.9283 
  868800    624.45754   -1037.5118    24.860981   -1012.6508 
  869000    610.92899   -1033.9461    24.322381   -1009.6237 
  869200    572.70428   -1037.9456    22.800574    -1015.145 
  869400    552.28749   -1037.4072    21.987739   -1015.4195 
  869600    627.81632   -1036.0948    24.994702   -1011.1001 
  869800    613.87427   -1038.4021    24.439639   -1013.9625 
  870000    590.55889   -1038.9703    23.511404   -1015.4589 
  870200    616.94054   -1035.1487    24.561714   -1010.5869 
  870400    564.61744    -1036.147     22.47862   -1013.6684 
  870600     609.5698   -1038.0696    24.268269   -1013.8014 
  870800    601.48346   -1036.1611    23.946334   -1012.2147 
  871000    630.25328   -1038.1932    25.091722   -1013.1015 
  871200    561.96221   -1036.8603     22.37291   -1014.4874 
  871400    582.61699   -1034.9798     23.19522   -1011.7845 
  871600    629.16888   -1037.7141     25.04855   -1012.6656 
  871800    547.02014   -1037.5023    21.778034   -1015.7242 
  872000    647.13242   -1037.8659    25.763716   -1012.1022 
  872200    615.48687   -1035.9672     24.50384   -1011.4633 
  872400    571.85401   -1037.9902    22.766723   -1015.2235 
  872600     635.2122    -1038.271    25.289147   -1012.9819 
  872800     626.9449    -1037.785    24.960009    -1012.825 
  873000    592.50989   -1038.6799    23.589078   -1015.0908 
  873200    629.62475   -1037.3679    25.066699   -1012.3012 
  873400    603.90823   -1036.6099     24.04287    -1012.567 
  873600    550.30032   -1037.1897    21.908625   -1015.2811 
  873800    610.46741   -1039.0133    24.304005   -1014.7093 
  874000    602.29631   -1036.5872    23.978696   -1012.6085 
  874200    622.14321   -1039.1577    24.768843   -1014.3888 
  874400    585.50306   -1039.1708    23.310121   -1015.8607 
  874600    632.64756   -1037.1778    25.187044   -1011.9908 
  874800    604.71473   -1037.8773    24.074978   -1013.8023 
  875000    552.38918   -1038.6941    21.991787   -1016.7023 
  875200    657.26392   -1038.7516    26.167073   -1012.5845 
  875400    601.11918   -1037.3264    23.931832   -1013.3946 
  875600    570.47459    -1038.132    22.711806   -1015.4202 
  875800    610.05197   -1036.1168    24.287465   -1011.8293 
  876000    570.87273   -1037.8698    22.727656   -1015.1421 
  876200    621.19531   -1039.0381    24.731105    -1014.307 
  876400    599.62486   -1036.8937     23.87234   -1013.0214 
  876600    578.35959   -1037.1337    23.025724    -1014.108 
  876800    645.28593    -1037.667    25.690204   -1011.9768 
  877000    602.39206   -1037.5421    23.982508   -1013.5596 
  877200    626.11346   -1037.2999    24.926907    -1012.373 
  877400    592.83437   -1036.2861    23.601996   -1012.6841 
  877600    641.67505   -1038.6831    25.546447   -1013.1366 
  877800    585.32142   -1037.5401    23.302889   -1014.2372 
  878000    628.63699   -1038.5168    25.027374   -1013.4894 
  878200     602.4692   -1036.7299    23.985579   -1012.7443 
  878400    575.70069   -1037.5296    22.919868   -1014.6097 
  878600    592.58408   -1036.6255    23.592031   -1013.0335 
  878800    661.96159   -1038.8276    26.354097   -1012.4735 
  879000    606.60271   -1038.8538    24.150143   -1014.7037 
  879200    604.01401    -1037.457    24.047081     -1013.41 
  879400    650.58856   -1038.0819    25.901313   -1012.1806 
  879600    596.84236    -1039.016    23.761562   -1015.2544 
  879800    639.15104   -1039.0108    25.445961   -1013.5649 
  880000    629.29061   -1035.8428    25.053396   -1010.7894 
  880200    597.39624   -1037.1796    23.783613   -1013.3959 
  880400    572.09818   -1037.3895    22.776444   -1014.6131 
  880600     618.6939   -1037.5137    24.631519   -1012.8822 
  880800    630.58027   -1036.6358     25.10474   -1011.5311 
  881000    586.37005   -1038.0853    23.344637   -1014.7407 
  881200    598.72365   -1038.0204    23.836461    -1014.184 
  881400    636.61331     -1037.36    25.344929    -1012.015 
  881600    642.91926   -1038.1568    25.595982   -1012.5609 
  881800     587.1881   -1038.2782    23.377206    -1014.901 
  882000     629.6452   -1037.3291    25.067513   -1012.2616 
  882200    579.69935   -1035.9138    23.079063   -1012.8347 
  882400    596.31685    -1038.399    23.740641   -1014.6583 
  882600    576.36248   -1036.3883    22.946215   -1013.4421 
  882800    630.12499   -1035.3402    25.086615   -1010.2535 
  883000    590.99607   -1037.5209    23.528809   -1013.9921 
  883200    603.41283   -1037.7029    24.023147   -1013.6797 
  883400    628.69495   -1035.9003    25.029682   -1010.8706 
  883600    566.12247   -1036.8457    22.538538   -1014.3072 
  883800    576.66033   -1036.2816    22.958073   -1013.3235 
  884000    612.26114   -1036.9856    24.375417   -1012.6102 
  884200    591.10316    -1036.711    23.533073   -1013.1779 
  884400    573.92843   -1036.5291     22.84931   -1013.6798 
  884600    627.51396   -1036.1026    24.982664   -1011.1199 
  884800    580.93697   -1035.8707    23.128335   -1012.7424 
  885000    565.03149   -1037.0276    22.495104   -1014.5325 
  885200    610.93609   -1036.1836    24.322664   -1011.8609 
  885400     630.9362   -1038.1067     25.11891   -1012.9878 
  885600    587.86692   -1038.8921    23.404231   -1015.4878 
  885800    632.39391   -1036.4593    25.176945   -1011.2823 
  886000    596.45225   -1037.3293    23.746031   -1013.5833 
  886200    639.56677   -1039.5403    25.462512   -1014.0778 
  886400    651.96977   -1037.6282    25.956302   -1011.6719 
  886600    623.21116   -1038.6376    24.811361   -1013.8263 
  886800    621.01197   -1038.1464    24.723806   -1013.4226 
  887000    608.86628   -1036.7553     24.24026    -1012.515 
  887200     622.8431   -1038.2242    24.796707   -1013.4275 
  887400    641.14871   -1039.7339    25.525492   -1014.2084 
  887600    618.72809    -1037.767     24.63288   -1013.1342 
  887800    671.65458   -1037.5587    26.739996   -1010.8187 
  888000    564.78162   -1038.6577    22.485156   -1016.1726 
  888200    631.79821   -1038.8495    25.153229   -1013.6963 
  888400    650.62327   -1037.3134    25.902695   -1011.4107 
  888600    585.31294   -1038.2448    23.302552   -1014.9423 
  888800    617.36485   -1037.4409    24.578606   -1012.8623 
  889000    626.70467   -1035.3451    24.950445   -1010.3947 
  889200    595.50094   -1038.1863    23.708158   -1014.4782 
  889400    589.96404   -1040.5753    23.487722   -1017.0875 
  889600    668.13604   -1038.1373    26.599915   -1011.5374 
  889800    621.09137    -1037.441    24.726967    -1012.714 
  890000    577.36258   -1039.3853    22.986031   -1016.3993 
  890200    654.52996   -1038.1449    26.058228   -1012.0867 
  890400    629.29812   -1037.3121    25.053695   -1012.2584 
  890600    590.17866   -1037.9624    23.496266   -1014.4661 
  890800    645.00253   -1038.4424    25.678921   -1012.7635 
  891000    618.19442   -1037.8696    24.611633    -1013.258 
  891200    610.49869   -1039.2076     24.30525   -1014.9024 
  891400    631.10511    -1036.435    25.125635   -1011.3094 
  891600    643.06599   -1038.5498    25.601823    -1012.948 
  891800    586.57197    -1037.259    23.352676   -1013.9064 
  892000    661.90311   -1036.3271    26.351769   -1009.9754 
  892200    599.34863   -1036.5282    23.861342   -1012.6668 
  892400    599.02437   -1037.0738    23.848433   -1013.2254 
  892600    611.88581   -1036.8861    24.360474   -1012.5256 
  892800    589.07586   -1035.4165    23.452361   -1011.9641 
  893000     589.4901   -1035.2691    23.468853   -1011.8002 
  893200     650.2319   -1038.1894    25.887113   -1012.3023 
  893400     579.2685   -1035.3178     23.06191   -1012.2559 
  893600    633.60344   -1035.4252    25.225099   -1010.2001 
  893800    649.29131   -1038.4483    25.849667   -1012.5986 
  894000    569.31463   -1035.6921    22.665625   -1013.0265 
  894200    648.43428   -1035.8164    25.815546   -1010.0009 
  894400    624.38329   -1036.7879    24.858025   -1011.9299 
  894600    595.50402   -1039.2262     23.70828   -1015.5179 
  894800    653.57013    -1037.515    26.020016   -1011.4949 
  895000    649.27607   -1035.7632     25.84906   -1009.9141 
  895200    580.50289   -1038.6325    23.111053   -1015.5215 
  895400     593.5191    -1037.429    23.629256   -1013.7997 
  895600    665.64501   -1036.5746    26.500742   -1010.0738 
  895800    623.17002   -1038.9241    24.809722   -1014.1144 
  896000    605.71761   -1039.5173    24.114905   -1015.4024 
  896200    631.03889   -1035.9912    25.122999   -1010.8682 
  896400     616.4309   -1037.1577    24.541424   -1012.6163 
  896600     596.6335   -1038.0854    23.753247   -1014.3321 
  896800     627.5323   -1037.4533    24.983394   -1012.4699 
  897000    634.67969   -1037.8436    25.267947   -1012.5757 
  897200    639.81697   -1039.2649    25.472473   -1013.7925 
  897400     610.6891   -1038.8279     24.31283   -1014.5151 
  897600    674.03479   -1036.8909    26.834757   -1010.0561 
  897800    622.98249   -1038.6547    24.802257   -1013.8525 
  898000    595.35292   -1039.3604    23.702265   -1015.6581 
  898200    625.76461   -1035.2924    24.913019   -1010.3794 
  898400    602.09692   -1037.1034    23.970757   -1013.1327 
  898600    640.15651   -1039.6261    25.485991   -1014.1402 
  898800    634.41315   -1037.2131    25.257335   -1011.9558 
  899000    647.23649    -1039.676     25.76786   -1013.9081 
  899200     624.5849   -1039.5299    24.866052   -1014.6638 
  899400    668.20344   -1037.9377    26.602598   -1011.3351 
  899600    622.93703   -1037.8616    24.800447   -1013.0612 
  899800    607.62671   -1038.1394     24.19091   -1013.9485 
  900000     625.6546    -1036.412    24.908639   -1011.5034 
  900200     595.3784   -1036.6456    23.703279   -1012.9423 
  900400    587.95012   -1037.1659    23.407544   -1013.7583 
  900600    633.73465   -1037.4601    25.230323   -1012.2298 
  900800    635.48612   -1037.2807    25.300053   -1011.9806 
  901000    538.99867   -1035.5635    21.458682   -1014.1048 
  901200    614.73407   -1034.8546    24.473869   -1010.3807 
  901400    589.42108   -1033.1653    23.466106   -1009.6992 
  901600    594.19139   -1037.8227    23.656022   -1014.1666 
  901800    561.21794   -1035.8532    22.343279     -1013.51 
  902000    658.33567   -1036.3894    26.209742   -1010.1797 
  902200     589.2956   -1037.2808     23.46111   -1013.8196 
  902400     581.0757   -1037.9367    23.133858   -1014.8029 
  902600    673.62783   -1036.5892    26.818555   -1009.7706 
  902800    582.59398   -1036.4611    23.194304   -1013.2668 
  903000    614.08502   -1038.3962    24.448029   -1013.9482 
  903200     651.3143   -1035.3342    25.930206    -1009.404 
  903400    587.58172   -1036.2458    23.392877   -1012.8529 
  903600    597.21911   -1037.9392    23.776562   -1014.1626 
  903800    632.78829   -1034.9927    25.192646      -1009.8 
  904000    649.68994   -1037.0718    25.865537   -1011.2063 
  904200    544.88611   -1037.1821    21.693074   -1015.4891 
  904400    649.01077   -1035.1682    25.838498   -1009.3297 
  904600    632.67128   -1035.7892    25.187988   -1010.6013 
  904800    585.33206   -1039.0782    23.303313   -1015.7749 
  905000    669.59664    -1038.021    26.658065   -1011.3629 
  905200    642.66722   -1035.1784    25.585948   -1009.5925 
  905400    582.78364   -1037.5528    23.201855   -1014.3509 
  905600    602.71556   -1038.0657    23.995387   -1014.0703 
  905800    622.36215   -1034.7698    24.777559   -1009.9922 
  906000    628.58204   -1038.0026    25.025187   -1012.9774 
  906200    588.66784   -1038.4639    23.436118   -1015.0278 
  906400    650.91303   -1035.5167    25.914231   -1009.6025 
  906600    598.87728   -1036.3265    23.842577   -1012.4839 
  906800    615.01204   -1037.5878    24.484936   -1013.1028 
  907000    614.05992   -1035.7727     24.44703   -1011.3257 
  907200    605.31741   -1037.1801    24.098972   -1013.0811 
  907400    598.93428    -1036.548    23.844846   -1012.7032 
  907600    588.97644   -1036.4118    23.448403   -1012.9634 
  907800    627.32371   -1036.0512     24.97509   -1011.0761 
  908000    636.06709   -1037.5822    25.323182   -1012.2591 
  908200     614.3629   -1038.4569    24.459092   -1013.9978 
  908400    658.75615   -1035.6326    26.226482   -1009.4062 
  908600    598.36323   -1036.4515    23.822112   -1012.6294 
  908800    620.79542   -1038.2598    24.715185   -1013.5446 
  909000    601.53387   -1034.2656    23.948341   -1010.3173 
  909200    611.55308   -1035.1291    24.347228   -1010.7818 
  909400    582.63875   -1036.7327    23.196086   -1013.5366 
  909600    574.06619   -1036.3337    22.854795   -1013.4789 
  909800    632.03102   -1035.7233    25.162498   -1010.5608 
  910000     614.7166   -1036.7156    24.473174   -1012.2424 
  910200    604.54719    -1037.445    24.068308   -1013.3767 
  910400    680.11289   -1037.9244    27.076739   -1010.8477 
  910600    598.80433   -1036.8504    23.839673   -1013.0107 
  910800    612.54583   -1038.3399    24.386751   -1013.9531 
  911000     661.2078   -1037.2381    26.324087    -1010.914 
  911200    639.11055   -1037.7864    25.444349   -1012.3421 
  911400    586.94965   -1037.4778    23.367713   -1014.1101 
  911600    633.53771   -1038.4379    25.222482   -1013.2154 
  911800    645.02992   -1035.9862    25.680012   -1010.3062 
  912000    624.36727   -1036.3319    24.857388   -1011.4745 
  912200    581.00003   -1036.7719    23.130846   -1013.6411 
  912400    641.85843   -1036.4234    25.553748   -1010.8696 
  912600    622.86065    -1037.559    24.797406   -1012.7616 
  912800    578.83691   -1035.5656    23.044727   -1012.5209 
  913000    600.68564   -1035.6362    23.914571   -1011.7216 
  913200    637.16009   -1038.0386    25.366697   -1012.6719 
  913400    604.84178   -1036.1513    24.080036   -1012.0713 
  913600    620.73283   -1037.0331    24.712693   -1012.3204 
  913800    592.42567   -1035.3321    23.585725   -1011.7464 
  914000    627.91905   -1038.2262    24.998791   -1013.2274 
  914200    571.98199   -1036.7279    22.771818   -1013.9561 
  914400    660.32664   -1038.3653    26.289007   -1012.0763 
  914600    618.64689   -1038.5172    24.629647   -1013.8876 
  914800    649.16944   -1038.0327    25.844815   -1012.1879 
  915000     652.7837   -1039.3271    25.988706   -1013.3383 
  915200    623.24395   -1037.7572    24.812666   -1012.9446 
  915400    642.82003   -1036.0096    25.592031   -1010.4176 
  915600    626.02074   -1039.3728    24.923216   -1014.4495 
  915800    630.16636   -1039.6175    25.088262   -1014.5292 
  916000    610.41083   -1036.4574    24.301752   -1012.1557 
  916200    653.20792    -1036.998    26.005595   -1010.9924 
  916400    617.94437   -1038.1381    24.601678   -1013.5364 
  916600    566.98642   -1036.0118    22.572934   -1013.4389 
  916800    632.09255   -1037.5467    25.164947   -1012.3817 
  917000    634.22964   -1037.3066     25.25003   -1012.0566 
  917200    613.65904   -1037.6076     24.43107   -1013.1766 
  917400    604.57178    -1035.671    24.069287   -1011.6018 
  917600    621.48989   -1036.9619    24.742833   -1012.2191 
  917800    572.56572   -1036.1142    22.795058   -1013.3192 
  918000    610.24181   -1036.7358    24.295023   -1012.4407 
  918200    622.33517   -1038.2792    24.776485   -1013.5027 
  918400    614.48039   -1037.7039     24.46377   -1013.2401 
  918600    631.43765     -1037.04    25.138874   -1011.9011 
  918800    597.38989    -1036.876    23.783361   -1013.0927 
  919000    588.26757   -1036.9989    23.420182   -1013.5787 
  919200    620.50602   -1038.3257    24.703663    -1013.622 
  919400    636.04139   -1036.8802    25.322159   -1011.5581 
  919600    581.77427    -1036.413     23.16167   -1013.2514 
  919800    626.20288   -1038.6128    24.930467   -1013.6823 
  920000    620.29063   -1037.0037    24.695088   -1012.3086 
  920200     638.6627   -1037.9361    25.426519   -1012.5096 
  920400    610.64212   -1039.2748     24.31096   -1014.9638 
  920600    606.50424   -1035.0219    24.146222   -1010.8757 
  920800    631.33116   -1035.2868    25.134635   -1010.1521 
  921000    576.93267    -1038.297    22.968915   -1015.3281 
  921200    590.48595   -1037.1278      23.5085   -1013.6193 
  921400    690.65861   -1037.6055    27.496587   -1010.1089 
  921600    626.36505   -1037.9161    24.936924   -1012.9792 
  921800    568.80904   -1037.8384    22.645496   -1015.1929 
  922000    648.50499   -1036.2279    25.818361   -1010.4095 
  922200    647.38708   -1036.7152    25.773855   -1010.9414 
  922400    589.28749   -1039.2306    23.460787   -1015.7698 
  922600    694.73639   -1037.9502    27.658932   -1010.2912 
  922800    653.94023    -1035.878     26.03475   -1009.8433 
  923000    597.56988   -1038.5402    23.790527   -1014.7497 
  923200    602.93931   -1036.6429    24.004295   -1012.6386 
  923400    677.25287   -1036.5561    26.962876   -1009.5933 
  923600    607.77829   -1038.8342    24.196945   -1014.6373 
  923800    575.60144     -1037.16    22.915916    -1014.244 
  924000    689.47023   -1038.0532    27.449275   -1010.6039 
  924200     577.2299   -1036.3356    22.980749   -1013.3549 
  924400    572.64839   -1036.3191    22.798349   -1013.5207 
  924600    638.35158   -1036.7366    25.414132   -1011.3225 
  924800    603.01114   -1036.5579    24.007154   -1012.5508 
  925000    638.18619   -1039.0418    25.407548   -1013.6342 
  925200    634.31812   -1038.2285    25.253552   -1012.9749 
  925400    616.38046   -1036.0878    24.539416   -1011.5484 
  925600    631.50671   -1037.6613    25.141624   -1012.5197 
  925800    622.75632   -1039.1215    24.793252   -1014.3282 
  926000    677.60698   -1037.5926    26.976973   -1010.6156 
  926200    641.34525   -1037.0694    25.533317    -1011.536 
  926400    605.75982    -1038.017    24.116586   -1013.9004 
  926600    634.45027   -1035.3702    25.258813   -1010.1114 
  926800    622.23275   -1037.2596    24.772408   -1012.4872 
  927000    629.81197   -1037.1925    25.074153   -1012.1183 
  927200    593.86097   -1036.5604    23.642867   -1012.9176 
  927400     670.5332    -1037.602    26.695351   -1010.9066 
  927600    608.48806   -1036.0689    24.225202   -1011.8437 
  927800    605.41325   -1037.8841    24.102788   -1013.7813 
  928000    647.79653   -1037.1959    25.790156   -1011.4058 
  928200    610.89163   -1037.2988    24.320894   -1012.9779 
  928400    644.16909   -1038.1738     25.64574    -1012.528 
  928600    634.23169   -1038.2395    25.250111   -1012.9894 
  928800    584.02953   -1036.4942    23.251457   -1013.2428 
  929000    661.37018   -1036.0603    26.330552   -1009.7297 
  929200    603.70297   -1038.1262    24.034698   -1014.0916 
  929400     600.3365   -1036.4886    23.900671    -1012.588 
  929600    650.72182   -1035.8438    25.906618   -1009.9371 
  929800    625.45001   -1036.6934    24.900494   -1011.7929 
  930000    611.42194   -1036.6593    24.342006   -1012.3173 
  930200    608.03291   -1036.9624    24.207082   -1012.7553 
  930400    622.79604   -1035.7593    24.794833   -1010.9644 
  930600    616.93798   -1037.8316    24.561612     -1013.27 
  930800    622.51505   -1036.9457    24.783647    -1012.162 
  931000    657.21608   -1035.6034    26.165168   -1009.4382 
  931200    612.89555   -1036.6517    24.400674    -1012.251 
  931400     650.0395   -1037.9026    25.879454   -1012.0231 
  931600    601.99419   -1036.2798    23.966668   -1012.3131 
  931800    638.51078   -1036.9684    25.420471    -1011.548 
  932000    627.53164   -1036.8667    24.983368   -1011.8833 
  932200    609.83622   -1036.9349    24.278876   -1012.6561 
  932400    621.72999    -1036.475    24.752392   -1011.7226 
  932600    656.43456   -1037.3429    26.134054   -1011.2088 
  932800    604.04294   -1036.7629    24.048233   -1012.7147 
  933000    597.60289   -1037.0364    23.791841   -1013.2446 
  933200    715.14966   -1037.4916    28.471627     -1009.02 
  933400    648.22503   -1038.3041    25.807216   -1012.4968 
  933600    604.96417   -1038.3615    24.084909   -1014.2766 
  933800    643.61091    -1036.795    25.623518   -1011.1715 
  934000    660.04959    -1037.476    26.277977    -1011.198 
  934200    616.28886   -1037.9207    24.535769    -1013.385 
  934400    624.33761   -1036.6329    24.856207   -1011.7767 
  934600    670.86171   -1036.9942     26.70843   -1010.2857 
  934800    604.36594   -1038.6338    24.061092   -1014.5727 
  935000    640.62134   -1036.4167    25.504497   -1010.9122 
  935200     659.6998   -1035.7556    26.264051   -1009.4916 
  935400     625.1777   -1037.0776    24.889652   -1012.1879 
  935600    608.12576   -1037.5765    24.210779   -1013.3658 
  935800    666.10837   -1036.1884    26.519189   -1009.6692 
  936000    625.23468   -1037.9784    24.891921   -1013.0864 
  936200    613.45407   -1037.4293     24.42291   -1013.0064 
  936400    638.21587   -1035.3741     25.40873   -1009.9653 
  936600    591.58877   -1036.4192    23.552406   -1012.8668 
  936800    649.49321   -1038.8788    25.857705   -1013.0211 
  937000    637.69151   -1036.5324    25.387854   -1011.1446 
  937200    650.78162   -1037.6712    25.908999   -1011.7622 
  937400    582.46317   -1036.0357    23.189096   -1012.8466 
  937600     639.5134   -1035.4207    25.460387   -1009.9603 
  937800    639.00122   -1035.3141    25.439996   -1009.8741 
  938000     593.6968   -1037.2797    23.636331   -1013.6434 
  938200    632.27942   -1037.1318    25.172387   -1011.9595 
  938400    650.52678   -1036.5766    25.898853   -1010.6778 
  938600    589.29212   -1036.5282    23.460971   -1013.0672 
  938800    608.74462   -1036.2964    24.235417    -1012.061 
  939000    648.55413    -1037.646    25.820318   -1011.8257 
  939200    662.82841   -1037.5182    26.388607   -1011.1296 
  939400    645.90377   -1037.1814    25.714801   -1011.4666 
  939600    657.38098   -1038.2877    26.171734    -1012.116 
  939800    665.18649   -1037.1681    26.482487   -1010.6856 
  940000    652.35262   -1038.1227    25.971544   -1012.1511 
  940200    594.90789   -1036.6625    23.684547   -1012.9779 
  940400    624.20454   -1034.2013    24.850909   -1009.3504 
  940600    603.70174    -1035.646    24.034649   -1011.6113 
  940800    586.10678   -1038.2981    23.334156   -1014.9639 
  941000    617.16381   -1035.6897    24.570602   -1011.1191 
  941200     624.5281   -1037.0437     24.86379   -1012.1799 
  941400    628.81345   -1038.3371      25.0344   -1013.3027 
  941600    633.14772   -1035.1167    25.206956   -1009.9098 
  941800    656.10966   -1036.3224     26.12112   -1010.2012 
  942000    570.63631   -1037.0473    22.718244   -1014.3291 
  942200    651.32818   -1036.7012    25.930759   -1010.7705 
  942400    624.54939    -1035.199    24.864638   -1010.3344 
  942600    596.56418   -1038.3181    23.750487   -1014.5676 
  942800    626.27394   -1036.5351    24.933296   -1011.6018 
  943000    648.92053   -1035.2501    25.834905   -1009.4152 
  943200    582.10889   -1037.3636    23.174992   -1014.1886 
  943400    606.01014   -1036.5535    24.126551   -1012.4269 
  943600    655.03249   -1036.0335    26.078235   -1009.9553 
  943800    592.37287   -1037.2525    23.583622   -1013.6689 
  944000    611.35946    -1038.251    24.339519   -1013.9115 
  944200    609.96734   -1035.3725    24.284096   -1011.0884 
  944400      679.537   -1036.2436    27.053812   -1009.1898 
  944600    585.81732   -1037.9097    23.322632   -1014.5871 
  944800    621.49268    -1036.088    24.742944    -1011.345 
  945000    619.15418   -1034.6115    24.649843   -1009.9617 
  945200    623.40216   -1035.9599    24.818964    -1011.141 
  945400    598.78426   -1037.7103    23.838874   -1013.8714 
  945600    611.46315   -1036.9974    24.343647   -1012.6538 
  945800    648.81718    -1034.654     25.83079   -1008.8233 
  946000    611.06396   -1037.4944    24.327755   -1013.1667 
  946200    606.00129   -1035.6931    24.126199   -1011.5669 
  946400     613.9489   -1035.9663     24.44261   -1011.5237 
  946600    635.01588   -1037.4589    25.281331   -1012.1776 
  946800    627.48077   -1036.8604    24.981342    -1011.879 
  947000    623.92258   -1037.5783    24.839683   -1012.7386 
  947200     670.9217   -1037.5208    26.710818     -1010.81 
  947400    566.88476   -1035.0771    22.568887   -1012.5082 
  947600    621.07708    -1036.421    24.726398   -1011.6946 
  947800    647.85317   -1038.9341    25.792411   -1013.1417 
  948000    632.94393   -1037.0506    25.198843   -1011.8518 
  948200    623.53243   -1035.0345    24.824151   -1010.2103 
  948400    641.23761   -1038.3776    25.529032   -1012.8485 
  948600    607.06171   -1036.0681    24.168416   -1011.8997 
  948800    642.96381   -1037.5856    25.597755   -1011.9879 
  949000    635.31397   -1037.5941    25.293199   -1012.3009 
  949200    660.34084   -1037.5815    26.289572    -1011.292 
  949400    618.48071   -1036.6565    24.623031   -1012.0335 
  949600     633.3867   -1036.1989     25.21647   -1010.9824 
  949800    641.95451   -1036.0891    25.557573   -1010.5315 
  950000     641.5673   -1038.3608    25.542157   -1012.8186 
  950200    647.87631   -1037.8117    25.793332   -1012.0184 
  950400    617.84827   -1034.9938    24.597852   -1010.3959 
  950600    616.56843   -1036.4388    24.546899   -1011.8919 
  950800    609.28454   -1037.6615    24.256912   -1013.4046 
  951000    640.61401   -1035.1435    25.504205   -1009.6393 
  951200    631.43336   -1036.5042    25.138704   -1011.3655 
  951400    625.71942   -1036.9122     24.91122   -1012.0009 
  951600    664.63415   -1037.2003    26.460498   -1010.7398 
  951800    595.75187   -1037.5217    23.718148   -1013.8036 
  952000    637.68463   -1037.3064     25.38758   -1011.9188 
  952200    627.74954    -1036.984    24.992043    -1011.992 
  952400    597.11516   -1036.9905    23.772423    -1013.218 
  952600    661.88442   -1036.6422    26.351025   -1010.2912 
  952800    614.19952   -1034.3075    24.452588    -1009.855 
  953000    624.07784   -1038.7239    24.845865   -1013.8781 
  953200    654.90769   -1038.6326    26.073267   -1012.5594 
  953400    700.59486   -1035.9744     27.89217   -1008.0822 
  953600     613.2337   -1037.1659    24.414137   -1012.7517 
  953800     611.3503   -1037.4622    24.339154    -1013.123 
  954000    659.75074   -1034.9433    26.266079   -1008.6772 
  954200     662.4966   -1037.7241    26.375397   -1011.3487 
  954400    610.57872   -1037.4103    24.308436   -1013.1019 
  954600    663.88248   -1036.2629    26.430572   -1009.8323 
  954800    629.61741   -1036.5006    25.066407   -1011.4342 
  955000    624.95937   -1037.6131     24.88096   -1012.7321 
  955200    690.73622   -1036.7975    27.499676   -1009.2978 
  955400    632.69203   -1036.4179    25.188814   -1011.2291 
  955600    578.82153   -1037.3097    23.044115   -1014.2656 
  955800    676.24011   -1035.6156    26.922555   -1008.6931 
  956000    665.31361   -1037.4291    26.487549   -1010.9416 
  956200    589.78573   -1037.8676    23.480623    -1014.387 
  956400     684.5514   -1036.8528    27.253446   -1009.5994 
  956600    610.51578   -1034.2949     24.30593    -1009.989 
  956800    631.69469   -1037.8393    25.149108   -1012.6902 
  957000    621.02664   -1036.2392     24.72439   -1011.5148 
  957200    667.00159   -1034.5602     26.55475   -1008.0055 
  957400    604.88353   -1036.7572    24.081699   -1012.6755 
  957600    615.64774   -1035.9577    24.510244   -1011.4474 
  957800    666.93371   -1033.0248    26.552048   -1006.4727 
  958000    615.10896    -1036.488    24.488795   -1011.9992 
  958200    652.06847   -1037.7223    25.960231   -1011.7621 
  958400    719.29913   -1036.7191    28.636827   -1008.0823 
  958600    609.03145   -1037.1504    24.246836   -1012.9036 
  958800    622.06282   -1037.6028    24.765643   -1012.8372 
  959000    636.07597   -1033.8325    25.323536    -1008.509 
  959200    605.68445   -1036.8243    24.113585   -1012.7107 
  959400    617.91137   -1037.0385    24.600364   -1012.4381 
  959600    676.20712   -1036.0178    26.921242   -1009.0966 
  959800    613.02293   -1036.2075    24.405745   -1011.8017 
  960000    642.17573   -1037.8542     25.56638   -1012.2878 
  960200    651.31978   -1037.0882    25.930424   -1011.1578 
  960400    635.55095   -1036.5395    25.302634   -1011.2369 
  960600    616.29662   -1037.6702    24.536078   -1013.1341 
  960800    627.26946   -1036.6662     24.97293   -1011.6932 
  961000    622.08626   -1035.8017    24.766576   -1011.0351 
  961200    595.81823   -1036.9833     23.72079   -1013.2626 
  961400    665.86215   -1035.8437    26.509387   -1009.3343 
  961600    679.19635   -1037.3258     27.04025   -1010.2855 
  961800    587.83897   -1036.5613    23.403118   -1013.1581 
  962000    684.01014   -1038.0865    27.231897   -1010.8546 
  962200    677.98516   -1036.4211     26.99203    -1009.429 
  962400    620.64472   -1035.5235    24.709185   -1010.8143 
  962600    662.78522   -1037.5595    26.386888   -1011.1726 
  962800    663.25521   -1035.7501    26.405599   -1009.3445 
  963000    647.00989   -1037.3886    25.758838   -1011.6298 
  963200    642.95032   -1037.0769    25.597218   -1011.4797 
  963400    657.04379   -1036.2271    26.158309   -1010.0688 
  963600    591.78635   -1035.4622    23.560272   -1011.9019 
  963800    632.12124   -1035.6675    25.166089   -1010.5014 
  964000    636.27935    -1036.559    25.331633   -1011.2274 
  964200    629.81494   -1034.7873    25.074271    -1009.713 
  964400    629.47932   -1035.1166    25.060909   -1010.0557 
  964600    640.10701   -1037.7561     25.48402   -1012.2721 
  964800    643.95162   -1036.5303    25.637082   -1010.8932 
  965000    662.61672   -1037.3265    26.380179   -1010.9463 
  965200    625.14067   -1035.3713    24.888178   -1010.4831 
  965400    618.48502   -1036.3114    24.623203   -1011.6882 
  965600    656.93305   -1036.9263    26.153901   -1010.7724 
  965800    677.29282   -1037.3351    26.964466   -1010.3706 
  966000    622.45072   -1037.3258    24.781086   -1012.5447 
  966200    660.71054   -1036.1083     26.30429    -1009.804 
  966400    647.92485   -1036.9697    25.795265   -1011.1745 
  966600    632.87386    -1036.656    25.196053   -1011.4599 
  966800    668.18955   -1034.9012    26.602046   -1008.2992 
  967000    656.60772   -1038.1101    26.140948   -1011.9692 
  967200    597.94081   -1036.5397    23.805294   -1012.7344 
  967400    659.43001   -1032.6808     26.25331   -1006.4275 
  967600    619.76994   -1035.7488    24.674358   -1011.0744 
  967800    577.25882   -1036.7623      22.9819   -1013.7804 
  968000     675.9702   -1033.1028     26.91181    -1006.191 
  968200    614.21961   -1033.9417    24.453388   -1009.4883 
  968400    569.38446   -1038.2426    22.668405   -1015.5742 
  968600    680.57792   -1034.3983    27.095253    -1007.303 
  968800    654.44646   -1033.5567    26.054904   -1007.5018 
  969000    551.48059   -1037.5983    21.955614   -1015.6426 
  969200    672.13274    -1035.014    26.759033   -1008.2549 
  969400    673.69333   -1033.1004    26.821163   -1006.2792 
  969600    605.62807   -1038.6786     24.11134   -1014.5673 
  969800     613.4971   -1035.6062    24.424623   -1011.1816 
  970000    632.57653   -1033.8237    25.184216   -1008.6395 
  970200    627.65702   -1037.0355     24.98836   -1012.0471 
  970400    629.03483   -1037.3844    25.043213   -1012.3412 
  970600    641.51328   -1036.6256    25.540007   -1011.0856 
  970800    678.30624   -1037.4434    27.004813   -1010.4386 
  971000    628.54722   -1035.5588      25.0238    -1010.535 
  971200     630.0164   -1037.4836    25.082292   -1012.4013 
  971400    618.44781   -1037.7794    24.621721   -1013.1577 
  971600    651.65519   -1037.0235    25.943778   -1011.0797 
  971800    664.83806    -1037.364    26.468616   -1010.8954 
  972000    613.92281   -1038.3091    24.441571   -1013.8676 
  972200    621.13369   -1037.1846    24.728652   -1012.4559 
  972400    659.56809   -1035.6912    26.258807   -1009.4324 
  972600    659.35353   -1036.2208    26.250265   -1009.9706 
  972800    643.84822   -1037.9284    25.632966   -1012.2955 
  973000    683.03742   -1037.6706    27.193171   -1010.4774 
  973200     637.3787   -1034.9867      25.3754   -1009.6113 
  973400    581.44157   -1035.8094    23.148424    -1012.661 
  973600    634.05529   -1035.4917    25.243088   -1010.2486 
  973800    683.53766   -1037.1496    27.213086   -1009.9365 
  974000    608.56278   -1036.8822    24.228177    -1012.654 
  974200     638.2335   -1036.2434    25.409432   -1010.8339 
  974400    638.29004   -1037.1251    25.411682   -1011.7134 
  974600    614.93284   -1037.2865    24.481783   -1012.8047 
  974800    655.41142   -1035.4309    26.093321   -1009.3375 
  975000    661.59557   -1038.2083    26.339525   -1011.8688 
  975200     611.8436   -1037.7389    24.358794   -1013.3801 
  975400    702.52795   -1036.4658     27.96913   -1008.4967 
  975600    611.82156   -1036.0612    24.357916   -1011.7033 
  975800    595.46934   -1037.3001      23.7069   -1013.5932 
  976000    651.33074   -1035.3212     25.93086   -1009.3904 
  976200    683.30233   -1034.2121    27.203717   -1007.0084 
  976400    575.90241   -1036.0297    22.927898   -1013.1018 
  976600    615.03437   -1038.5284    24.485825   -1014.0426 
  976800    694.54336   -1036.0648    27.651247   -1008.4135 
  977000     633.5904   -1037.5213     25.22458   -1012.2967 
  977200    615.21072   -1038.0267    24.492846   -1013.5339 
  977400    665.93508   -1034.9649    26.512291   -1008.4526 
  977600     627.9749   -1035.1452    25.001015   -1010.1442 
  977800    676.26723   -1036.4496    26.923635    -1009.526 
  978000    658.79873   -1035.6571    26.228177   -1009.4289 
  978200    662.75128   -1036.9782    26.385537   -1010.5926 
  978400    638.97794   -1035.3683    25.439069   -1009.9293 
  978600    677.22979   -1037.2943    26.961957   -1010.3323 
  978800    648.87718   -1037.8061    25.833179   -1011.9729 
  979000    652.64744   -1038.1193    25.983281   -1012.1361 
  979200    697.75235   -1037.7053    27.779004   -1009.9263 
  979400    638.12145   -1038.1346    25.404971   -1012.7297 
  979600    652.69994   -1038.1663    25.985371   -1012.1809 
  979800    665.16403   -1036.3633    26.481593   -1009.8817 
  980000    641.96386   -1037.9153    25.557945   -1012.3573 
  980200    632.36292   -1036.4579    25.175712   -1011.2822 
  980400    679.82886   -1037.3106    27.065431   -1010.2452 
  980600    611.81262   -1035.9096     24.35756    -1011.552 
  980800    680.54516   -1039.0182    27.093949   -1011.9242 
  981000    609.26346   -1035.6037    24.256073   -1011.3476 
  981200    676.20086   -1036.3249    26.920993   -1009.4039 
  981400     639.9927    -1037.754    25.479469   -1012.2746 
  981600     638.7605   -1036.4209    25.430413   -1010.9905 
  981800    672.89424   -1037.8477    26.789349   -1011.0584 
  982000    684.68801   -1038.4909    27.258885    -1011.232 
  982200    629.90791   -1037.3011    25.077972   -1012.2231 
  982400    659.87045   -1037.0541    26.270845   -1010.7833 
  982600    668.08955   -1038.2814    26.598065   -1011.6834 
  982800     640.9198   -1038.3414    25.516379    -1012.825 
  983000    717.04174   -1036.7551    28.546955   -1008.2081 
  983200     574.6949    -1036.158    22.879825   -1013.2781 
  983400    653.19715   -1036.2584    26.005166   -1010.2532 
  983600    692.57022   -1036.8422    27.572692   -1009.2695 
  983800    644.02606   -1039.4544    25.640046   -1013.8143 
  984000    651.31694   -1036.7907    25.930311   -1010.8604 
  984200    654.00988   -1035.5122    26.037523   -1009.4747 
  984400    606.65194   -1036.3081    24.152103    -1012.156 
  984600    703.21638   -1038.9206    27.996538   -1010.9241 
  984800    678.10595   -1038.2594    26.996839   -1011.2626 
  985000    619.78361   -1037.3299    24.674902    -1012.655 
  985200    645.20154   -1037.1333    25.686844   -1011.4464 
  985400    640.24898   -1035.5548    25.489672   -1010.0652 
  985600    614.22365   -1035.9427    24.453548   -1011.4892 
  985800    612.20629   -1035.5797    24.373233   -1011.2065 
  986000    676.67882   -1035.7597    26.940022   -1008.8196 
  986200    633.89314   -1036.7641    25.236633   -1011.5274 
  986400    664.51361   -1037.5104    26.455699   -1011.0547 
  986600    623.53487   -1034.4948    24.824248   -1009.6705 
  986800    632.59696   -1036.2498    25.185029   -1011.0648 
  987000     597.1229   -1037.6499    23.772732   -1013.8772 
  987200    660.19109   -1036.3596     26.28361   -1010.0759 
  987400    659.79529   -1037.0905    26.267852   -1010.8226 
  987600    582.28746   -1035.5564    23.182101   -1012.3743 
  987800    670.11738   -1034.0972    26.678797   -1007.4184 
  988000    636.87986   -1035.8798     25.35554   -1010.5242 
  988200    630.79985   -1037.9673    25.113482   -1012.8538 
  988400    640.26607   -1035.7999    25.490353   -1010.3095 
  988600    675.22532   -1037.4781    26.882155   -1010.5959 
  988800    618.45813   -1036.6269    24.622132   -1012.0048 
  989000    655.57127   -1036.1368    26.099685   -1010.0371 
  989200    667.05589   -1034.4335    26.556912   -1007.8766 
  989400    628.01579    -1038.064    25.002643   -1013.0614 
  989600     638.2603     -1037.52    25.410499   -1012.1095 
  989800    656.04256    -1034.646    26.118448   -1008.5276 
  990000    629.84214   -1036.6141    25.075354   -1011.5387 
  990200    651.44334   -1037.2808    25.935344   -1011.3455 
  990400    625.29939    -1036.007    24.894497   -1011.1125 
  990600    663.22747   -1035.3874    26.404495   -1008.9829 
  990800    575.98837   -1036.0239    22.931321   -1013.0926 
  991000    715.88777    -1037.745    28.501013    -1009.244 
  991200    653.07463   -1035.8453    26.000289    -1009.845 
  991400    636.73877   -1037.8889    25.349923    -1012.539 
  991600     629.5093   -1036.8425    25.062103   -1011.7804 
  991800    624.79492   -1034.5403    24.874413   -1009.6659 
  992000    662.32083   -1036.2684    26.368399      -1009.9 
  992200    629.50071   -1037.6673    25.061761   -1012.6055 
  992400     684.9122   -1037.9524     27.26781   -1010.6846 
  992600    676.68397   -1036.7848    26.940227   -1009.8446 
  992800    665.31236   -1038.1192    26.487499   -1011.6317 
  993000    653.30114   -1037.5554    26.009306   -1011.5461 
  993200    644.50849   -1036.5208    25.659252   -1010.8616 
  993400    603.27682   -1036.1212    24.017732   -1012.1034 
  993600    669.11486   -1036.5449    26.638884    -1009.906 
  993800    629.83008   -1035.6152    25.074874   -1010.5404 
  994000    604.47003   -1036.0762    24.065236    -1012.011 
  994200    667.54414   -1035.3565    26.576351   -1008.7801 
  994400    646.75766   -1033.8968    25.748797    -1008.148 
  994600    625.94946   -1036.9373    24.920378    -1012.017 
  994800    623.95264   -1036.3472     24.84088   -1011.5063 
  995000    693.67853   -1035.0775    27.616816   -1007.4607 
  995200    619.24653   -1036.5579     24.65352   -1011.9044 
  995400     642.9493   -1036.0303    25.597178   -1010.4331 
  995600    720.17818   -1035.9301    28.671824   -1007.2583 
  995800     646.6203   -1037.1035    25.743328   -1011.3602 
  996000    595.84638   -1036.5917     23.72191   -1012.8698 
  996200    690.85961   -1035.8297    27.504589   -1008.3251 
  996400    613.51561     -1034.72     24.42536   -1010.2946 
  996600    656.40211   -1036.4475    26.132763   -1010.3147 
  996800    638.09511   -1035.3092    25.403922   -1009.9053 
  997000    657.08728   -1036.0725    26.160041   -1009.9125 
  997200    654.99209   -1036.1368    26.076627   -1010.0602 
  997400     645.5626   -1035.0274    25.701219   -1009.3262 
  997600    646.43225   -1037.1848    25.735841   -1011.4489 
  997800    647.39749   -1036.8342     25.77427   -1011.0599 
  998000    652.95547   -1035.5009    25.995545   -1009.5054 
  998200    657.81944   -1035.8498    26.189189   -1009.6606 
  998400     658.1513    -1037.181    26.202402   -1010.9786 
  998600    616.02075   -1036.5109    24.525095   -1011.9858 
  998800    671.20517   -1035.7079    26.722104   -1008.9858 
  999000    656.78737   -1035.8354    26.148101   -1009.6873 
  999200    600.26113    -1035.311    23.897671   -1011.4134 
  999400    658.81735   -1035.4283    26.228918   -1009.1993 
  999600    674.94297   -1036.0455    26.870914   -1009.1746 
  999800     611.6456   -1036.1263    24.350911   -1011.7754 
 1000000    630.33669   -1034.3344    25.095043   -1009.2394 
 1000200    680.56193   -1036.1871    27.094616   -1009.0925 
 1000400    668.49358   -1039.0786     26.61415   -1012.4645 
 1000600    674.62311   -1036.4547    26.858179   -1009.5965 
 1000800    671.15195   -1035.6189    26.719985   -1008.8989 
 1001000    638.91663   -1036.0604    25.436628   -1010.6238 
 1001200    653.21101   -1036.1034    26.005718   -1010.0976 
 1001400    661.84557   -1036.6528    26.349478   -1010.3033 
 1001600    663.07199   -1037.3256    26.398305   -1010.9273 
 1001800    618.68043   -1035.1662    24.630983   -1010.5352 
 1002000    686.06172   -1035.5972    27.313575   -1008.2836 
 1002200    620.69856   -1035.9176    24.711328   -1011.2063 
 1002400    678.70965    -1038.869    27.020873   -1011.8481 
 1002600    638.82294   -1036.2439    25.432899    -1010.811 
 1002800    662.23496    -1037.041    26.364981    -1010.676 
 1003000    672.46036   -1038.2785    26.772076   -1011.5065 
 1003200    634.41144   -1037.2774    25.257267   -1012.0202 
 1003400    664.87641   -1034.4577    26.470143   -1007.9876 
 1003600    610.11833   -1035.7023    24.290107   -1011.4122 
 1003800    615.27223   -1036.4665    24.495295   -1011.9712 
 1004000    693.76815   -1037.4951    27.620384   -1009.8748 
 1004200    630.71183   -1036.5584    25.109978   -1011.4484 
 1004400    666.03552   -1037.9378    26.516289   -1011.4215 
 1004600    670.30955   -1037.7624    26.686447    -1011.076 
 1004800    618.26476   -1036.5323    24.614434   -1011.9178 
 1005000    673.37102   -1037.5893    26.808331    -1010.781 
 1005200    663.74837   -1035.9619    26.425233   -1009.5367 
 1005400    644.21884   -1036.7657    25.647721    -1011.118 
 1005600    635.60733   -1037.4438    25.304878   -1012.1389 
 1005800    646.41699   -1035.2227    25.735234   -1009.4875 
 1006000     677.5243   -1035.6876    26.973682   -1008.7139 
 1006200    664.85905    -1038.333    26.469451   -1011.8635 
 1006400    618.66403   -1035.5229     24.63033   -1010.8925 
 1006600    662.77686   -1035.9519    26.386555   -1009.5653 
 1006800    594.55001   -1036.8062    23.670299   -1013.1359 
 1007000    672.76565   -1038.6988     26.78423   -1011.9146 
 1007200    703.49115   -1037.6517    28.007477   -1009.6443 
 1007400    638.81732   -1038.0199    25.432675   -1012.5872 
 1007600    600.94714   -1037.6514    23.924982   -1013.7264 
 1007800    680.77931    -1035.549    27.103271   -1008.4457 
 1008000    631.63112   -1035.8305    25.146577   -1010.6839 
 1008200     615.1042   -1036.8679    24.488605   -1012.3793 
 1008400    657.09957   -1036.2634     26.16053   -1010.1028 
 1008600    618.02691   -1036.2578    24.604965   -1011.6528 
 1008800    675.78372   -1036.3079    26.904386   -1009.4035 
 1009000    583.47263   -1036.5094    23.229285   -1013.2801 
 1009200    692.99425   -1037.4062    27.589573   -1009.8166 
 1009400    687.20033    -1036.062    27.358905   -1008.7031 
 1009600    629.87622   -1038.4634    25.076711   -1013.3867 
 1009800     640.9873   -1037.3566    25.519066   -1011.8375 
 1010000    638.07051   -1034.2828    25.402943   -1008.8798 
 1010200    654.50267   -1035.2265    26.057142   -1009.1694 
 1010400    638.95572   -1039.0194    25.438185   -1013.5812 
 1010600    617.35342   -1036.8163    24.578151   -1012.2381 
 1010800    674.04125   -1035.2575    26.835014   -1008.4225 
 1011000    606.75265   -1037.4764    24.156112   -1013.3203 
 1011200    638.82522   -1038.2259    25.432989   -1012.7929 
 1011400     666.4058   -1034.5858    26.531031   -1008.0548 
 1011600    643.23604    -1036.523    25.608594   -1010.9144 
 1011800    582.12882   -1037.3245    23.175785   -1014.1487 
 1012000     687.6413   -1036.4537    27.376461   -1009.0772 
 1012200    719.57246   -1037.0446    28.647708   -1008.3969 
 1012400     607.7042   -1037.6617    24.193995   -1013.4677 
 1012600    661.85551   -1037.0359    26.349874   -1010.6861 
 1012800    704.93774   -1034.4199    28.065069   -1006.3548 
 1013000    628.51141   -1037.6643    25.022375    -1012.642 
 1013200    641.70805   -1037.6564    25.547761   -1012.1086 
 1013400    652.13039   -1033.2214    25.962697   -1007.2587 
 1013600    659.17073   -1038.4946    26.242987   -1012.2516 
 1013800    619.68375   -1038.6736    24.670927   -1014.0027 
 1014000    692.77676   -1035.9995    27.580915   -1008.4186 
 1014200    678.87473   -1036.4301    27.027446   -1009.4026 
 1014400    610.16942    -1035.786    24.292141   -1011.4939 
 1014600    652.31208   -1035.3318     25.96993   -1009.3619 
 1014800    706.57512   -1037.6493    28.130257   -1009.5191 
 1015000    602.43509   -1036.2046    23.984221   -1012.2204 
 1015200    679.19992   -1036.1492    27.040392   -1009.1088 
 1015400    686.22422   -1037.5379    27.320044   -1010.2179 
 1015600    662.25312   -1038.2242    26.365704   -1011.8585 
 1015800    642.73925    -1035.936    25.588815   -1010.3472 
 1016000    643.95119   -1034.0974    25.637065   -1008.4604 
 1016200    685.56723   -1038.0221    27.293888   -1010.7282 
 1016400    641.10156   -1037.4529    25.523615   -1011.9293 
 1016600    687.00193   -1036.6901    27.351006   -1009.3391 
 1016800    634.39904    -1036.989    25.256774   -1011.7322 
 1017000    621.50605   -1036.4624    24.743476    -1011.719 
 1017200    698.41368   -1037.3293    27.805332    -1009.524 
 1017400    665.10832   -1038.4405    26.479376   -1011.9611 
 1017600    670.66897   -1038.6117    26.700757   -1011.9109 
 1017800    699.20077   -1037.3429    27.836668   -1009.5063 
 1018000     648.9025   -1035.7659    25.834187   -1009.9317 
 1018200    677.15204   -1038.5892    26.958862   -1011.6304 
 1018400    707.36736   -1036.0003    28.161798   -1007.8385 
 1018600    655.46719   -1037.9257    26.095541   -1011.8302 
 1018800    630.96548    -1038.017    25.120076   -1012.8969 
 1019000    720.41991   -1035.0209    28.681447   -1006.3394 
 1019200    628.44664   -1035.5352    25.019796   -1010.5154 
 1019400    607.62034   -1037.1647    24.190657   -1012.9741 
 1019600    693.90441   -1036.7165    27.625809   -1009.0907 
 1019800    691.14221   -1036.8541     27.51584   -1009.3383 
 1020000    638.10962   -1039.5746      25.4045   -1014.1701 
 1020200    672.49281   -1036.6693    26.773368   -1009.8959 
 1020400    667.46677   -1034.8794     26.57327   -1008.3061 
 1020600    611.41281   -1038.4825    24.341643   -1014.1409 
 1020800    688.75271   -1036.7481    27.420709   -1009.3274 
 1021000    685.19658   -1036.4846    27.279132   -1009.2055 
 1021200    590.53493   -1037.9717     23.51045   -1014.4613 
 1021400    665.50145   -1036.8838    26.495027   -1010.3888 
 1021600    649.64635    -1034.771    25.863801   -1008.9072 
 1021800    695.99714   -1038.1769    27.709125   -1010.4678 
 1022000    650.27426   -1038.4787      25.8888   -1012.5899 
 1022200    647.08044   -1035.9484    25.761647   -1010.1868 
 1022400    670.85982    -1035.087    26.708355   -1008.3787 
 1022600    618.46811    -1037.607     24.62253   -1012.9845 
 1022800    631.91824   -1034.8689    25.158008   -1009.7109 
 1023000    716.73592   -1036.8032     28.53478   -1008.2684 
 1023200    654.82073   -1037.6598    26.069805     -1011.59 
 1023400     647.1695   -1038.6533    25.765193   -1012.8881 
 1023600    643.20704   -1033.5882    25.607439   -1007.9807 
 1023800    714.80623   -1037.7095    28.457955   -1009.2515 
 1024000     603.8121   -1037.8297    24.039042   -1013.7906 
 1024200    671.73315   -1035.0513    26.743124   -1008.3082 
 1024400    613.80719   -1034.3656    24.436968   -1009.9286 
 1024600    665.61708   -1037.0111     26.49963   -1010.5114 
 1024800    654.69723   -1036.3134    26.064888   -1010.2486 
 1025000    662.44063   -1035.4728    26.373169   -1009.0996 
 1025200    660.75779    -1035.805    26.306171   -1009.4988 
 1025400    616.90022   -1037.3951    24.560109    -1012.835 
 1025600    685.96974   -1036.8872    27.309913   -1009.5773 
 1025800    672.00093   -1037.2158    26.753785    -1010.462 
 1026000    643.61583   -1037.9341    25.623714   -1012.3104 
 1026200    720.45722   -1036.4251    28.682933   -1007.7422 
 1026400    613.40214   -1035.3477    24.420842   -1010.9268 
 1026600    674.83122   -1037.7767    26.866465   -1010.9103 
 1026800    659.54631   -1036.5265     26.25794   -1010.2685 
 1027000    648.92922   -1035.0728    25.835251   -1009.2375 
 1027200    640.62507   -1035.0081    25.504645   -1009.5035 
 1027400    671.76084   -1036.3111    26.744226   -1009.5669 
 1027600    679.43529   -1036.2968    27.049763    -1009.247 
 1027800    665.83706   -1037.0943    26.508388   -1010.5859 
 1028000    666.53681   -1034.6476    26.536246   -1008.1113 
 1028200    660.66049   -1035.0377    26.302298   -1008.7354 
 1028400    616.80927   -1036.9523    24.556487   -1012.3958 
 1028600    634.44138   -1034.2273    25.258459   -1008.9688 
 1028800    688.32969   -1035.4413    27.403867   -1008.0375 
 1029000    609.47696   -1034.3909    24.264573   -1010.1263 
 1029200    619.96805     -1037.54    24.682245   -1012.8577 
 1029400    691.77661   -1036.3367    27.541097   -1008.7956 
 1029600    667.91461   -1034.4999      26.5911   -1007.9088 
 1029800    618.86972   -1037.1574    24.638518   -1012.5189 
 1030000    681.46078   -1037.7774    27.130401    -1010.647 
 1030200    724.09814   -1036.2754    28.827885   -1007.4475 
 1030400    625.58616   -1035.3256    24.905914   -1010.4197 
 1030600    649.05418   -1037.5196    25.840226   -1011.6794 
 1030800    717.44565    -1037.933    28.563036     -1009.37 
 1031000    626.69343   -1037.3692    24.949997   -1012.4192 
 1031200     682.3512   -1037.8054    27.165851   -1010.6395 
 1031400    697.32452   -1037.8847    27.761971   -1010.1227 
 1031600    637.26352   -1035.6384    25.370815   -1010.2675 
 1031800    702.92112   -1037.4153    27.984783   -1009.4306 
 1032000    698.71397   -1036.8596    27.817288   -1009.0423 
 1032200    706.72512   -1037.7928    28.136229   -1009.6566 
 1032400     624.4184   -1036.7104    24.859423    -1011.851 
 1032600    663.29448   -1037.3822    26.407162    -1010.975 
 1032800    672.51131   -1036.7508    26.774104   -1009.9767 
 1033000    688.41773    -1038.339    27.407373   -1010.9316 
 1033200    630.39891   -1037.3878     25.09752   -1012.2903 
 1033400    679.59197   -1037.4842       27.056   -1010.4282 
 1033600    716.75176   -1038.5819    28.535411   -1010.0465 
 1033800    653.25395   -1037.8786    26.007428   -1011.8711 
 1034000    689.29796   -1037.3094    27.442416   -1009.8669 
 1034200    687.68298    -1036.908    27.378121   -1009.5299 
 1034400    614.31948   -1034.3575    24.457364   -1009.9002 
 1034600    678.53742   -1037.5834    27.014016   -1010.5694 
 1034800    615.97254    -1035.274    24.523176   -1010.7508 
 1035000    658.58806   -1035.7139     26.21979   -1009.4941 
 1035200    674.39382   -1037.4594    26.849051   -1010.6104 
 1035400    648.61941   -1036.7771    25.822917   -1010.9542 
 1035600    697.15688   -1037.0901    27.755297   -1009.3348 
 1035800     687.5595   -1037.7219    27.373205   -1010.3487 
 1036000    668.91226   -1038.1594    26.630818   -1011.5285 
 1036200    656.77611   -1035.4292    26.147653   -1009.2816 
 1036400    672.84172   -1033.8512    26.787258   -1007.0639 
 1036600    618.46425   -1036.2334    24.622376    -1011.611 
 1036800    676.84427   -1037.2514    26.946608   -1010.3048 
 1037000     677.3614   -1036.4653    26.967197   -1009.4981 
 1037200    644.47903   -1037.6588    25.658079   -1012.0007 
 1037400     701.3646   -1037.2062    27.922815   -1009.2833 
 1037600    655.73778   -1035.6701    26.106314   -1009.5638 
 1037800    656.82184   -1035.7102    26.149473   -1009.5607 
 1038000    680.85138    -1035.297     27.10614   -1008.1908 
 1038200    647.87618   -1035.5484    25.793327   -1009.7551 
 1038400    684.52114   -1036.4033    27.252241   -1009.1511 
 1038600    657.46402    -1035.215     26.17504     -1009.04 
 1038800    648.34951   -1035.1586    25.812171   -1009.3464 
 1039000    640.80621   -1036.5492    25.511857   -1011.0373 
 1039200    668.52131   -1034.6096    26.615254   -1007.9943 
 1039400    676.46372   -1036.6008    26.931458   -1009.6694 
 1039600    629.19047   -1036.3627     25.04941   -1011.3133 
 1039800    666.07406   -1035.6325    26.517823   -1009.1147 
 1040000    673.30761   -1036.5572    26.805806   -1009.7514 
 1040200    646.98371   -1034.9393    25.757796   -1009.1815 
 1040400    661.67771   -1034.7742    26.342796   -1008.4314 
 1040600    591.70505   -1034.3405    23.557035   -1010.7835 
 1040800    680.73687   -1034.5738    27.101581   -1007.4723 
 1041000    655.37166   -1036.0335    26.091738   -1009.9418 
 1041200    607.37518   -1036.5692    24.180896   -1012.3883 
 1041400     717.9717   -1035.7509    28.583979   -1007.1669 
 1041600    629.98836   -1035.4034    25.081175   -1010.3222 
 1041800      658.501   -1037.6308    26.216324   -1011.4144 
 1042000    659.83331   -1034.5876    26.269366   -1008.3183 
 1042200    694.71005   -1035.0553    27.657883   -1007.3974 
 1042400    668.61959   -1035.9248    26.619167   -1009.3057 
 1042600    651.43819    -1034.487    25.935139   -1008.5518 
 1042800    682.65166   -1035.4912    27.177813   -1008.3133 
 1043000    677.31658   -1036.9233    26.965412   -1009.9579 
 1043200    672.35194   -1035.5492    26.767759   -1008.7815 
 1043400    695.11509   -1036.5491    27.674009   -1008.8751 
 1043600    652.53351   -1035.8659    25.978746   -1009.8871 
 1043800     617.3765   -1034.1066     24.57907   -1009.5275 
 1044000    684.48687   -1036.2944    27.250877   -1009.0435 
 1044200    677.79404   -1035.6817    26.984421   -1008.6973 
 1044400    616.63273   -1035.8364    24.549459   -1011.2869 
 1044600    674.23077   -1035.0463    26.842559   -1008.2038 
 1044800    673.46355   -1035.7164    26.812015   -1008.9044 
 1045000    654.62891   -1035.6767    26.062168   -1009.6145 
 1045200    705.19052   -1035.3664    28.075133   -1007.2912 
 1045400    648.52656   -1036.8281     25.81922   -1011.0089 
 1045600    660.32854   -1035.6153    26.289082   -1009.3262 
 1045800    635.78195   -1035.1557     25.31183   -1009.8439 
 1046000    639.90969   -1036.9098    25.476164   -1011.4336 
 1046200    669.27151   -1034.3567    26.645121   -1007.7115 
 1046400    640.85856   -1034.1262    25.513941   -1008.6123 
 1046600    619.30306   -1034.8266    24.655771   -1010.1708 
 1046800    663.75041   -1033.8358    26.425314   -1007.4105 
 1047000    698.43648   -1034.9501     27.80624   -1007.1438 
 1047200    638.27984   -1034.4294    25.411276   -1009.0181 
 1047400    629.58069   -1034.9111    25.064945   -1009.8461 
 1047600    671.71183   -1035.4506    26.742275   -1008.7084 
 1047800     656.0243   -1036.5982    26.117721   -1010.4805 
 1048000    690.81602   -1036.0751    27.502853   -1008.5722 
 1048200    634.47721   -1035.3456    25.259886   -1010.0857 
 1048400    666.19042   -1037.5102    26.522456   -1010.9877 
 1048600     732.4777   -1037.5029    29.161494   -1008.3414 
 1048800    619.39858   -1036.6163    24.659573   -1011.9567 
 1049000    662.47629   -1036.5176    26.374589    -1010.143 
 1049200    671.76522   -1035.5076    26.744401   -1008.7632 
 1049400    664.25106     -1037.45    26.445246   -1011.0047 
 1049600    720.64138   -1039.0081    28.690265   -1010.3178 
 1049800    649.82137    -1034.572    25.870769   -1008.7013 
 1050000    718.83296   -1038.2856    28.618267   -1009.6674 
 1050200    581.92442   -1037.4006    23.167648   -1014.2329 
 1050400    684.98087   -1034.6594    27.270544   -1007.3888 
 1050600    630.34952   -1033.9145    25.095554    -1008.819 
 1050800    620.91034   -1038.2926     24.71976   -1013.5728 
 1051000     707.6862   -1037.0823    28.174491   -1008.9078 
 1051200    715.86013   -1035.4209    28.499913    -1006.921 
 1051400    637.02794    -1038.707    25.361436   -1013.3456 
 1051600    626.67278   -1036.1621    24.949175   -1011.2129 
 1051800    729.70267   -1035.4432    29.051013   -1006.3922 
 1052000    614.19305   -1036.3764     24.45233    -1011.924 
 1052200    666.44603   -1037.2262    26.532632   -1010.6936 
 1052400    679.11102   -1035.6914    27.036853   -1008.6546 
 1052600    646.35575   -1036.3661    25.732796   -1010.6333 
 1052800    662.39754   -1036.0013    26.371453   -1009.6298 
 1053000    724.03802   -1037.5922    28.825492   -1008.7667 
 1053200    674.37858   -1036.5236    26.848444   -1009.6751 
 1053400    645.40069   -1036.0408    25.694773    -1010.346 
 1053600    661.87058   -1037.5428    26.350474   -1011.1924 
 1053800    698.28656   -1036.1047    27.800272   -1008.3044 
 1054000    698.85458   -1036.4531    27.822886   -1008.6302 
 1054200    649.49457   -1038.6422    25.857759   -1012.7845 
 1054400    630.24643   -1035.9893     25.09145   -1010.8979 
 1054600    720.34719   -1034.0803    28.678552   -1005.4017 
 1054800    631.72493   -1036.5603    25.150312     -1011.41 
 1055000    685.19703   -1038.3259     27.27915   -1011.0467 
 1055200    686.38017   -1035.3104    27.326253   -1007.9841 
 1055400    664.59376   -1037.0822    26.458889   -1010.6233 
 1055600    604.56557    -1035.873     24.06904   -1011.8039 
 1055800    730.82224   -1034.0498    29.095586   -1004.9542 
 1056000    691.98581   -1035.5637    27.549425   -1008.0142 
 1056200    588.74098    -1037.272    23.439029   -1013.8329 
 1056400    735.33749   -1036.1552    29.275348   -1006.8799 
 1056600    663.74509   -1035.4491    26.425102    -1009.024 
 1056800    600.56537   -1037.7804    23.909783   -1013.8706 
 1057000    700.37491   -1036.2644    27.883413    -1008.381 
 1057200    712.39754   -1037.3778     28.36206   -1009.0158 
 1057400    621.07185   -1037.6138     24.72619   -1012.8876 
 1057600    705.72147   -1034.3371    28.096271   -1006.2409 
 1057800    689.20299   -1033.4901    27.438635   -1006.0515 
 1058000    645.62516   -1039.6114    25.703709   -1013.9077 
 1058200    653.61049   -1036.6745    26.021622   -1010.6529 
 1058400    759.48431    -1034.512    30.236684   -1004.2753 
 1058600    632.97508   -1037.4834    25.200083   -1012.2833 
 1058800     645.8299   -1039.3423     25.71186   -1013.6305 
 1059000    711.17401    -1033.864    28.313348   -1005.5506 
 1059200    669.53157   -1034.8381    26.655474   -1008.1826 
 1059400    605.16421   -1036.9364    24.092873   -1012.8435 
 1059600    665.58226   -1034.0481    26.498244   -1007.5499 
 1059800    713.49616   -1036.5521    28.405798   -1008.1463 
 1060000    613.64821   -1036.5143    24.430639   -1012.0837 
 1060200    707.24594   -1036.2552    28.156964   -1008.0983 
 1060400    702.63413   -1035.0054    27.973358   -1007.0321 
 1060600    640.22496    -1036.479    25.488716   -1010.9903 
 1060800    682.47577   -1035.6052     27.17081   -1008.4344 
 1061000    750.49271    -1034.718    29.878709   -1004.8393 
 1061200    683.48667   -1038.6504    27.211057   -1011.4394 
 1061400    615.84182   -1036.3194    24.517971   -1011.8014 
 1061600     699.5707   -1033.4839    27.851396   -1005.6325 
 1061800    691.85011   -1038.5195    27.544023   -1010.9755 
 1062000    632.34885   -1038.1273    25.175151   -1012.9522 
 1062200    720.54806   -1035.6405    28.686549    -1006.954 
 1062400    676.49068   -1035.2731    26.932531   -1008.3405 
 1062600    658.51362   -1038.2709    26.216826   -1012.0541 
 1062800    664.85241   -1035.8983    26.469187   -1009.4291 
 1063000     731.6837   -1035.7937    29.129883   -1006.6638 
 1063200    658.86646   -1036.4108    26.230874   -1010.1799 
 1063400    675.54335   -1037.3224    26.894816   -1010.4276 
 1063600    673.72822   -1036.0591    26.822552   -1009.2366 
 1063800    660.91296   -1037.5104    26.312349    -1011.198 
 1064000    670.02856   -1036.8817    26.675261   -1010.2064 
 1064200     745.8451   -1037.7222    29.693678   -1008.0286 
 1064400    657.29735   -1037.5907    26.168404   -1011.4223 
 1064600    644.80503   -1036.9784    25.671058   -1011.3074 
 1064800    660.78003   -1035.0121    26.307057    -1008.705 
 1065000    714.96617   -1037.4242    28.464322   -1008.9599 
 1065200    625.09034   -1036.5241    24.886175   -1011.6379 
 1065400    695.30231   -1037.2169    27.681462   -1009.5354 
 1065600    656.13243   -1034.5961    26.122026   -1008.4741 
 1065800    676.22304   -1036.3923    26.921876   -1009.4704 
 1066000    634.22732   -1034.4762    25.249937   -1009.2263 
 1066200    661.82008   -1033.4699    26.348464   -1007.1214 
 1066400    704.84776   -1038.3849    28.061487   -1010.3234 
 1066600    678.15657   -1038.0857    26.998854   -1011.0869 
 1066800    670.44047   -1035.0189     26.69166   -1008.3272 
 1067000    720.96341   -1036.0267    28.703085   -1007.3236 
 1067200     663.7734   -1038.6624    26.426229   -1012.2362 
 1067400    716.54493   -1038.4215    28.527176   -1009.8943 
 1067600    676.46952   -1034.4183    26.931689   -1007.4867 
 1067800    631.31296    -1038.182     25.13391    -1013.048 
 1068000    664.49468   -1036.7866    26.454945   -1010.3317 
 1068200    664.53125   -1034.0293    26.456401   -1007.5729 
 1068400    664.70132   -1037.8721    26.463172   -1011.4089 
 1068600     676.1717   -1037.5366    26.919832   -1010.6168 
 1068800     712.4146   -1034.3315    28.362739   -1005.9688 
 1069000    668.32839   -1038.3063    26.607573   -1011.6987 
 1069200    591.13227   -1038.3665    23.534232   -1014.8323 
 1069400    765.60313   -1035.0219    30.480287   -1004.5416 
 1069600    668.79592    -1036.145    26.626187   -1009.5188 
 1069800    593.66152   -1039.2415    23.634926   -1015.6066 
 1070000    725.50265   -1034.2965    28.883802   -1005.4127 
 1070200    682.59285   -1034.1494    27.175472    -1006.974 
 1070400    595.72349   -1039.6536    23.717018   -1015.9366 
 1070600    725.10837   -1035.9066    28.868105   -1007.0385 
 1070800    690.04608   -1032.1858    27.472201   -1004.7136 
 1071000    623.03522   -1038.2666    24.804356   -1013.4623 
 1071200    667.47116    -1037.033    26.573445   -1010.4595 
 1071400    745.59091   -1033.4726    29.683558   -1003.7891 
 1071600    665.53317   -1038.2778    26.496289   -1011.7815 
 1071800    627.88907   -1037.8706    24.997598    -1012.873 
 1072000    714.01016   -1034.7291    28.426261   -1006.3028 
 1072200    646.74643   -1035.2299     25.74835   -1009.4815 
 1072400     613.9662   -1039.0562    24.443299   -1014.6129 
 1072600    709.04949   -1036.3468    28.228767    -1008.118 
 1072800    735.39399   -1036.3483    29.277597   -1007.0707 
 1073000    675.56528   -1039.7558    26.895689   -1012.8601 
 1073200     666.1652   -1036.5182    26.521452   -1009.9968 
 1073400    731.99695   -1035.8582    29.142354   -1006.7159 
 1073600    621.73381   -1037.8321    24.752544   -1013.0795 
 1073800    671.13365   -1038.4465    26.719257   -1011.7272 
 1074000    666.38681    -1034.067    26.530275   -1007.5367 
 1074200    672.54928   -1036.0731    26.775616   -1009.2975 
 1074400    628.07371   -1038.6916    25.004949   -1013.6866 
 1074600    681.06297   -1035.9051    27.114564   -1008.7905 
 1074800     724.3224   -1035.0479    28.836814    -1006.211 
 1075000    621.86993   -1038.4162    24.757963   -1013.6583 
 1075200    712.51129   -1037.6832    28.366588   -1009.3166 
 1075400    714.09674   -1033.1982    28.429708   -1004.7684 
 1075600    648.73919   -1038.2782    25.827685   -1012.4505 
 1075800    629.30379    -1037.496    25.053921   -1012.4421 
 1076000    748.69738   -1034.1046    29.807234   -1004.2974 
 1076200    706.83416   -1037.9467     28.14057   -1009.8062 
 1076400    623.65919   -1040.1403    24.829197   -1015.3111 
 1076600    757.15403   -1036.5844    30.143911   -1006.4405 
 1076800    710.68248   -1035.8356    28.293779   -1007.5418 
 1077000    653.22704   -1038.5458    26.006357   -1012.5395 
 1077200    642.48168   -1033.8961    25.578561   -1008.3175 
 1077400    701.45677   -1033.6837    27.926484   -1005.7572 
 1077600    645.21603   -1037.2081    25.687421   -1011.5207 
 1077800    669.17086   -1038.3879    26.641114   -1011.7468 
 1078000    676.33118   -1036.1281    26.926181   -1009.2019 
 1078200    688.39701   -1037.3076    27.406548   -1009.9011 
 1078400    692.84053   -1037.9896    27.583454   -1010.4062 
 1078600    695.41403    -1035.754     27.68591   -1008.0681 
 1078800    672.63261   -1035.8304    26.778933   -1009.0514 
 1079000    628.72441   -1036.1438    25.030855   -1011.1129 
 1079200    663.05928   -1035.5804    26.397799   -1009.1826 
 1079400    688.06081   -1035.5561    27.393163   -1008.1629 
 1079600    638.06582   -1036.3653    25.402756   -1010.9625 
 1079800    626.81265   -1034.9893    24.954743   -1010.0345 
 1080000    704.09675   -1035.1905    28.031588   -1007.1589 
 1080200    674.62939   -1036.2851    26.858429   -1009.4266 
 1080400     610.7926   -1036.2042    24.316951   -1011.8872 
 1080600    672.69489   -1034.6629    26.781413   -1007.8815 
 1080800    698.72718   -1035.9622    27.817814   -1008.1444 
 1081000    640.40672   -1037.7821    25.495952   -1012.2861 
 1081200    684.84535   -1033.6983    27.265148   -1006.4331 
 1081400    688.16986   -1034.5427    27.397504   -1007.1452 
 1081600    603.49009   -1037.1671    24.026223   -1013.1409 
 1081800    710.52148   -1035.8407     28.28737   -1007.5533 
 1082000    711.26202   -1035.6624    28.316852   -1007.3456 
 1082200    619.92956   -1035.8783    24.680713   -1011.1976 
 1082400    715.21783   -1037.7481    28.474342   -1009.2738 
 1082600    671.02548   -1035.8108     26.71495   -1009.0958 
 1082800    672.00156   -1036.6901     26.75381   -1009.9363 
 1083000    656.49981   -1036.5772    26.136652   -1010.4405 
 1083200    659.51349   -1036.8859    26.256633   -1010.6293 
 1083400    719.77665   -1037.5224    28.655838   -1008.8665 
 1083600     685.9109    -1037.902     27.30757   -1010.5944 
 1083800    666.84556   -1037.9244    26.548539   -1011.3759 
 1084000    634.38923   -1033.7412    25.256383   -1008.4848 
 1084200    674.80602   -1034.6576    26.865461   -1007.7922 
 1084400    668.86418   -1037.8419    26.628904    -1011.213 
 1084600    665.42981   -1035.7675    26.492174   -1009.2754 
 1084800    669.80808   -1037.2199    26.666483   -1010.5534 
 1085000    711.87667   -1038.1858    28.341323   -1009.8445 
 1085200    683.18197     -1036.22    27.198926    -1009.021 
 1085400    639.80003   -1037.5026    25.471799   -1012.0308 
 1085600    680.02196   -1035.6487    27.073119   -1008.5756 
 1085800    652.08064   -1035.7944    25.960716   -1009.8337 
 1086000    656.04211   -1037.9228     26.11843   -1011.8044 
 1086200    681.60793   -1035.0105     27.13626   -1007.8743 
 1086400    688.33093   -1033.8027    27.403917   -1006.3988 
 1086600    653.50424   -1036.9696    26.017392   -1010.9522 
 1086800    679.66742    -1038.777    27.059004    -1011.718 
 1087000    714.48239   -1035.9744    28.445062   -1007.5293 
 1087200    661.35831   -1036.3533    26.330079   -1010.0233 
 1087400    670.70116   -1037.7014    26.702038   -1010.9993 
 1087600    702.06116    -1037.104    27.950546   -1009.1535 
 1087800    651.51621    -1034.677    25.938245   -1008.7387 
 1088000    727.68822   -1035.5253    28.970814   -1006.5545 
 1088200    698.95105   -1037.2604    27.826726   -1009.4337 
 1088400    681.19879   -1036.1391    27.119971   -1009.0191 
 1088600     661.9536   -1034.5652    26.353779   -1008.2114 
 1088800    678.74945    -1035.423    27.022458   -1008.4006 
 1089000    677.01106   -1037.6985    26.953249   -1010.7453 
 1089200    726.17218   -1036.5425    28.910457    -1007.632 
 1089400    678.75633   -1035.9854    27.022732   -1008.9627 
 1089600    665.04686   -1037.8759    26.476929    -1011.399 
 1089800    711.72541   -1036.3312    28.335301   -1007.9959 
 1090000     688.0512    -1037.804     27.39278   -1010.4112 
 1090200    682.57252   -1038.6556    27.174662    -1011.481 
 1090400    733.94204   -1036.3863    29.219792   -1007.1665 
 1090600    636.51829   -1034.2875    25.341146   -1008.9464 
 1090800    701.63021   -1038.4394    27.933389    -1010.506 
 1091000    660.84379   -1035.6507    26.309595   -1009.3412 
 1091200    718.31759   -1036.3475     28.59775   -1007.7497 
 1091400    664.49089   -1037.5899    26.454794   -1011.1351 
 1091600    637.52324   -1035.8013    25.381155   -1010.4201 
 1091800     703.2202     -1037.28     27.99669   -1009.2833 
 1092000    666.70434    -1036.187    26.542916   -1009.6441 
 1092200    662.00393   -1035.7447    26.355783    -1009.389 
 1092400    685.43397   -1036.5077    27.288583   -1009.2192 
 1092600      673.742   -1036.4688    26.823101   -1009.6457 
 1092800    686.48696   -1037.4282    27.330504   -1010.0977 
 1093000    693.93517   -1036.2932    27.627033   -1008.6661 
 1093200    695.53765   -1036.8454    27.690832   -1009.1546 
 1093400    632.50347   -1036.4542    25.181307   -1011.2729 
 1093600    638.26021   -1035.1151    25.410495   -1009.7046 
 1093800     741.8612   -1037.3208    29.535071   -1007.7858 
 1094000    687.35549   -1039.4714    27.365082   -1012.1063 
 1094200    644.56265   -1036.3431    25.661408   -1010.6816 
 1094400    711.94551     -1034.31    28.344064    -1005.966 
 1094600     663.9056   -1037.6659    26.431492   -1011.2344 
 1094800    627.57647   -1037.8519    24.985153   -1012.8668 
 1095000    721.46264   -1035.5399    28.722961    -1006.817 
 1095200    677.11299   -1037.3874    26.957307   -1010.4301 
 1095400    654.47558   -1037.9419    26.056063   -1011.8858 
 1095600    731.75832   -1035.3065    29.132854   -1006.1736 
 1095800    711.65889   -1038.2621    28.332652   -1009.9294 
 1096000    646.54893   -1038.3503    25.740487   -1012.6098 
 1096200    709.23831   -1035.5525    28.236284   -1007.3163 
 1096400    681.66185   -1034.4101    27.138407   -1007.2717 
 1096600    677.53666   -1038.4961    26.974174   -1011.5219 
 1096800     691.3369   -1039.6153    27.523591   -1012.0917 
 1097000     734.1257   -1036.5731    29.227104   -1007.3459 
 1097200    683.76982    -1035.269    27.222329   -1008.0466 
 1097400    624.39012    -1038.229    24.858297   -1013.3707 
 1097600    694.22746    -1035.768     27.63867   -1008.1294 
 1097800    701.15923   -1035.2584    27.914639   -1007.3438 
 1098000    621.84058   -1035.7987    24.756795   -1011.0419 
 1098200    688.74196   -1036.6151    27.420281   -1009.1948 
 1098400     676.1095   -1034.6668    26.917356   -1007.7494 
 1098600    698.82866   -1037.8358    27.821854   -1010.0139 
 1098800     657.2532   -1036.3105    26.166646   -1010.1438 
 1099000    661.98458   -1035.3161    26.355013   -1008.9611 
 1099200    676.32866    -1034.477    26.926081   -1007.5509 
 1099400    677.67936    -1036.347    26.979855   -1009.3671 
 1099600    647.81327   -1036.6854    25.790823   -1010.8946 
 1099800    726.37779   -1036.5433    28.918643   -1007.6247 
 1100000    687.11324    -1036.687    27.355438   -1009.3316 
 1100200    736.75499   -1037.6845    29.331782   -1008.3528 
 1100400    680.91871   -1035.8086    27.108821   -1008.6998 
 1100600    674.20515   -1037.2785    26.841539    -1010.437 
 1100800    675.89767   -1036.8651    26.908922   -1009.9562 
 1101000    660.09421   -1035.7875    26.279753   -1009.5077 
 1101200    688.26347   -1036.4128    27.401231   -1009.0115 
 1101400    662.90963   -1036.1236    26.391841   -1009.7318 
 1101600    690.19135   -1035.6075    27.477984   -1008.1295 
 1101800    649.34094   -1034.5211    25.851642   -1008.6694 
 1102000    670.46467    -1036.115    26.692623   -1009.4223 
 1102200    698.55356   -1036.2644    27.810901   -1008.4535 
 1102400     723.8642   -1036.3828    28.818572   -1007.5643 
 1102600    691.85082   -1037.1627    27.544051   -1009.6186 
 1102800    677.05416    -1037.904    26.954965    -1010.949 
 1103000    715.44694   -1036.1492    28.483463   -1007.6657 
 1103200    697.80388   -1037.3964    27.781055   -1009.6153 
 1103400    722.76423   -1039.8514    28.774779   -1011.0767 
 1103600    673.98749   -1036.0184    26.832874   -1009.1856 
 1103800    652.85073   -1034.9066    25.991375   -1008.9152 
 1104000    698.95848   -1038.2229    27.827022   -1010.3958 
 1104200    626.83171   -1035.7898    24.955502   -1010.8343 
 1104400    713.17652   -1034.5633    28.393073   -1006.1702 
 1104600    701.10764   -1036.5831    27.912585   -1008.6705 
 1104800    661.73572   -1035.5758    26.345105   -1009.2307 
 1105000    676.16602   -1035.4172    26.919606   -1008.4976 
 1105200    708.71078   -1035.3256    28.215282   -1007.1103 
 1105400    668.26241    -1035.408    26.604946   -1008.8031 
 1105600    678.78759   -1036.4921    27.023976   -1009.4681 
 1105800    718.76203   -1035.4443    28.615444   -1006.8288 
 1106000      684.949   -1036.1322    27.269275   -1008.8629 
 1106200    660.62078   -1036.0162    26.300717   -1009.7154 
 1106400    712.86051   -1034.0823    28.380492   -1005.7019 
 1106600    688.33196   -1036.4888    27.403958   -1009.0849 
 1106800    669.54031   -1038.1442    26.655822   -1011.4884 
 1107000    684.74076   -1033.2805    27.260985   -1006.0196 
 1107200    688.15511    -1034.387    27.396917   -1006.9901 
 1107400    659.67323   -1038.3872    26.262993   -1012.1242 
 1107600    683.75997    -1035.576    27.221937   -1008.3541 
 1107800    751.88077   -1033.8366    29.933971   -1003.9026 
 1108000    637.62766   -1036.9195    25.385312   -1011.5342 
 1108200    680.65766   -1036.5397    27.098427   -1009.4413 
 1108400    707.20339   -1033.7289    28.155269   -1005.5736 
 1108600    680.79159   -1037.1436     27.10376   -1010.0398 
 1108800    689.35568   -1036.4858    27.444714   -1009.0411 
 1109000    706.02362   -1035.7386      28.1083   -1007.6303 
 1109200    657.27775   -1034.7279    26.167624   -1008.5603 
 1109400    674.56977   -1035.4231    26.856056    -1008.567 
 1109600    673.22043   -1036.9327    26.802336   -1010.1304 
 1109800    722.16564   -1035.2047    28.750949   -1006.4537 
 1110000    679.58428   -1037.0084    27.055694   -1009.9527 
 1110200    657.61764   -1036.9325    26.181155   -1010.7513 
 1110400    766.56503   -1038.3336    30.518582   -1007.8151 
 1110600     646.5523    -1036.104    25.740621   -1010.3634 
 1110800    655.23523   -1033.4563    26.086307     -1007.37 
 1111000    656.88927   -1032.5284    26.152158   -1006.3762 
 1111200    685.11852   -1037.1015    27.276024   -1009.8255 
 1111400    655.55978   -1035.2534    26.099228   -1009.1542 
 1111600    722.87246   -1035.7463    28.779088   -1006.9672 
 1111800    702.13731   -1036.2148    27.953578   -1008.2612 
 1112000    672.67276   -1036.6155    26.780532    -1009.835 
 1112200    744.17934   -1033.8623    29.627361   -1004.2349 
 1112400     658.7854   -1036.1219    26.227647   -1009.8943 
 1112600    698.69581    -1036.103    27.816564   -1008.2864 
 1112800    672.96511   -1033.3245    26.792171   -1006.5323 
 1113000    690.71343   -1035.6848    27.498769    -1008.186 
 1113200    696.62089   -1036.3897    27.733958   -1008.6557 
 1113400     630.9117   -1034.2701    25.117935   -1009.1522 
 1113600     688.9121   -1034.4681    27.427054    -1007.041 
 1113800    689.77523   -1036.9786    27.461418   -1009.5172 
 1114000    670.47395    -1034.503    26.692992     -1007.81 
 1114200    748.38902   -1036.8729    29.794957   -1007.0779 
 1114400    686.28572   -1037.2076    27.322493   -1009.8851 
 1114600    694.43993   -1034.8165    27.647129   -1007.1694 
 1114800    693.64765   -1035.2751    27.615587   -1007.6595 
 1115000     701.8215   -1036.4741    27.941005    -1008.533 
 1115200    689.16642   -1036.3109     27.43718   -1008.8737 
 1115400    694.57002   -1036.1482    27.652308   -1008.4959 
 1115600    713.08863   -1034.5771    28.389574   -1006.1876 
 1115800    678.62466   -1034.5636    27.017489   -1007.5461 
 1116000    663.70303   -1033.4198    26.423428   -1006.9963 
 1116200    741.09756   -1033.6265    29.504669   -1004.1218 
 1116400    666.46165   -1035.5991    26.533254   -1009.0659 
 1116600    682.52106   -1037.4323    27.172613   -1010.2596 
 1116800    717.93767   -1034.6171    28.582624   -1006.0344 
 1117000    705.34681   -1031.9879    28.081355   -1003.9066 
 1117200    694.14557   -1038.2492     27.63541   -1010.6138 
 1117400     658.5032   -1037.2111    26.216411   -1010.9947 
 1117600    768.27242   -1032.4605    30.586557    -1001.874 
 1117800    676.57305   -1035.5601    26.935811   -1008.6243 
 1118000    633.75335   -1036.0694    25.231068   -1010.8383 
 1118200     720.5486   -1032.8969    28.686571   -1004.2103 
 1118400    708.06734   -1035.5112    28.189665   -1007.3216 
 1118600    651.71404    -1036.653    25.946121   -1010.7069 
 1118800    712.22012   -1033.8314    28.354996   -1005.4764 
 1119000    745.83967   -1035.8718    29.693462   -1006.1783 
 1119200    630.11714   -1036.6865    25.086302   -1011.6002 
 1119400    754.40148   -1037.8446    30.034326   -1007.8103 
 1119600    720.26878   -1033.6756    28.675431   -1005.0002 
 1119800    677.69887   -1035.4532    26.980632   -1008.4726 
 1120000     650.0682   -1036.0402    25.880596   -1010.1596 
 1120200     701.8785   -1034.6565    27.943274   -1006.7132 
 1120400    727.54598   -1035.3573    28.965151   -1006.3921 
 1120600    692.02394   -1037.0404    27.550944   -1009.4895 
 1120800    696.94465   -1036.3367    27.746847   -1008.5899 
 1121000    706.15017   -1036.0315    28.113339   -1007.9182 
 1121200    718.90483   -1036.9076    28.621129   -1008.2865 
 1121400    689.62027   -1036.0612    27.455248   -1008.6059 
 1121600    704.77853   -1034.8938    28.058731   -1006.8351 
 1121800    676.36217   -1036.5118    26.927415   -1009.5844 
 1122000    659.37322   -1036.0536    26.251049   -1009.8025 
 1122200    740.47773   -1036.5616    29.479992   -1007.0816 
 1122400    675.45406   -1035.9736    26.891261   -1009.0823 
 1122600    721.70538   -1039.0231    28.732624   -1010.2905 
 1122800    671.28272   -1034.5726    26.725191   -1007.8474 
 1123000    705.27332   -1035.5681    28.078429   -1007.4897 
 1123200    628.40299    -1036.012    25.018058   -1010.9939 
 1123400    698.69206   -1034.7552    27.816415   -1006.9388 
 1123600    765.83155   -1037.1046    30.489381   -1006.6152 
 1123800    691.35624    -1039.254    27.524361   -1011.7296 
 1124000    675.08641   -1035.3129    26.876624   -1008.4363 
 1124200    662.73696   -1033.0808    26.384966   -1006.6958 
 1124400     659.1889   -1035.5929    26.243711   -1009.3492 
 1124600    696.63499   -1035.8032    27.734519   -1008.0687 
 1124800      708.685   -1034.0437    28.214256   -1005.8295 
 1125000    700.40165   -1036.8282    27.884478   -1008.9437 
 1125200    643.82964    -1036.398    25.632226   -1010.7657 
 1125400     752.8927   -1034.6803    29.974258    -1004.706 
 1125600    722.53491   -1035.7049     28.76565   -1006.9392 
 1125800    654.44827   -1036.1497    26.054976   -1010.0947 
 1126000    781.76952   -1035.7771    31.123906   -1004.6532 
 1126200    694.21162   -1034.5626     27.63804   -1006.9246 
 1126400    649.92073   -1036.9333    25.874725   -1011.0586 
 1126600    800.68134    -1036.472    31.876825   -1004.5951 
 1126800     718.4824   -1033.7897    28.604311   -1005.1853 
 1127000    674.13282    -1038.604     26.83866   -1011.7654 
 1127200    682.26983   -1035.9262    27.162612   -1008.7636 
 1127400    720.49461   -1035.2698    28.684421   -1006.5853 
 1127600    765.08422   -1037.8183    30.459628   -1007.3587 
 1127800    653.83379   -1035.8932    26.030513   -1009.8627 
 1128000    710.97335   -1035.9504     28.30536   -1007.6451 
 1128200    684.47231   -1034.7303    27.250297     -1007.48 
 1128400    679.75824   -1035.9972     27.06262   -1008.9346 
 1128600    677.49814   -1033.6636     26.97264   -1006.6909 
 1128800    707.71351   -1035.0014    28.175579   -1006.8258 
 1129000    647.10244   -1034.8294    25.762523   -1009.0669 
 1129200    720.91665   -1036.8619    28.701223   -1008.1607 
 1129400    712.92065    -1034.151    28.382886   -1005.7681 
 1129600    699.16764   -1036.1097    27.835349   -1008.2743 
 1129800    670.99947   -1036.5142    26.713915   -1009.8003 
 1130000    724.97879   -1033.8573    28.862946   -1004.9943 
 1130200    698.09786    -1033.598    27.792759   -1005.8053 
 1130400    694.13948   -1035.9112    27.635168    -1008.276 
 1130600    697.43781   -1038.3584    27.766481    -1010.592 
 1130800    723.69826   -1036.6289    28.811965   -1007.8169 
 1131000    706.99616   -1034.2999    28.147019   -1006.1528 
 1131200    630.78011   -1036.4701    25.112696   -1011.3574 
 1131400    707.30833   -1036.7985    28.159447   -1008.6391 
 1131600    675.01485   -1035.2652    26.873775   -1008.3914 
 1131800    682.27995   -1036.2262    27.163014   -1009.0632 
 1132000    656.46281   -1035.6571    26.135179   -1009.5219 
 1132200      754.652    -1035.789    30.044299   -1005.7447 
 1132400     654.7831   -1035.1113    26.068306    -1009.043 
 1132600    680.10276   -1034.5029    27.076336   -1007.4266 
 1132800    711.65023   -1034.6118    28.332308   -1006.2795 
 1133000    674.25674   -1037.8319    26.843594   -1010.9883 
 1133200     704.7068   -1037.2742    28.055875   -1009.2183 
 1133400    751.99329   -1036.8124     29.93845   -1006.8739 
 1133600    668.61232   -1036.6162    26.618877   -1009.9973 
 1133800    667.23974   -1037.0683    26.564232    -1010.504 
 1134000    711.35068   -1034.6625    28.320382   -1006.3422 
 1134200    653.86369   -1034.7502    26.031703   -1008.7185 
 1134400    665.28444   -1037.5126    26.486387   -1011.0262 
 1134600    683.90327   -1034.7288    27.227642   -1007.5011 
 1134800     719.9487   -1035.9585    28.662687   -1007.2958 
 1135000    711.14946   -1037.8614    28.312371    -1009.549 
 1135200     657.4828    -1035.515    26.175787   -1009.3392 
 1135400    700.70364   -1034.8128    27.896501   -1006.9163 
 1135600    662.48038   -1035.8538    26.374751   -1009.4791 
 1135800    708.08666     -1036.73    28.190434   -1008.5396 
 1136000    718.82763   -1035.6146    28.618055   -1006.9965 
 1136200    718.40737   -1034.8621    28.601324   -1006.2607 
 1136400    657.12471   -1034.4462    26.161531   -1008.2847 
 1136600    675.76219   -1037.9667    26.903529   -1011.0632 
 1136800    740.88849   -1038.6356    29.496345   -1009.1393 
 1137000    698.04388   -1035.1092     27.79061   -1007.3186 
 1137200    685.32865   -1035.9812     27.28439   -1008.6969 
 1137400    696.12536   -1037.2119     27.71423   -1009.4977 
 1137600    707.48612   -1034.1417    28.166526   -1005.9752 
 1137800      649.665   -1035.3399    25.864544   -1009.4753 
 1138000    680.76062   -1035.4262    27.102527   -1008.3237 
 1138200    739.31868   -1034.8402    29.433848   -1005.4063 
 1138400    651.22295    -1034.728    25.926569   -1008.8015 
 1138600    702.39907   -1037.4798    27.963999   -1009.5158 
 1138800    741.68568   -1036.0418    29.528083   -1006.5138 
 1139000      663.759   -1036.7211    26.425656   -1010.2954 
 1139200    652.54351   -1035.7724    25.979144   -1009.7933 
 1139400    757.09008   -1034.9177    30.141365   -1004.7764 
 1139600     658.4738   -1035.2024    26.215241   -1008.9872 
 1139800    650.97825    -1037.111    25.916827   -1011.1941 
 1140000    726.75285    -1036.042    28.933575   -1007.1084 
 1140200     712.3265   -1034.7559    28.359232   -1006.3967 
 1140400    693.16657   -1037.9698    27.596434   -1010.3733 
 1140600    722.94171   -1037.3171    28.781846   -1008.5352 
 1140800     681.2952   -1034.5086    27.123809   -1007.3847 
 1141000    715.94314   -1035.4142    28.503218    -1006.911 
 1141200    739.70547   -1038.8858    29.449247   -1009.4365 
 1141400    681.25072   -1036.3328    27.122039   -1009.2108 
 1141600    738.49658   -1034.0673    29.401118   -1004.6662 
 1141800    718.49907   -1035.8393    28.604975   -1007.2344 
 1142000    634.73674   -1035.6605    25.270218   -1010.3903 
 1142200    693.64166   -1036.1035    27.615348   -1008.4882 
 1142400     674.9655   -1033.1779    26.871811   -1006.3061 
 1142600    704.25881   -1035.8422     28.03804   -1007.8042 
 1142800    735.46027   -1037.4426    29.280236   -1008.1624 
 1143000    696.45569   -1035.9563    27.727381   -1008.2289 
 1143200     718.2878    -1035.629    28.596563   -1007.0325 
 1143400    699.56871   -1034.9351    27.851317   -1007.0838 
 1143600    645.46226   -1032.6891    25.697224   -1006.9918 
 1143800    688.09625   -1033.0171    27.394574   -1005.6226 
 1144000    669.14053   -1033.6292    26.639906   -1006.9892 
 1144200    677.17724   -1036.6073    26.959865   -1009.6475 
 1144400    744.59763   -1037.5315    29.644014   -1007.8875 
 1144600    696.30879   -1035.6664    27.721532   -1007.9449 
 1144800    731.97587   -1033.5474    29.141515   -1004.4059 
 1145000    681.05196    -1034.112    27.114126   -1006.9979 
 1145200    648.84885   -1037.0222    25.832051   -1011.1902 
 1145400    699.74198    -1032.146    27.858215   -1004.2878 
 1145600    770.08406   -1035.6768    30.658683   -1005.0181 
 1145800    670.77025   -1037.9074    26.704789   -1011.2027 
 1146000    670.05362   -1035.4639    26.676258   -1008.7876 
 1146200    731.64696     -1033.32     29.12842   -1004.1916 
 1146400    679.02913   -1035.5701    27.033592   -1008.5365 
 1146600    651.31953   -1036.0666    25.930414   -1010.1362 
 1146800    783.72041   -1034.8586    31.201575    -1003.657 
 1147000     656.6105   -1036.6466    26.141059   -1010.5056 
 1147200    732.02857   -1037.6551    29.143613   -1008.5115 
 1147400    712.21175    -1034.874    28.354663   -1006.5194 
 1147600    659.78117   -1034.9399     26.26729   -1008.6726 
 1147800    737.28284   -1038.6249    29.352796   -1009.2721 
 1148000    725.40998   -1036.4379    28.880113   -1007.5578 
 1148200    800.90714   -1035.9857    31.885815   -1004.0999 
 1148400    654.89826   -1036.8298    26.072891   -1010.7569 
 1148600    724.02905    -1038.229    28.825135   -1009.4039 
 1148800    751.03767   -1035.1833    29.900405   -1005.2829 
 1149000    695.37972   -1037.5012    27.684544   -1009.8167 
 1149200    654.00872   -1036.3339    26.037477   -1010.2965 
 1149400    664.20723   -1032.9953    26.443501   -1006.5518 
 1149600    753.36214   -1035.6216    29.992948   -1005.6287 
 1149800    707.47228   -1035.9148    28.165975   -1007.7488 
 1150000    639.53924   -1036.0769    25.461416   -1010.6155 
 1150200    667.26535   -1034.5905    26.565251   -1008.0252 
 1150400    713.17876    -1035.089    28.393162   -1006.6959 
 1150600    685.86426   -1036.7574    27.305713   -1009.4517 
 1150800    740.91729   -1037.6066    29.497492   -1008.1091 
 1151000    663.12445   -1034.9954    26.400393    -1008.595 
 1151200    692.10683   -1035.1455    27.554244   -1007.5912 
 1151400    704.89019   -1037.7383    28.063176   -1009.6751 
 1151600    732.17503   -1036.9585    29.149443    -1007.809 
 1151800    727.00431   -1034.3959    28.943586   -1005.4523 
 1152000    656.76496   -1034.2018    26.147209   -1008.0546 
 1152200    731.43192   -1036.1212    29.119859   -1007.0014 
 1152400    723.14563   -1036.6059    28.789964    -1007.816 
 1152600     681.7951   -1034.4246    27.143711   -1007.2808 
 1152800    725.36732   -1036.2779    28.878414   -1007.3995 
 1153000    725.51335   -1037.7015    28.884228   -1008.8173 
 1153200    677.09866   -1035.2575    26.956736   -1008.3007 
 1153400    684.13706   -1031.4192     27.23695   -1004.1822 
 1153600    724.90189   -1033.8403    28.859885   -1004.9805 
 1153800    611.14481   -1034.2388    24.330973   -1009.9078 
 1154000    704.94475   -1034.8503    28.065348    -1006.785 
 1154200    742.98713   -1036.0267    29.579896   -1006.4468 
 1154400    709.77241    -1037.502    28.257548   -1009.2444 
 1154600    655.95819   -1032.6743    26.115089   -1006.5592 
 1154800     751.1601   -1034.9326     29.90528   -1005.0273 
 1155000    665.89153   -1034.5159    26.510557   -1008.0054 
 1155200    701.10522   -1034.7327    27.912488   -1006.8203 
 1155400    719.81808   -1036.5292    28.657487   -1007.8717 
 1155600    704.65714   -1036.2632    28.053898   -1008.2093 
 1155800    708.28274   -1035.1676    28.198241   -1006.9694 
 1156000    649.80445    -1033.714    25.870096   -1007.8439 
 1156200    748.90299   -1036.4502    29.815419   -1006.6348 
 1156400    725.45362   -1037.1107     28.88185   -1008.2289 
 1156600    696.36018   -1035.0189    27.723578   -1007.2953 
 1156800    749.34845    -1034.572    29.833154   -1004.7388 
 1157000    689.37897   -1036.1024    27.445642   -1008.6568 
 1157200     679.7796    -1035.856     27.06347   -1008.7925 
 1157400    714.03468   -1036.4565    28.427238   -1008.0293 
 1157600    719.21339   -1033.4305    28.633413    -1004.797 
 1157800    721.79105   -1035.2012    28.736035   -1006.4652 
 1158000    720.96935   -1037.8723    28.703322    -1009.169 
 1158200    723.75497   -1034.9057    28.814223   -1006.0915 
 1158400    738.86236   -1035.5635     29.41568   -1006.1478 
 1158600    688.41062   -1034.4027    27.407089   -1006.9956 
 1158800    646.26019   -1036.2131    25.728991   -1010.4841 
 1159000    701.92541   -1032.3704    27.945142   -1004.4252 
 1159200    719.20325   -1035.0576    28.633009   -1006.4246 
 1159400    643.26971   -1036.6583    25.609934   -1011.0484 
 1159600    693.36881   -1034.7221    27.604485   -1007.1177 
 1159800     734.7791   -1035.2359    29.253117   -1005.9827 
 1160000    703.25222    -1038.123    27.997965    -1010.125 
 1160200    729.54239   -1038.9748    29.044633   -1009.9302 
 1160400    707.56142   -1034.0589    28.169523   -1005.8894 
 1160600    686.28461   -1034.1775    27.322448   -1006.8551 
 1160800    668.66266   -1037.2732    26.620881   -1010.6523 
 1161000    747.76101   -1035.6397    29.769954   -1005.8698 
 1161200     750.6204   -1035.7892    29.883793   -1005.9054 
 1161400    685.95108   -1038.1576     27.30917   -1010.8484 
 1161600    715.31436    -1036.231    28.478184   -1007.7529 
 1161800     762.4303   -1034.1758     30.35397   -1003.8218 
 1162000     684.4143   -1037.8435    27.247987   -1010.5955 
 1162200    681.28597    -1038.528    27.123442   -1011.4046 
 1162400    789.99598   -1032.2392    31.451418   -1000.7878 
 1162600    693.69585   -1035.3057    27.617506   -1007.6882 
 1162800      679.862   -1037.4146    27.066751   -1010.3478 
 1163000    765.71045    -1034.267     30.48456   -1003.7824 
 1163200    702.23159   -1033.8813    27.957331   -1005.9239 
 1163400    674.31276   -1036.8382    26.845824   -1009.9924 
 1163600    704.67012   -1035.4217    28.054415   -1007.3673 
 1163800    791.17075     -1034.41    31.498189   -1002.9118 
 1164000    660.12581   -1035.6506    26.281011   -1009.3696 
 1164200    631.32783   -1036.3881    25.134502   -1011.2536 
 1164400    769.73939   -1033.0818     30.64496   -1002.4368 
 1164600    671.69205   -1034.7993    26.741488   -1008.0578 
 1164800    704.52515   -1039.3723    28.048643   -1011.3236 
 1165000    719.48062   -1035.4169    28.644052   -1006.7728 
 1165200    722.07073   -1033.4602     28.74717    -1004.713 
 1165400    725.70871   -1037.8049    28.892006   -1008.9129 
 1165600     650.4262   -1036.1491    25.894849   -1010.2542 
 1165800    726.73846   -1034.2175    28.933002   -1005.2845 
 1166000    691.72462   -1035.5153    27.539027   -1007.9762 
 1166200    739.12852    -1036.771    29.426277   -1007.3447 
 1166400    707.01091   -1033.6056    28.147606    -1005.458 
 1166600     670.3405   -1035.7013    26.687679   -1009.0136 
 1166800    716.05682   -1036.3526    28.507743   -1007.8449 
 1167000    662.78147   -1032.4182    26.386739   -1006.0315 
 1167200    690.41399   -1034.5829    27.486848   -1007.0961 
 1167400    692.23413   -1037.0367    27.559311   -1009.4774 
 1167600    692.12911   -1034.0137     27.55513   -1006.4585 
 1167800    764.29097   -1033.4815    30.428047   -1003.0534 
 1168000    694.01454   -1036.7001    27.630193   -1009.0699 
 1168200    739.59116   -1036.5413    29.444695   -1007.0966 
 1168400    728.10155   -1033.8649     28.98727   -1004.8777 
 1168600    723.75167   -1035.3124    28.814092   -1006.4983 
 1168800    681.99313   -1033.7986    27.151596    -1006.647 
 1169000    708.24268   -1035.6819    28.196646   -1007.4853 
 1169200    740.17645   -1037.0802    29.467997   -1007.6122 
 1169400    727.97369   -1037.2534    28.982179   -1008.2713 
 1169600      760.613    -1035.301     30.28162   -1005.0194 
 1169800    700.13825   -1033.9102    27.873991   -1006.0362 
 1170000    693.26752   -1035.0985    27.600453   -1007.4981 
 1170200    752.06425   -1034.5225    29.941276   -1004.5813 
 1170400    709.52159   -1035.6556    28.247562    -1007.408 
 1170600    697.60964   -1035.9623    27.773322    -1008.189 
 1170800    753.82919   -1035.3555    30.011542    -1005.344 
 1171000    675.00144   -1032.3485    26.873241   -1005.4753 
 1171200    680.43273   -1034.2369    27.089473   -1007.1474 
 1171400    696.96553   -1034.2012    27.747679   -1006.4535 
 1171600    732.58859    -1035.324    29.165908   -1006.1581 
 1171800    719.61848   -1037.4122    28.649541   -1008.7627 
 1172000    710.93311   -1035.5337    28.303758   -1007.2299 
 1172200    737.76168   -1035.2177     29.37186   -1005.8458 
 1172400    725.46602   -1036.2017    28.882344   -1007.3194 
 1172600    698.13607   -1035.3779     27.79428   -1007.5836 
 1172800    730.52293   -1034.6897     29.08367    -1005.606 
 1173000    704.80702   -1035.3932    28.059865   -1007.3333 
 1173200    737.37187   -1039.1343    29.356341   -1009.7779 
 1173400    762.09698   -1037.7734      30.3407   -1007.4327 
 1173600    712.16276   -1033.3868    28.352712   -1005.0341 
 1173800    717.61401   -1036.6886    28.569738   -1008.1188 
 1174000    729.73217   -1037.8447    29.052188   -1008.7925 
 1174200    730.82916   -1034.4602    29.095862   -1005.3643 
 1174400    766.62998   -1037.7838    30.521168   -1007.2626 
 1174600    670.79757   -1035.7629    26.705877    -1009.057 
 1174800    717.65456   -1034.9274    28.571353    -1006.356 
 1175000    746.30067   -1036.0345    29.711815   -1006.3227 
 1175200    702.17533   -1036.3234    27.955092   -1008.3683 
 1175400    721.95354   -1036.4668    28.742504   -1007.7243 
 1175600    733.45242    -1036.809    29.200299   -1007.6087 
 1175800    693.24482   -1037.2159    27.599549   -1009.6164 
 1176000    742.03041   -1035.7546    29.541807   -1006.2128 
 1176200    692.89231   -1035.0046    27.585515   -1007.4191 
 1176400    679.43309    -1036.275    27.049675   -1009.2253 
 1176600    739.06796   -1036.5134    29.423866   -1007.0895 
 1176800    699.52006    -1034.484     27.84938   -1006.6346 
 1177000    748.87319   -1036.9123    29.814233   -1007.0981 
 1177200     690.7875   -1037.4498    27.501718   -1009.9481 
 1177400    765.23316   -1036.5024    30.465558   -1006.0368 
 1177600    743.03248   -1034.1435    29.581702   -1004.5618 
 1177800    734.25511   -1038.9024    29.232256   -1009.6702 
 1178000    759.81941   -1037.1184    30.250025   -1006.8684 
 1178200    748.97532   -1034.7942    29.818299   -1004.9759 
 1178400    714.66918    -1037.113    28.452498   -1008.6605 
 1178600    707.85213   -1034.0497    28.181097   -1005.8686 
 1178800    724.57525   -1032.4429     28.84688    -1003.596 
 1179000    674.05496   -1036.4988     26.83556   -1009.6633 
 1179200    710.76071   -1036.0902    28.296894   -1007.7933 
 1179400    716.33881     -1034.05     28.51897    -1005.531 
 1179600    676.83081   -1036.7362    26.946073   -1009.7901 
 1179800     703.0133   -1035.6407    27.988453   -1007.6522 
 1180000     704.8473   -1034.2331    28.061468   -1006.1716 
 1180200    701.14381   -1036.7255    27.914025   -1008.8114 
 1180400    713.57332   -1034.3012     28.40887   -1005.8923 
 1180600    763.76692   -1035.9736    30.407184   -1005.5664 
 1180800    703.23888   -1037.8514    27.997434    -1009.854 
 1181000    699.01905   -1034.9433    27.829434   -1007.1138 
 1181200     759.4447   -1035.1437    30.235107   -1004.9086 
 1181400    708.66395   -1035.9272    28.213417   -1007.7138 
 1181600    713.29185   -1035.8952    28.397664   -1007.4975 
 1181800    791.03594   -1036.7749    31.492821   -1005.2821 
 1182000      681.644   -1035.0347    27.137696    -1007.897 
 1182200    679.13096   -1034.5255    27.037647   -1007.4879 
 1182400    758.57957   -1033.1916    30.200664    -1002.991 
 1182600    724.14495   -1035.4291    28.829749   -1006.5993 
 1182800    663.27525   -1033.3867    26.406397   -1006.9803 
 1183000    711.37065   -1031.8208    28.321177   -1003.4996 
 1183200    702.08386   -1034.2216     27.95145   -1006.2702 
 1183400    684.03018   -1034.7712    27.232695   -1007.5385 
 1183600    713.77113   -1034.7767    28.416745     -1006.36 
 1183800    734.70465   -1035.2076    29.250153   -1005.9575 
 1184000    694.40661    -1033.719    27.645802   -1006.0732 
 1184200    720.43555   -1034.0861     28.68207    -1005.404 
 1184400    729.62506   -1035.3071    29.047924   -1006.2592 
 1184600    670.72164   -1033.5625    26.702854   -1006.8596 
 1184800    722.63351   -1032.8528    28.769576   -1004.0832 
 1185000    662.18913   -1032.8823    26.363156   -1006.5191 
 1185200    722.23326   -1033.5801    28.753641   -1004.8265 
 1185400    704.76394   -1032.7176     28.05815   -1004.6595 
 1185600    640.21908   -1034.9842    25.488482   -1009.4957 
 1185800    754.16139     -1035.12    30.024767   -1005.0953 
 1186000    693.99042   -1032.5727    27.629233   -1004.9435 
 1186200    685.22316   -1034.3795     27.28019   -1007.0993 
 1186400    748.61994   -1036.3212     29.80415   -1006.5171 
 1186600    738.82974   -1035.1187    29.414382   -1005.7043 
 1186800    757.40898   -1034.1815    30.154061   -1004.0274 
 1187000     671.1789   -1034.6278    26.721058   -1007.9068 
 1187200    728.98971   -1036.1004    29.022629   -1007.0778 
 1187400     732.4136   -1034.0644    29.158942   -1004.9055 
 1187600    697.08823   -1034.1632    27.752564   -1006.4106 
 1187800    717.41236   -1035.0089     28.56171   -1006.4471 
 1188000    714.10184    -1035.538    28.429911   -1007.1081 
 1188200     736.4181   -1036.4277    29.318369   -1007.1093 
 1188400    718.26738   -1035.2183     28.59575   -1006.6226 
 1188600    721.75919   -1036.2654    28.734767   -1007.5306 
 1188800    673.23445   -1034.3307    26.802894   -1007.5278 
 1189000    715.51644   -1033.3703     28.48623   -1004.8841 
 1189200    752.38267    -1035.661    29.953952    -1005.707 
 1189400     645.1001   -1034.2137    25.682806   -1008.5308 
 1189600    740.46116    -1032.593    29.479332   -1003.1137 
 1189800    682.65865    -1033.461    27.178091   -1006.2829 
 1190000    628.00177   -1033.9007    25.002085   -1008.8986 
 1190200    768.40237   -1033.4094    30.591731   -1002.8177 
 1190400    739.54818   -1034.0616    29.442984   -1004.6186 
 1190600    695.49768    -1035.107     27.68924   -1007.4177 
 1190800    728.67563   -1033.2621    29.010125    -1004.252 
 1191000    706.68933   -1033.6966    28.134804   -1005.5618 
 1191200     697.0965   -1036.5422    27.752893   -1008.7893 
 1191400    749.48241   -1034.9023    29.838487   -1005.0639 
 1191600    676.08344   -1031.0465    26.916318   -1004.1302 
 1191800    688.83858   -1036.0965    27.424128   -1008.6724 
 1192000    721.90451   -1034.1157    28.740552   -1005.3751 
 1192200    756.81731   -1033.4145    30.130505    -1003.284 
 1192400    688.97021   -1033.4176    27.429368   -1005.9882 
 1192600    750.01983    -1035.725    29.859883   -1005.8651 
 1192800    694.59037   -1032.5498    27.653118   -1004.8967 
 1193000    759.94188   -1029.8872    30.254901   -999.63235 
 1193200     715.8246   -1033.6797    28.498498   -1005.1812 
 1193400    694.96014   -1036.2956     27.66784   -1008.6277 
 1193600    718.50504   -1031.7958    28.605212   -1003.1906 
 1193800    765.22464   -1032.7964    30.465219   -1002.3312 
 1194000    647.96885    -1032.992    25.797017    -1007.195 
 1194200    718.89905   -1033.9346    28.620898   -1005.3137 
 1194400    711.21879   -1031.1948    28.315131   -1002.8797 
 1194600    710.13918   -1034.2401     28.27215   -1005.9679 
 1194800    736.45927   -1034.8552    29.320008   -1005.5352 
 1195000    722.48416   -1033.7445     28.76363   -1004.9809 
 1195200    703.64877   -1035.9245    28.013753   -1007.9107 
 1195400    739.69081   -1035.2315    29.448663   -1005.7828 
 1195600    750.37743   -1033.9853     29.87412   -1004.1111 
 1195800    699.17452   -1033.5267    27.835623   -1005.6911 
 1196000    680.53444   -1034.4629    27.093522   -1007.3694 
 1196200    762.83128   -1033.1094    30.369934   -1002.7394 
 1196400    740.07607    -1034.504    29.464001     -1005.04 
 1196600    675.91701   -1036.4644    26.909692   -1009.5547 
 1196800    718.95986   -1032.7939     28.62332   -1004.1706 
 1197000    777.49123   -1032.1031    30.953578   -1001.1496 
 1197200    701.03988   -1036.5223    27.909887   -1008.6124 
 1197400    724.03784    -1034.144    28.825485   -1005.3185 
 1197600    754.38468   -1030.2139    30.033657   -1000.1802 
 1197800    655.20237   -1036.5114    26.084999   -1010.4264 
 1198000    736.72353      -1037.2    29.330529   -1007.8695 
 1198200    793.44753   -1033.1107    31.588832   -1001.5219 
 1198400    704.51513   -1035.0567    28.048244   -1007.0085 
 1198600    711.68863   -1036.7639    28.333836   -1008.4301 
 1198800    746.25568   -1033.7282    29.710024   -1004.0182 
 1199000    732.70475   -1034.4525    29.170533    -1005.282 
 1199200    683.91105    -1034.613    27.227952    -1007.385 
 1199400    756.09621   -1035.5547    30.101797    -1005.453 
 1199600    753.12669   -1034.9993    29.983574   -1005.0157 
 1199800    693.34402    -1034.023    27.603498   -1006.4195 
 1200000     694.2637   -1032.3103    27.640113   -1004.6702 
 1200200    778.25708   -1035.7312    30.984068   -1004.7471 
 1200400    718.40932   -1035.8383    28.601401   -1007.2369 
 1200600    725.77838    -1033.517    28.894779   -1004.6222 
 1200800      697.711    -1032.635    27.777357   -1004.8576 
 1201000    750.58798   -1035.1135    29.882502    -1005.231 
 1201200    709.03273   -1033.9707    28.228099   -1005.7426 
 1201400    711.68344    -1034.447     28.33363   -1006.1133 
 1201600    694.04593   -1033.9021    27.631443   -1006.2706 
 1201800    694.78004   -1033.8937     27.66067    -1006.233 
 1202000    779.55482    -1035.762    31.035734   -1004.7262 
 1202200     691.5272   -1033.9434    27.531167   -1006.4123 
 1202400    739.73636   -1037.0055    29.450476   -1007.5551 
 1202600    738.67134   -1034.6948    29.408076   -1005.2867 
 1202800    729.63069   -1034.1706    29.048148   -1005.1224 
 1203000    722.63321    -1036.175    28.769563   -1007.4055 
 1203200    718.00855   -1034.8362    28.585446   -1006.2508 
 1203400    796.37462   -1035.0966    31.705366   -1003.3912 
 1203600    674.55783   -1034.5515     26.85558   -1007.6959 
 1203800    748.57325   -1035.0641    29.802291   -1005.2618 
 1204000     727.1634   -1033.7284     28.94992   -1004.7785 
 1204200    692.09524   -1036.1848    27.553782    -1008.631 
 1204400    735.45615   -1034.9209    29.280072   -1005.6409 
 1204600    792.22127   -1033.7587    31.540012   -1002.2187 
 1204800    687.15116   -1035.0728    27.356948   -1007.7159 
 1205000    744.71569   -1034.5257    29.648714    -1004.877 
 1205200    782.95837   -1032.5719    31.171236   -1001.4007 
 1205400     690.2204   -1037.5507     27.47914   -1010.0715 
 1205600    742.04671   -1036.4425    29.542456   -1006.9001 
 1205800     763.2176    -1030.347    30.385314   -999.96173 
 1206000    681.28824   -1034.3235    27.123532   -1007.1999 
 1206200    671.74518   -1037.6097    26.743603   -1010.8661 
 1206400     772.8163   -1032.7062    30.767459   -1001.9388 
 1206600    778.07253   -1035.4398    30.976721   -1004.4631 
 1206800    642.73485    -1035.396     25.58864   -1009.8074 
 1207000     765.7259   -1033.8809    30.485175   -1003.3957 
 1207200    731.04937   -1034.8484    29.104628   -1005.7438 
 1207400     660.7972   -1034.2385    26.307741   -1007.9308 
 1207600    784.65539   -1035.0179    31.238798   -1003.7791 
 1207800    708.80517   -1034.7358     28.21904   -1006.5168 
 1208000    711.10052   -1034.7859    28.310423   -1006.4754 
 1208200    717.25712   -1031.8203     28.55553   -1003.2648 
 1208400    729.62735   -1032.0712    29.048015   -1003.0232 
 1208600     689.9924   -1035.4842    27.470063   -1008.0142 
 1208800    693.53862   -1034.5773    27.611246    -1006.966 
 1209000    764.56488   -1036.1887    30.438952   -1005.7498 
 1209200    687.87799   -1034.1024    27.385884   -1006.7165 
 1209400    786.15139   -1033.0421    31.298357   -1001.7437 
 1209600    708.82991   -1033.6739    28.220025   -1005.4539 
 1209800    682.63273   -1034.6082    27.177059   -1007.4312 
 1210000    778.08553   -1032.4454    30.977238   -1001.4682 
 1210200    707.27294   -1034.8892    28.158038   -1006.7312 
 1210400    683.52124   -1033.3212    27.212433   -1006.1088 
 1210600    723.67866   -1031.8788    28.811185   -1003.0676 
 1210800    718.65946   -1033.0132     28.61136   -1004.4018 
 1211000    697.95125    -1036.487    27.786922   -1008.7001 
 1211200    713.13648   -1032.7354    28.391478   -1004.3439 
 1211400    776.76077   -1033.7384    30.924497   -1002.8139 
 1211600    653.06618    -1034.681    25.999952    -1008.681 
 1211800    764.93451   -1032.8545    30.453668   -1002.4008 
 1212000     758.0899   -1034.3614    30.181169   -1004.1802 
 1212200     730.1242   -1035.4564    29.067796   -1006.3886 
 1212400    704.37555   -1031.6516    28.042687   -1003.6089 
 1212600    694.78604   -1032.7961    27.660909   -1005.1352 
 1212800    792.43745   -1034.7789    31.548619   -1003.2302 
 1213000    695.73171   -1033.5734    27.698558   -1005.8748 
 1213200    737.54605   -1034.4479    29.363275   -1005.0847 
 1213400    731.07446   -1034.3962    29.105628   -1005.2906 
 1213600    683.23529   -1032.8397    27.201048   -1005.6386 
 1213800    748.90452   -1034.0687     29.81548   -1004.2533 
 1214000    669.54041   -1034.5241    26.655826   -1007.8682 
 1214200    738.53671   -1034.4762    29.402716   -1005.0734 
 1214400    721.10097   -1032.9263    28.708562   -1004.2178 
 1214600    742.64514   -1035.2085    29.566281   -1005.6423 
 1214800     802.6289   -1036.2364    31.954362    -1004.282 
 1215000    701.20073    -1032.589    27.916291   -1004.6727 
 1215200    703.73247   -1035.5748    28.017085   -1007.5577 
 1215400    702.20018   -1036.9936    27.956081   -1009.0375 
 1215600    789.53885   -1034.1375    31.433219   -1002.7043 
 1215800    722.54411   -1035.3649    28.766016   -1006.5989 
 1216000    715.72858   -1037.1889    28.494675   -1008.6942 
 1216200    807.78283   -1035.3243    32.159551   -1003.1648 
 1216400    705.87452   -1036.3994    28.102364    -1008.297 
 1216600    687.72597   -1034.4025    27.379832   -1007.0227 
 1216800     723.1341   -1033.6484    28.789505   -1004.8588 
 1217000    742.87696   -1034.6179     29.57551   -1005.0424 
 1217200    741.20241   -1034.7825    29.508843   -1005.2737 
 1217400    698.37956   -1035.9439    27.803974     -1008.14 
 1217600    786.98002   -1035.5921    31.331347   -1004.2608 
 1217800    738.45362   -1034.8795    29.399408   -1005.4801 
 1218000    715.89157   -1037.1326    28.501164   -1008.6314 
 1218200    740.41472    -1034.844    29.477483   -1005.3665 
 1218400    776.40355   -1034.7367    30.910275   -1003.8265 
 1218600    665.78121   -1037.5541    26.506164   -1011.0479 
 1218800    748.93959   -1036.6044    29.816876   -1006.7875 
 1219000    774.87842   -1031.0168    30.849556   -1000.1672 
 1219200    674.85105   -1034.7361    26.867254   -1007.8689 
 1219400     687.9372   -1037.2388    27.388242   -1009.8506 
 1219600    821.56488    -1034.043    32.708243   -1001.3347 
 1219800    730.79676   -1035.4119    29.094572   -1006.3173 
 1220000    679.95162   -1038.0255    27.070318   -1010.9552 
 1220200    749.03661   -1031.4204    29.820739   -1001.5997 
 1220400     793.4096   -1034.9661    31.587322   -1003.3787 
 1220600    666.42821   -1038.9079    26.531923    -1012.376 
 1220800    757.59109   -1034.3098    30.161311   -1004.1485 
 1221000    744.33938   -1032.4609    29.633732   -1002.8272 
 1221200    644.12551   -1036.8536    25.644005   -1011.2096 
 1221400    733.90429   -1033.8394    29.218289   -1004.6211 
 1221600    774.52528   -1035.2763    30.835497   -1004.4408 
 1221800    718.19694   -1038.7857    28.592946   -1010.1928 
 1222000    762.81489   -1037.0071    30.369281   -1006.6378 
 1222200    736.85844   -1032.5609      29.3359    -1003.225 
 1222400    740.28401    -1037.459    29.472279   -1007.9867 
 1222600     673.6382   -1035.4406    26.818968   -1008.6216 
 1222800    790.40371    -1032.257    31.467651   -1000.7893 
 1223000    721.38288   -1036.1562    28.719785   -1007.4365 
 1223200    682.00818   -1035.2307    27.152195   -1008.0785 
 1223400    785.01002    -1035.849    31.252917   -1004.5961 
 1223600    698.73285   -1034.5234    27.818039   -1006.7053 
 1223800    774.12563   -1034.9484    30.819586   -1004.1288 
 1224000    688.32465   -1035.9546    27.403667   -1008.5509 
 1224200    738.63537   -1034.2707    29.406643   -1004.8641 
 1224400    758.56942   -1033.4099     30.20026   -1003.2096 
 1224600    692.93336   -1036.5455    27.587149   -1008.9583 
 1224800    703.41203   -1035.9075    28.004327   -1007.9032 
 1225000    755.05964   -1035.0198    30.060528   -1004.9593 
 1225200     744.9165   -1035.2486    29.656709   -1005.5919 
 1225400    683.24807   -1036.2455    27.201557   -1009.0439 
 1225600    768.55094   -1033.6941    30.597646   -1003.0964 
 1225800    715.65308   -1032.4634     28.49167   -1003.9717 
 1226000    683.57815   -1035.4154    27.214698   -1008.2007 
 1226200    762.52009   -1034.9102    30.357545   -1004.5527 
 1226400    740.32366   -1034.9676    29.473858   -1005.4937 
 1226600    757.25465   -1036.9841    30.147917   -1006.8362 
 1226800    733.95507      -1035.9    29.220311   -1006.6797 
 1227000    757.60382   -1034.3594    30.161818   -1004.1976 
 1227200    760.09581   -1036.0919    30.261029   -1005.8308 
 1227400     639.2229   -1035.7676    25.448822   -1010.3188 
 1227600    779.36097   -1035.9018    31.028016   -1004.8738 
 1227800    729.02519   -1034.4921    29.024042    -1005.468 
 1228000     785.9705   -1037.0406    31.291156   -1005.7494 
 1228200    737.71168   -1037.7307    29.369869   -1008.3609 
 1228400    695.99478   -1035.0628    27.709031   -1007.3538 
 1228600    740.39447   -1034.7244    29.476677   -1005.2477 
 1228800    754.15965   -1038.1902    30.024698   -1008.1655 
 1229000    738.84756   -1037.6956    29.415091   -1008.2805 
 1229200    755.05758   -1037.0818    30.060447   -1007.0213 
 1229400    733.14036   -1034.1973    29.187875   -1005.0094 
 1229600    697.62031   -1035.8642    27.773747   -1008.0905 
 1229800    695.77477   -1032.6212    27.700272    -1004.921 
 1230000    752.10774   -1034.2929    29.943007   -1004.3498 
 1230200    695.97797   -1036.3007    27.708362   -1008.5923 
 1230400    787.02244   -1037.1335    31.333036   -1005.8005 
 1230600    756.34899   -1034.5184     30.11186   -1004.4065 
 1230800    726.66322   -1035.6472    28.930007   -1006.7172 
 1231000    737.58745   -1035.6162    29.364923   -1006.2513 
 1231200     771.7337   -1036.5367    30.724358   -1005.8123 
 1231400    741.16451    -1035.474    29.507334   -1005.9666 
 1231600    764.04406   -1033.9513    30.418217   -1003.5331 
 1231800    746.88706   -1034.9466    29.735161   -1005.2114 
 1232000    682.75737   -1038.4016    27.182021   -1011.2196 
 1232200    769.62786   -1034.8247     30.64052   -1004.1841 
 1232400    744.99853   -1034.1385    29.659974   -1004.4785 
 1232600    679.73535   -1036.5197    27.061708    -1009.458 
 1232800    722.10752    -1034.936    28.748635   -1006.1874 
 1233000    749.17586   -1032.2757    29.826283   -1002.4494 
 1233200    724.07479   -1036.1805    28.826956   -1007.3535 
 1233400    738.22299   -1037.8139    29.390226   -1008.4237 
 1233600    796.30292   -1036.5767    31.702511   -1004.8742 
 1233800    708.32461   -1034.1121    28.199908   -1005.9122 
 1234000    749.35508    -1036.105    29.833418   -1006.2716 
 1234200    744.51317   -1034.9343    29.640651   -1005.2937 
 1234400     744.2764   -1035.0681    29.631225   -1005.4369 
 1234600    719.14617   -1033.2756    28.630737   -1004.6449 
 1234800    745.06461   -1034.8154    29.662605   -1005.1528 
 1235000    726.53268   -1036.1462     28.92481   -1007.2214 
 1235200    695.28839   -1032.8083    27.680908   -1005.1274 
 1235400    796.21239   -1033.8041    31.698907   -1002.1052 
 1235600    730.67962   -1037.3932    29.089908   -1008.3033 
 1235800    715.55992    -1035.482    28.487961   -1006.9941 
 1236000    744.79355   -1032.5181    29.651813   -1002.8663 
 1236200    726.00265   -1036.0918    28.903708   -1007.1881 
 1236400    689.30322    -1036.607    27.442626   -1009.1644 
 1236600    801.86691   -1034.9654    31.924025   -1003.0413 
 1236800    766.10359   -1035.4518    30.500212   -1004.9516 
 1237000    703.42582   -1036.4763    28.004876   -1008.4714 
 1237200    743.88354   -1036.6391    29.615584   -1007.0235 
 1237400    725.87852   -1033.6724    28.898766   -1004.7737 
 1237600    719.05482   -1035.8442      28.6271   -1007.2171 
 1237800    710.48229    -1036.181     28.28581   -1007.8951 
 1238000    778.79738   -1036.2579    31.005578   -1005.2524 
 1238200    729.70891   -1035.6585    29.051262   -1006.6072 
 1238400     735.4445   -1034.6122    29.279608   -1005.3326 
 1238600    747.21279   -1037.0716    29.748129   -1007.3235 
 1238800    767.47242   -1035.3704    30.554708   -1004.8157 
 1239000    768.28543   -1035.8689    30.587075   -1005.2818 
 1239200    706.88135   -1036.0175    28.142448    -1007.875 
 1239400    748.93386   -1034.3745    29.816648   -1004.5578 
 1239600    721.73788   -1034.7886    28.733919   -1006.0547 
 1239800    736.93707   -1036.7421    29.339031    -1007.403 
 1240000    720.71399    -1034.598    28.693155   -1005.9048 
 1240200    763.20994   -1035.6411    30.385009   -1005.2561 
 1240400    732.95851    -1035.904    29.180636   -1006.7233 
 1240600    711.60181   -1034.5666     28.33038   -1006.2362 
 1240800    739.71675   -1034.1346    29.449695   -1004.6849 
 1241000    720.73434   -1033.5683    28.693965   -1004.8743 
 1241200    723.59703   -1033.9537    28.807935   -1005.1458 
 1241400    723.68972   -1035.8807    28.811625    -1007.069 
 1241600      748.107   -1036.1313    29.783729   -1006.3476 
 1241800    732.38147   -1034.7517    29.157662   -1005.5941 
 1242000    701.83734   -1033.4001    27.941636   -1005.4584 
 1242200    724.47435   -1034.0185    28.842863   -1005.1757 
 1242400    727.51871   -1033.9616    28.964065   -1004.9975 
 1242600    768.17264    -1034.245    30.582585   -1003.6624 
 1242800    716.43708    -1034.717    28.522882   -1006.1941 
 1243000    704.90844   -1035.8515    28.063903   -1007.7876 
 1243200    747.57705   -1032.8151    29.762631   -1003.0525 
 1243400    760.05163   -1036.6691     30.25927   -1006.4098 
 1243600    714.05173   -1036.3567    28.427916   -1007.9287 
 1243800    769.21055   -1034.9675    30.623906   -1004.3436 
 1244000     720.9587   -1032.6928    28.702898   -1003.9899 
 1244200    719.60938   -1036.2679    28.649178   -1007.6187 
 1244400    742.89215   -1035.3716    29.576115   -1005.7955 
 1244600     807.4641    -1035.061    32.146862   -1002.9142 
 1244800    684.53399   -1035.9493    27.252753   -1008.6965 
 1245000    765.45489   -1033.9422    30.474386   -1003.4678 
 1245200    729.78096   -1034.0136    29.054131   -1004.9595 
 1245400    673.15539   -1034.6297    26.799746     -1007.83 
 1245600    767.29174    -1036.634    30.547514   -1006.0865 
 1245800    775.71041   -1035.9109     30.88268   -1005.0282 
 1246000     738.1006    -1036.074    29.385353   -1006.6887 
 1246200    760.86841    -1035.254    30.291788   -1004.9623 
 1246400    721.72557   -1033.5751    28.733428   -1004.8417 
 1246600    761.84786    -1036.273    30.330782   -1005.9422 
 1246800     711.0698     -1033.85      28.3092   -1005.5408 
 1247000    736.20321   -1032.4186    29.309814   -1003.1088 
 1247200    717.11668   -1037.2837    28.549939   -1008.7338 
 1247400    672.07178   -1035.6153    26.756606   -1008.8587 
 1247600    818.93034   -1033.0164    32.603357    -1000.413 
 1247800      734.727   -1035.4594    29.251043   -1006.2084 
 1248000    742.52967   -1038.4389    29.561684   -1008.8772 
 1248200    769.32156   -1035.2535    30.628326   -1004.6252 
 1248400     792.9822    -1035.863    31.570306   -1004.2927 
 1248600    722.79394   -1036.6974    28.775962   -1007.9215 
 1248800    712.80516   -1033.2907    28.378288   -1004.9124 
 1249000    763.08502   -1034.9678    30.380036   -1004.5878 
 1249200    696.06753   -1036.1161    27.711927   -1008.4042 
 1249400    696.47409   -1034.2699    27.728113   -1006.5418 
 1249600    764.75661   -1033.5543    30.446586   -1003.1077 
 1249800    709.79339   -1036.2311    28.258383   -1007.9727 
 1250000    689.11053   -1034.9432    27.434954   -1007.5082 
 1250200    762.33233   -1032.7433     30.35007   -1002.3933 
 1250400    716.97514   -1035.1724    28.544304   -1006.6281 
 1250600    705.61711   -1038.0263    28.092116   -1009.9342 
 1250800    744.84209   -1033.4415    29.653746   -1003.7878 
 1251000    768.52084   -1033.6782    30.596448   -1003.0817 
 1251200     693.5088   -1037.0265    27.610059   -1009.4164 
 1251400    740.58139   -1036.7636    29.484118   -1007.2795 
 1251600    784.26898   -1033.5145    31.223414   -1002.2911 
 1251800    742.93139   -1035.9137    29.577677    -1006.336 
 1252000    716.13173   -1037.8688    28.510726   -1009.3581 
 1252200    786.49697   -1034.3255    31.312115   -1003.0134 
 1252400    760.37411   -1034.7826    30.272109   -1004.5105 
 1252600     699.2634   -1035.7779    27.839162   -1007.9388 
 1252800    745.37705   -1034.1654    29.675044   -1004.4903 
 1253000    741.64035   -1034.3136    29.526278   -1004.7873 
 1253200     737.3243   -1036.5918    29.354447   -1007.2373 
 1253400    708.82986   -1033.0935    28.220023   -1004.8735 
 1253600     765.1555   -1034.6396    30.462466   -1004.1771 
 1253800    761.11418   -1037.0236    30.301572    -1006.722 
 1254000    747.14021   -1035.2644    29.745239   -1005.5192 
 1254200    763.28506   -1033.7534       30.388   -1003.3654 
 1254400     730.7148   -1035.5395    29.091309   -1006.4482 
 1254600    731.09656     -1036.61    29.106508   -1007.5035 
 1254800    775.80998   -1033.0998    30.886644   -1002.2131 
 1255000    763.09443   -1033.3028    30.380411   -1002.9224 
 1255200    710.84276   -1033.5482     28.30016    -1005.248 
 1255400    733.60429   -1031.9764    29.206345   -1002.7701 
 1255600    736.91119   -1035.1594       29.338   -1005.8214 
 1255800     768.8639   -1036.4322    30.610105   -1005.8221 
 1256000    735.52267   -1032.8459     29.28272   -1003.5632 
 1256200    738.64287   -1035.1837    29.406942   -1005.7768 
 1256400    700.02373   -1036.1518    27.869432   -1008.2823 
 1256600    773.51264   -1035.0484    30.795182   -1004.2532 
 1256800    831.76593   -1035.0131    33.114369   -1001.8987 
 1257000     747.8342   -1037.9391    29.772868   -1008.1662 
 1257200    803.93274   -1039.6784     32.00627   -1007.6721 
 1257400    749.05108   -1033.9195    29.821315   -1004.0982 
 1257600    698.49864   -1032.6834    27.808715   -1004.8747 
 1257800    735.14896   -1034.6807    29.267842   -1005.4128 
 1258000    748.14732   -1037.0508    29.785334   -1007.2655 
 1258200    724.66768   -1033.4189     28.85056   -1004.5683 
 1258400    733.93561   -1036.5918    29.219536   -1007.3722 
 1258600    761.50286   -1037.0768    30.317047   -1006.7597 
 1258800    779.53321   -1034.7628    31.034874   -1003.7279 
 1259000    731.62089   -1036.0695    29.127382   -1006.9422 
 1259200    684.24011   -1034.3143    27.241053   -1007.0732 
 1259400     715.0168   -1032.0579    28.466338   -1003.5916 
 1259600     741.9167   -1035.1173     29.53728     -1005.58 
 1259800    731.61571    -1036.649    29.127176   -1007.5218 
 1260000    771.48105   -1033.7156      30.7143   -1003.0013 
 1260200    750.19162   -1035.6746    29.866722   -1005.8078 
 1260400    733.35518   -1036.7265    29.196428   -1007.5301 
 1260600    744.00115   -1032.9061    29.620266   -1003.2859 
 1260800    721.85984   -1032.8966    28.738774   -1004.1578 
 1261000    703.93304   -1033.3715     28.02507   -1005.3465 
 1261200    747.26603   -1034.2977    29.750248   -1004.5475 
 1261400    720.18355   -1034.0452    28.672037   -1005.3731 
 1261600    727.23952   -1033.1066    28.952951   -1004.1537 
 1261800    795.87301   -1036.3732    31.685396   -1004.6878 
 1262000     711.5892   -1036.6368    28.329878   -1008.3069 
 1262200    773.52532   -1034.8482    30.795686   -1004.0525 
 1262400    787.55906   -1035.7077      31.3544   -1004.3533 
 1262600    723.33212   -1036.3703    28.797388   -1007.5729 
 1262800    673.01904   -1032.8156    26.794318   -1006.0213 
 1263000    753.23515   -1032.8216    29.987892   -1002.8337 
 1263200    733.92865   -1033.6518    29.219259   -1004.4325 
 1263400     727.6866   -1036.6918     28.97075   -1007.7211 
 1263600    790.22498   -1034.2869    31.460535   -1002.8263 
 1263800    750.60033   -1034.2717    29.882994   -1004.3887 
 1264000    666.14457   -1036.0706    26.520631     -1009.55 
 1264200    839.88603   -1036.2675    33.437647   -1002.8298 
 1264400    740.06955   -1031.7874    29.463741   -1002.3237 
 1264600    695.38084   -1034.5289    27.684589   -1006.8443 
 1264800    785.32245   -1036.0075    31.265355   -1004.7422 
 1265000    717.93026   -1032.8457    28.582329   -1004.2634 
 1265200     735.1118   -1037.1067    29.266362   -1007.8404 
 1265400    714.23203   -1033.2575    28.435095   -1004.8224 
 1265600    821.17217   -1034.4179    32.692609   -1001.7253 
 1265800    733.61834   -1036.4322    29.206905   -1007.2253 
 1266000    719.99609    -1036.003    28.664574   -1007.3384 
 1266200    740.55493   -1033.4834    29.483065   -1004.0004 
 1266400    755.67962   -1035.4762    30.085211    -1005.391 
 1266600    779.53721   -1036.7041    31.035033   -1005.6691 
 1266800    748.39181   -1035.7919    29.795068   -1005.9968 
 1267000    725.93075     -1033.39    28.900846   -1004.4892 
 1267200    779.96428   -1035.9482    31.052035   -1004.8962 
 1267400    729.97011   -1038.2096    29.061661   -1009.1479 
 1267600    735.54887   -1034.6315    29.283763   -1005.3478 
 1267800    743.02306   -1032.8913    29.581327     -1003.31 
 1268000    740.83917   -1037.2451    29.494381   -1007.7507 
 1268200    719.24424   -1035.5571    28.634641   -1006.9225 
 1268400    798.47172   -1032.9535    31.788856   -1001.1646 
 1268600    712.32964   -1037.0552    28.359356   -1008.6959 
 1268800    786.40456   -1037.8193    31.308437   -1006.5109 
 1269000    774.40319   -1031.3719    30.830636   -1000.5413 
 1269200     716.4231   -1033.7012    28.522326   -1005.1788 
 1269400    804.39641   -1037.1118     32.02473   -1005.0871 
 1269600    768.65937   -1033.1124    30.601963   -1002.5104 
 1269800     744.5248   -1033.8619    29.641114   -1004.2208 
 1270000     718.9322   -1037.7718    28.622218   -1009.1495 
 1270200    762.47973    -1033.747    30.355938   -1003.3911 
 1270400    792.50058   -1034.3722    31.551132   -1002.8211 
 1270600    659.40867   -1036.5091     26.25246   -1010.2566 
 1270800    802.65398   -1031.8703     31.95536   -999.91496 
 1271000    778.84991   -1032.9689     31.00767   -1001.9612 
 1271200    694.88906   -1036.7963     27.66501   -1009.1313 
 1271400    793.61078   -1035.6488    31.595331   -1004.0535 
 1271600    721.21211    -1030.881    28.712986    -1002.168 
 1271800    755.21753   -1036.7663    30.066814   -1006.6994 
 1272000    722.39402   -1036.2917    28.760041   -1007.5317 
 1272200    766.35395   -1035.1001    30.510179     -1004.59 
 1272400    752.50108   -1034.3167    29.958667    -1004.358 
 1272600    797.16967   -1037.6965    31.737018   -1005.9595 
 1272800    729.98253   -1033.8949    29.062155   -1004.8328 
 1273000    773.08913   -1034.0629    30.778321   -1003.2845 
 1273200    737.52784   -1035.1626     29.36255      -1005.8 
 1273400     767.0609    -1033.108    30.538324   -1002.5697 
 1273600    804.16907   -1033.5443    32.015679   -1001.5286 
 1273800    737.06009    -1034.569    29.343928   -1005.2251 
 1274000    768.05009   -1033.0417    30.577706    -1002.464 
 1274200    762.11363   -1035.3026    30.341363   -1004.9613 
 1274400    724.50783    -1035.863    28.844196   -1007.0188 
 1274600    684.10813   -1030.4738    27.235798    -1003.238 
 1274800    804.34556   -1033.7057    32.022706    -1001.683 
 1275000    709.28099    -1035.174    28.237983    -1006.936 
 1275200    745.98381   -1034.1374      29.6992   -1004.4382 
 1275400    840.37827   -1034.4597    33.457244   -1001.0025 
 1275600    727.10042   -1036.5596    28.947412   -1007.6122 
 1275800    743.15805   -1036.5432    29.586701   -1006.9565 
 1276000    765.04217   -1032.6353    30.457954   -1002.1773 
 1276200    717.94038   -1033.9895    28.582732   -1005.4068 
 1276400     737.3605   -1034.4713    29.355888   -1005.1154 
 1276600    776.34357   -1033.2488    30.907887   -1002.3409 
 1276800    730.79057   -1033.5332    29.094325   -1004.4388 
 1277000    748.53759   -1036.2535    29.800872   -1006.4526 
 1277200    728.52627   -1034.1653    29.004179   -1005.1611 
 1277400    764.18694   -1036.0162    30.423906   -1005.5923 
 1277600    756.16114   -1035.8339    30.104382   -1005.7295 
 1277800      739.637   -1033.6256    29.446521   -1004.1791 
 1278000    742.25618   -1033.9941    29.550796   -1004.4433 
 1278200    701.03168   -1034.8039    27.909561   -1006.8943 
 1278400    733.51442   -1033.9504    29.202767   -1004.7476 
 1278600    768.76284   -1034.1686    30.606082   -1003.5625 
 1278800    755.51228   -1035.6447    30.078549   -1005.5662 
 1279000    773.65775   -1036.4339    30.800959   -1005.6329 
 1279200    764.21653    -1035.738    30.425084    -1005.313 
 1279400    775.76967   -1033.0029    30.885039   -1002.1178 
 1279600    700.27759   -1033.9224    27.879539   -1006.0428 
 1279800    749.13414   -1035.2187    29.824622   -1005.3941 
 1280000    761.63877   -1034.2177    30.322458   -1003.8952 
 1280200    755.74518    -1037.353    30.087821   -1007.2652 
 1280400    725.39769   -1032.6717    28.879623   -1003.7921 
 1280600    834.27573   -1034.2607    33.214289   -1001.0464 
 1280800    739.92507   -1036.8466    29.457989   -1007.3886 
 1281000    724.05097    -1037.023    28.826008   -1008.1969 
 1281200    811.54557   -1033.4424    32.309354    -1001.133 
 1281400    717.37183   -1033.3066    28.560097   -1004.7465 
 1281600     699.0156   -1035.2061    27.829296   -1007.3768 
 1281800    770.28277   -1031.5368    30.666594   -1000.8702 
 1282000    779.47853   -1033.9589    31.032696   -1002.9262 
 1282200    686.83321    -1035.205    27.344289   -1007.8607 
 1282400    792.54263   -1034.2974    31.552806   -1002.7446 
 1282600    782.10557    -1032.581    31.137285   -1001.4437 
 1282800     753.4796   -1036.6477    29.997624     -1006.65 
 1283000    724.14401   -1035.9645    28.829711   -1007.1348 
 1283200    744.37533   -1031.3322    29.635164   -1001.6971 
 1283400    735.52954   -1034.6267    29.282994   -1005.3437 
 1283600    723.85649    -1035.005    28.818265   -1006.1868 
 1283800    785.87734   -1033.4848    31.287447   -1002.1974 
 1284000     674.2947   -1032.8362    26.845105   -1005.9911 
 1284200    733.58433    -1033.438    29.205551   -1004.2325 
 1284400    751.29271   -1031.8881    29.910559   -1001.9776 
 1284600     729.5523   -1033.4397    29.045027   -1004.3947 
 1284800    729.27681   -1035.1005    29.034059   -1006.0665 
 1285000    736.30071   -1035.4238    29.313696   -1006.1101 
 1285200    762.23702   -1033.7032    30.346275   -1003.3569 
 1285400    779.97953   -1034.3232    31.052642   -1003.2706 
 1285600    729.21754   -1037.4192      29.0317   -1008.3875 
 1285800     745.5098   -1036.0362    29.680329   -1006.3559 
 1286000    757.95725   -1031.8435    30.175889   -1001.6676 
 1286200    751.70751   -1035.5631    29.927073    -1005.636 
 1286400     732.3648   -1035.7438    29.156999   -1006.5868 
 1286600    795.58448   -1034.4979    31.673909    -1002.824 
 1286800    767.35814    -1035.594    30.550158   -1005.0438 
 1287000    733.63364   -1036.6749    29.207514   -1007.4674 
 1287200    774.55978   -1035.0251     30.83687   -1004.1883 
 1287400    797.39061   -1034.9111    31.745814   -1003.1653 
 1287600    695.65308   -1035.1169    27.695427   -1007.4214 
 1287800    769.26544   -1034.7753    30.626091   -1004.1492 
 1288000    853.11878   -1037.0003    33.964471   -1003.0358 
 1288200    708.48654   -1037.0179    28.206355   -1008.8115 
 1288400    809.01488   -1035.7931    32.208601   -1003.5845 
 1288600    725.27183   -1035.0071    28.874612   -1006.1325 
 1288800    750.45881   -1036.1128     29.87736   -1006.2354 
 1289000    774.73711   -1033.2883     30.84393   -1002.4443 
 1289200    811.14835   -1034.5209    32.293539   -1002.2273 
 1289400    754.91951   -1035.2029     30.05495   -1005.1479 
 1289600    758.36322   -1035.7244    30.192051   -1005.5323 
 1289800    805.23408   -1033.7392    32.058079   -1001.6811 
 1290000    720.43443    -1035.685    28.682025    -1007.003 
 1290200    749.35831   -1036.1019    29.833547   -1006.2684 
 1290400    718.36527   -1031.2548    28.599648   -1002.6551 
 1290600    744.58215    -1034.628    29.643398   -1004.9846 
 1290800     715.4392     -1035.51    28.483155   -1007.0268 
 1291000    713.69086   -1033.8874     28.41355   -1005.4739 
 1291200     774.6318   -1033.3571    30.839738   -1002.5174 
 1291400    815.60266   -1037.4961    32.470875   -1005.0252 
 1291600    795.97542   -1039.0028    31.689473   -1007.3134 
 1291800    721.68569   -1035.5418    28.731841   -1006.8099 
 1292000    782.84514    -1035.339    31.166728   -1004.1722 
 1292200     751.3297   -1036.3146    29.912032   -1006.4026 
 1292400    704.97679   -1036.3693    28.066624   -1008.3027 
 1292600    767.61653   -1034.9601    30.560445   -1004.3997 
 1292800    759.22829   -1034.0115    30.226491    -1003.785 
 1293000    778.51153   -1036.1859    30.994198   -1005.1917 
 1293200    705.31007   -1036.3992    28.079892   -1008.3193 
 1293400    775.72001   -1037.0701    30.883062   -1006.1871 
 1293600    753.19079   -1035.1944    29.986126   -1005.2083 
 1293800    710.55275    -1036.747    28.288615   -1008.4583 
 1294000    720.64676   -1035.4186    28.690479   -1006.7281 
 1294200     806.7021   -1035.4423    32.116524   -1003.3257 
 1294400    737.74612   -1036.4649    29.371241   -1007.0937 
 1294600    743.46154   -1036.9807    29.598784    -1007.382 
 1294800    741.57208   -1033.2943     29.52356   -1003.7708 
 1295000    727.19557   -1032.8239    28.951201   -1003.8727 
 1295200    746.45076   -1036.5346    29.717791   -1006.8168 
 1295400    785.99225   -1035.3147    31.292022   -1004.0227 
 1295600    753.66784   -1034.3992    30.005118   -1004.3941 
 1295800     785.5854    -1037.547    31.275824   -1006.2712 
 1296000    771.31758     -1035.39    30.707791   -1004.6822 
 1296200    741.65906   -1035.9834    29.527023   -1006.4564 
 1296400    775.35809   -1037.4382    30.868653   -1006.5695 
 1296600    751.14783   -1037.7289    29.904791   -1007.8241 
 1296800    783.07011   -1035.1245    31.175685   -1003.9488 
 1297000    740.85457   -1034.8688    29.494995   -1005.3738 
 1297200    712.20769   -1035.9156    28.354501   -1007.5611 
 1297400    738.12744   -1034.3362    29.386422   -1004.9498 
 1297600    737.28003   -1034.3708    29.352685   -1005.0181 
 1297800    734.39515   -1036.1886    29.237831   -1006.9508 
 1298000    743.72427    -1037.144    29.609243   -1007.5347 
 1298200    796.47168   -1034.6982     31.70923    -1002.989 
 1298400    675.54283   -1034.4062    26.894795   -1007.5114 
 1298600    734.47788   -1035.7704    29.241125   -1006.5292 
 1298800    787.38132   -1035.1416    31.347323   -1003.7942 
 1299000    762.92529   -1035.7209    30.373677   -1005.3473 
 1299200    785.59763   -1035.5126    31.276311   -1004.2363 
 1299400    812.38465   -1033.5173    32.342759   -1001.1746 
 1299600    735.70973   -1035.2438    29.290168   -1005.9536 
 1299800    745.12297   -1036.6058    29.664928   -1006.9409 
 1300000    747.07487   -1032.5679    29.742638   -1002.8252 
 1300200    816.11608   -1035.0235    32.491315   -1002.5322 
 1300400    702.57787   -1034.9536    27.971118   -1006.9825 
 1300600    769.80594   -1033.4574     30.64761   -1002.8097 
 1300800    782.87102   -1034.1411    31.167759   -1002.9733 
 1301000    790.88135   -1036.5971    31.486667   -1005.1105 
 1301200    734.31332   -1035.8531    29.234573   -1006.6186 
 1301400    772.41564   -1034.1001    30.751508   -1003.3485 
 1301600    815.69267   -1036.7039    32.474458   -1004.2294 
 1301800     723.1362   -1038.1555    28.789588   -1009.3659 
 1302000    784.22226    -1036.029    31.221554   -1004.8074 
 1302200    752.47561   -1033.7923    29.957653   -1003.8347 
 1302400    760.97484   -1038.7608    30.296025   -1008.4648 
 1302600    789.71407   -1035.5139    31.440195   -1004.0737 
 1302800    757.62175    -1032.855    30.162531   -1002.6924 
 1303000    699.81945   -1036.3865    27.861299   -1008.5252 
 1303200    725.73579   -1034.7274    28.893084   -1005.8343 
 1303400    767.14184   -1033.3091    30.541547   -1002.7676 
 1303600    730.19774    -1037.734    29.070724   -1008.6632 
 1303800    771.20629   -1038.7719    30.703361   -1008.0685 
 1304000    782.39679   -1035.6935    31.148878   -1004.5446 
 1304200    763.67541    -1036.434     30.40354   -1006.0305 
 1304400     726.4777   -1036.8112    28.922621   -1007.8886 
 1304600    740.84556   -1034.2703    29.494636   -1004.7757 
 1304800    803.12457   -1035.4285    31.974095   -1003.4544 
 1305000    763.20599    -1035.709    30.384852   -1005.3241 
 1305200    796.64054   -1036.4363    31.715953   -1004.7204 
 1305400    771.48631   -1036.5683    30.714509   -1005.8538 
 1305600    709.18448   -1035.8624    28.234141   -1007.6282 
 1305800    779.48538   -1035.4376    31.032969   -1004.4046 
 1306000     720.7019   -1035.5303    28.692674   -1006.8376 
 1306200    741.02283   -1035.9765    29.501693   -1006.4748 
 1306400    741.79234   -1034.2369    29.532329   -1004.7045 
 1306600    759.68183   -1034.0478    30.244548   -1003.8033 
 1306800     712.6904   -1035.3468    28.373719   -1006.9731 
 1307000    740.83948   -1036.1322    29.494394   -1006.6378 
 1307200    768.87939   -1034.5662    30.610722   -1003.9554 
 1307400    788.25375   -1037.1182    31.382057   -1005.7361 
 1307600    743.90637   -1036.5994    29.616493   -1006.9829 
 1307800     797.2593   -1034.2205    31.740587   -1002.4799 
 1308000    737.05756     -1038.22    29.343827   -1008.8762 
 1308200    730.87216   -1037.6832    29.097573   -1008.5856 
 1308400    847.80153    -1033.092     33.75278    -999.3392 
 1308600    744.35396   -1036.9586    29.634313   -1007.3243 
 1308800    671.06505   -1037.4664    26.716525   -1010.7499 
 1309000    790.56682   -1031.8458    31.474145   -1000.3717 
 1309200    767.91898   -1035.4409    30.572486   -1004.8684 
 1309400    660.45965   -1037.3336    26.294302   -1011.0393 
 1309600    765.05071   -1032.9704    30.458294   -1002.5121 
 1309800    811.41439   -1035.7515    32.304131   -1003.4473 
 1310000    705.74548   -1038.1484    28.097227   -1010.0512 
 1310200    797.60395   -1034.3539    31.754308   -1002.5996 
 1310400     803.1227   -1035.7086    31.974021   -1003.7345 
 1310600    769.89258   -1039.7499    30.651059   -1009.0989 
 1310800    737.89548   -1035.1061    29.377187   -1005.7289 
 1311000    818.26371   -1033.9269    32.576817   -1001.3501 
 1311200    734.74241   -1039.5222    29.251656   -1010.2706 
 1311400    702.99724    -1035.786    27.987814   -1007.7982 
 1311600    820.62636   -1032.1929    32.670879   -999.52198 
 1311800    745.55748   -1037.7807    29.682227   -1008.0985 
 1312000    755.34765   -1039.1367    30.071995   -1009.0647 
 1312200    782.42172   -1032.2966    31.149871   -1001.1468 
 1312400    810.83374   -1037.3388    32.281014   -1005.0578 
 1312600    715.88864   -1039.3231    28.501048    -1010.822 
 1312800    786.71127   -1032.4308    31.320647   -1001.1102 
 1313000    752.16355   -1032.9074    29.945229   -1002.9621 
 1313200    722.66934    -1036.266    28.771002    -1007.495 
 1313400    760.91739    -1036.177    30.293738   -1005.8833 
 1313600    812.91342    -1033.445    32.363811   -1001.0811 
 1313800    756.53706   -1035.4603    30.119348   -1005.3409 
 1314000     671.5207   -1035.3182    26.734666   -1008.5835 
 1314200    805.65212     -1034.38    32.074723   -1002.3053 
 1314400    757.66426   -1035.1692    30.164224    -1005.005 
 1314600    758.82707   -1037.7741    30.210518   -1007.5636 
 1314800    778.46546    -1034.541    30.992364   -1003.5486 
 1315000    827.41236   -1033.9562    32.941044   -1001.0151 
 1315200    774.09008   -1038.6743    30.818171   -1007.8561 
 1315400    700.05954   -1035.0112    27.870858   -1007.1404 
 1315600    798.55692   -1032.1817    31.792248   -1000.3894 
 1315800    709.06363   -1036.4402     28.22933   -1008.2108 
 1316000    725.41299   -1035.9686    28.880232   -1007.0884 
 1316200    759.50574   -1032.7243    30.237537   -1002.4868 
 1316400     766.0192   -1034.7031    30.496852   -1004.2062 
 1316600     687.6433   -1035.1273    27.376541   -1007.7508 
 1316800    795.74076   -1033.8631     31.68013    -1002.183 
 1317000    728.40251   -1032.3319    28.999252   -1003.3326 
 1317200    699.53043   -1037.1007    27.849793   -1009.2509 
 1317400    810.59667   -1035.8815    32.271576   -1003.6099 
 1317600    744.04124   -1034.0378    29.621863    -1004.416 
 1317800     739.4132   -1034.9588    29.437611   -1005.5212 
 1318000    717.45708   -1033.1976    28.563491   -1004.6341 
 1318200    759.31765    -1033.766    30.230049   -1003.5359 
 1318400      777.478    -1036.704    30.953051   -1005.7509 
 1318600    717.64995   -1033.6333    28.571169   -1005.0621 
 1318800    781.36386   -1033.2341    31.107755   -1002.1264 
 1319000    774.25359   -1034.2268    30.824681   -1003.4021 
 1319200    698.93603   -1035.2195    27.826128   -1007.3934 
 1319400    819.31547   -1035.9513     32.61869   -1003.3326 
 1319600    737.83185    -1033.058    29.374654   -1003.6833 
 1319800    786.39693   -1034.9179    31.308133   -1003.6098 
 1320000    794.66241   -1036.4817    31.637199   -1004.8445 
 1320200    801.58636    -1037.084    31.912856   -1005.1712 
 1320400    817.96941   -1034.9243      32.5651   -1002.3592 
 1320600    733.58498   -1033.5365    29.205577   -1004.3309 
 1320800    782.78398   -1035.4081    31.164293   -1004.2438 
 1321000    731.78383   -1032.8551    29.133869   -1003.7212 
 1321200    788.17934   -1032.8225    31.379094   -1001.4434 
 1321400    762.70673   -1035.4243    30.364975   -1005.0594 
 1321600    728.68998   -1036.9492    29.010696   -1007.9385 
 1321800     826.7185   -1033.1604     32.91342    -1000.247 
 1322000    769.11989   -1032.7553    30.620297    -1002.135 
 1322200    776.05787   -1037.0373    30.896513   -1006.1408 
 1322400    776.82949   -1037.7035    30.927233   -1006.7763 
 1322600    766.01093   -1033.4129    30.496523   -1002.9164 
 1322800    807.37023   -1034.8661    32.143124    -1002.723 
 1323000    752.04587   -1035.4625    29.940544    -1005.522 
 1323200    746.41825   -1032.5875    29.716497    -1002.871 
 1323400    812.75171   -1032.5751    32.357372   -1000.2177 
 1323600     681.3984   -1035.5233    27.127918   -1008.3954 
 1323800    701.18782     -1034.53    27.915777   -1006.6142 
 1324000    850.96565   -1033.5587     33.87875   -999.67995 
 1324200    745.46834   -1034.4216    29.678679   -1004.7429 
 1324400    702.06104   -1033.6247    27.950542   -1005.6741 
 1324600    789.02554   -1031.7005    31.412783   -1000.2877 
 1324800     714.9715   -1033.6601    28.464535   -1005.1955 
 1325000    756.13984   -1034.5574    30.103533   -1004.4538 
 1325200    816.88109   -1034.9636    32.521772   -1002.4418 
 1325400    754.07436   -1034.7272    30.021302   -1004.7058 
 1325600    771.08077    -1034.454    30.698364   -1003.7556 
 1325800    721.36441    -1034.101     28.71905   -1005.3819 
 1326000    791.64308   -1033.8883    31.516993   -1002.3713 
 1326200    760.17612   -1033.3986    30.264226   -1003.1344 
 1326400    764.43324   -1035.2304    30.433711   -1004.7967 
 1326600    764.69217    -1035.443     30.44402    -1004.999 
 1326800    803.56846    -1034.794    31.991768   -1002.8022 
 1327000    783.67971   -1032.4792    31.199954   -1001.2793 
 1327200    745.64706   -1034.0078    29.685794    -1004.322 
 1327400    766.82049   -1033.5116    30.528753   -1002.9828 
 1327600     782.6551   -1032.3899    31.159162   -1001.2307 
 1327800    743.09703   -1033.6366    29.584271   -1004.0524 
 1328000    712.15911   -1032.2162    28.352567   -1003.8636 
 1328200    804.50469   -1033.3837    32.029041   -1001.3547 
 1328400    694.75195   -1033.7141    27.659551   -1006.0545 
 1328600    775.05937   -1034.1257     30.85676    -1003.269 
 1328800    795.49336   -1031.3785    31.670281   -999.70822 
 1329000    769.12281   -1035.2624    30.620413    -1004.642 
 1329200    723.43363   -1033.9408     28.80143   -1005.1394 
 1329400    840.78037   -1032.4112    33.473253   -998.93799 
 1329600    732.00129    -1033.366    29.142527   -1004.2235 
 1329800     722.6296   -1033.4707     28.76942   -1004.7013 
 1330000    761.88957   -1031.5549    30.332442   -1001.2224 
 1330200    787.00815   -1034.4482    31.332466   -1003.1157 
 1330400    718.92316   -1034.2846    28.621858   -1005.6627 
 1330600    774.42443   -1035.4982    30.831482   -1004.6667 
 1330800    776.59989   -1033.9688    30.918092   -1003.0507 
 1331000     778.0898   -1036.1519    30.977408   -1005.1744 
 1331200    682.89162   -1032.4512    27.187366   -1005.2638 
 1331400    838.83764   -1031.6322    33.395909   -998.23632 
 1331600    699.90286   -1034.8317     27.86462    -1006.967 
 1331800    760.35034   -1035.5535    30.271162   -1005.2823 
 1332000    803.64487   -1031.8994     31.99481   -999.90458 
 1332200    744.07987   -1033.9212      29.6234   -1004.2978 
 1332400     707.6324   -1033.8298    28.172349   -1005.6574 
 1332600    774.32224   -1031.5972    30.827413   -1000.7698 
 1332800    784.92562   -1034.2944    31.249557   -1003.0449 
 1333000    678.85345   -1036.1576    27.026598    -1009.131 
 1333200    832.47344   -1032.3609    33.142536    -999.2184 
 1333400     780.1099   -1032.4165    31.057833   -1001.3587 
 1333600    679.33127   -1037.3658    27.045621   -1010.3202 
 1333800    777.63969   -1033.5418    30.959488   -1002.5823 
 1334000    841.46988   -1034.0807    33.500704     -1000.58 
 1334200    774.42837    -1037.205    30.831639   -1006.3733 
 1334400    751.68711   -1035.8297    29.926261   -1005.9035 
 1334600    796.94531   -1030.5231    31.728086   -998.79503 
 1334800    712.44755   -1031.3525    28.364051   -1002.9885 
 1335000    711.78742   -1035.1605     28.33777   -1006.8227 
 1335200    885.60804   -1033.6635    35.257938   -998.40554 
 1335400    783.92334   -1033.5697    31.209654   -1002.3601 
 1335600    718.82684   -1034.9393    28.618024   -1006.3213 
 1335800     782.6095   -1032.3943    31.157347    -1001.237 
 1336000    762.90084    -1031.008    30.372703   -1000.6353 
 1336200    724.73004   -1032.2415    28.853043   -1003.3884 
 1336400     742.3003   -1032.3231    29.552552   -1002.7705 
 1336600    805.11596    -1034.914    32.053377   -1002.8606 
 1336800    734.71535   -1033.5982    29.250579   -1004.3476 
 1337000    773.83877   -1033.0221    30.808166   -1002.2139 
 1337200    714.11767   -1030.0707    28.430542   -1001.6401 
 1337400    774.19342   -1034.3753    30.822285    -1003.553 
 1337600    714.83145   -1033.6743    28.458959   -1005.2154 
 1337800    777.21631   -1035.5507    30.942633   -1004.6081 
 1338000    816.40397   -1035.7373    32.502776   -1003.2345 
 1338200    780.73681   -1033.6282    31.082791   -1002.5454 
 1338400    798.13347   -1035.5149    31.775389   -1003.7396 
 1338600    751.65126   -1035.8108    29.924834   -1005.8859 
 1338800    800.76243   -1033.9818    31.880054   -1002.1017 
 1339000     766.5318   -1033.1263     30.51726    -1002.609 
 1339200    792.31366   -1034.4217     31.54369    -1002.878 
 1339400    730.07476   -1034.3244    29.065827   -1005.2586 
 1339600    773.82735   -1035.7794    30.807711   -1004.9717 
 1339800    839.27912   -1035.4661    33.413485   -1002.0526 
 1340000    730.82348   -1033.6347    29.095636    -1004.539 
 1340200     778.4678   -1036.1235    30.992457    -1005.131 
 1340400    753.26815   -1034.5144    29.989206   -1004.5252 
 1340600    780.59084    -1032.929     31.07698    -1001.852 
 1340800    746.35119   -1032.2598    29.713826    -1002.546 
 1341000    775.15659   -1034.3993    30.860631   -1003.5387 
 1341200      771.016   -1033.3318    30.695785    -1002.636 
 1341400    728.35635   -1032.2473    28.997414   -1003.2499 
 1341600    802.21382   -1034.3143    31.937837   -1002.3765 
 1341800    779.42651   -1035.3342    31.030625   -1004.3036 
 1342000    744.13133   -1034.0703    29.625449   -1004.4448 
 1342200    775.21747   -1032.1119    30.863055   -1001.2489 
 1342400    786.49444   -1034.3583    31.312015   -1003.0463 
 1342600     743.7539   -1034.5665    29.610423   -1004.9561 
 1342800    771.05974    -1034.265    30.697527   -1003.5675 
 1343000    832.02069   -1034.0159    33.124512   -1000.8913 
 1343200    765.23477   -1035.8909    30.465622   -1005.4253 
 1343400    737.06438   -1032.6777    29.344099   -1003.3336 
 1343600    807.42384   -1033.2144    32.145259   -1001.0691 
 1343800    767.04755   -1035.1934    30.537793   -1004.6556 
 1344000    801.16883   -1033.2664    31.896233   -1001.3702 
 1344200     739.4469   -1032.0916    29.438952   -1002.6527 
 1344400    791.74236   -1036.5999    31.520946   -1005.0789 
 1344600    749.32867   -1034.3785    29.832367   -1004.5462 
 1344800    855.14691   -1034.5994    34.045215   -1000.5542 
 1345000    774.57291   -1035.0948    30.837393   -1004.2574 
 1345200    789.67982   -1035.1883    31.438831   -1003.7495 
 1345400    835.60776   -1031.7053     33.26732   -998.43803 
 1345600    748.21738   -1032.8212    29.788124   -1003.0331 
 1345800    774.99365   -1035.6945    30.854144   -1004.8404 
 1346000    791.99462   -1032.8306    31.530989   -1001.2996 
 1346200    738.29548   -1030.6919    29.393111   -1001.2988 
 1346400    776.63493   -1035.2045    30.919487    -1004.285 
 1346600    775.80677   -1035.3813    30.886516   -1004.4948 
 1346800    793.39866   -1034.2057    31.586886   -1002.6188 
 1347000    764.84637   -1034.8828    30.450159   -1004.4326 
 1347200    769.96289   -1033.7869    30.653859    -1003.133 
 1347400    764.89304   -1032.8609    30.452017   -1002.4089 
 1347600    772.44002   -1035.5219    30.752478   -1004.7694 
 1347800    772.31505   -1034.9447    30.747503   -1004.1972 
 1348000    773.81544   -1033.3582    30.807237    -1002.551 
 1348200    794.50117   -1035.4933     31.63078   -1003.8625 
 1348400    765.37446   -1034.6622    30.471183    -1004.191 
 1348600     792.0044   -1033.9891    31.531378   -1002.4577 
 1348800    734.66892   -1032.1291    29.248731   -1002.8803 
 1349000    783.51375   -1032.7859    31.193347   -1001.5926 
 1349200    740.81864   -1034.0104    29.493564   -1004.5168 
 1349400    746.52206   -1034.6097    29.720629    -1004.889 
 1349600      816.588   -1034.3235    32.510103   -1001.8134 
 1349800    746.82132   -1033.1164    29.732543   -1003.3838 
 1350000    749.47211   -1034.4941    29.838077   -1004.6561 
 1350200    798.54587   -1034.4607    31.791808   -1002.6689 
 1350400    790.52732   -1035.2492    31.472572   -1003.7766 
 1350600    714.69373   -1033.2198    28.453476   -1004.7663 
 1350800    810.22717   -1035.5982    32.256865   -1003.3413 
 1351000    769.32085   -1033.1637    30.628297   -1002.5354 
 1351200    754.15921   -1034.5908     30.02468   -1004.5661 
 1351400     769.8511    -1035.197    30.649408   -1004.5476 
 1351600     757.3048   -1033.1844    30.149913   -1003.0345 
 1351800    764.80902   -1035.4869    30.448672   -1005.0383 
 1352000    729.54838   -1031.9188    29.044871   -1002.8739 
 1352200    770.08092   -1033.5459    30.658558   -1002.8873 
 1352400    764.82065   -1032.8113    30.449135   -1002.3622 
 1352600    781.03743   -1034.3435    31.094759   -1003.2488 
 1352800     798.5215   -1033.7882    31.790838   -1001.9974 
 1353000    787.64247    -1033.813     31.35772   -1002.4553 
 1353200    757.57049   -1033.7903    30.160491   -1003.6298 
 1353400    782.75673   -1034.9179    31.163208   -1003.7547 
 1353600    798.70096   -1034.1213    31.797982   -1002.3233 
 1353800    789.62359   -1033.5268    31.436593   -1002.0902 
 1354000    806.64478   -1034.4231    32.114243   -1002.3088 
 1354200    740.81322   -1034.3156    29.493348   -1004.8223 
 1354400    825.48799   -1034.3544    32.864431   -1001.4899 
 1354600    757.72129   -1033.8943    30.166494   -1003.7278 
 1354800    751.04922   -1036.7006    29.900865   -1006.7997 
 1355000    746.75558   -1032.3294    29.729926   -1002.5995 
 1355200    792.96644   -1034.0951    31.569679   -1002.5254 
 1355400    744.85778   -1035.3423    29.654371   -1005.6879 
 1355600    795.48151   -1035.1776    31.669809   -1003.5078 
 1355800    770.30461   -1032.7613    30.667463   -1002.0939 
 1356000    772.15358   -1034.6355    30.741074   -1003.8944 
 1356200    738.51301    -1033.463    29.401772   -1004.0612 
 1356400    795.95616   -1031.6912    31.688706   -1000.0025 
 1356600    743.12401   -1033.8036    29.585346   -1004.2183 
 1356800    783.69469   -1036.8998    31.200551   -1005.6993 
 1357000    794.11321   -1032.0663    31.615334    -1000.451 
 1357200    750.36324   -1034.4797    29.873555   -1004.6062 
 1357400    796.74745   -1035.8647    31.720209   -1004.1445 
 1357600    752.92654   -1033.2376    29.975605    -1003.262 
 1357800    742.99039   -1031.1348    29.580026   -1001.5548 
 1358000    799.62485   -1033.8537    31.834764    -1002.019 
 1358200     772.3695   -1035.9319    30.749671   -1005.1822 
 1358400    771.05932   -1033.9001     30.69751   -1003.2026 
 1358600    757.38114   -1030.8986    30.152953   -1000.7456 
 1358800    748.12199    -1034.626    29.784326   -1004.8417 
 1359000    805.23046   -1035.4728    32.057936   -1003.4149 
 1359200    839.30853   -1033.4796    33.414656   -1000.0649 
 1359400     730.0927   -1032.8496    29.066542   -1003.7831 
 1359600    761.47754   -1035.7268    30.316039   -1005.4107 
 1359800    771.59053   -1032.9393    30.718659   -1002.2207 
 1360000    824.98939   -1036.0114     32.84458   -1003.1668 
 1360200    711.77112   -1036.3156     28.33712   -1007.9784 
 1360400    847.27322   -1034.8139    33.731747   -1001.0822 
 1360600    802.19592   -1032.9847    31.937124   -1001.0476 
 1360800    700.49381   -1035.2793    27.888147   -1007.3912 
 1361000    815.85048   -1033.1732    32.480741   -1000.6925 
 1361200    820.26322   -1033.7307    32.656422   -1001.0743 
 1361400    760.56077   -1037.4317     30.27954   -1007.1522 
 1361600    780.27684   -1036.2851    31.064479   -1005.2207 
 1361800     789.8241   -1033.3666    31.444576    -1001.922 
 1362000     717.1259   -1033.6045    28.550306   -1005.0542 
 1362200     751.0358   -1032.6148    29.900331   -1002.7144 
 1362400    810.94087   -1032.2448    32.285279   -999.95955 
 1362600    787.24938   -1037.9344     31.34207   -1006.5924 
 1362800    752.84834   -1035.8992    29.972492   -1005.9267 
 1363000    867.65788   -1034.2162    34.543304   -999.67294 
 1363200    752.66904   -1032.8167    29.965354   -1002.8513 
 1363400    769.90263   -1036.0028    30.651459   -1005.3514 
 1363600    799.35298   -1033.3285     31.82394   -1001.5046 
 1363800    797.14395   -1033.6252    31.735994   -1001.8892 
 1364000    726.97485   -1034.5336    28.942413   -1005.5912 
 1364200    789.35675   -1035.7188    31.425969   -1004.2928 
 1364400    768.98807   -1032.9086    30.615049   -1002.2935 
 1364600    762.98547   -1033.7182    30.376073   -1003.3421 
 1364800     745.1151     -1034.58    29.664615   -1004.9154 
 1365000    786.81624    -1033.604    31.324826   -1002.2792 
 1365200    823.52439   -1034.2741    32.786256   -1001.4878 
 1365400    769.40283   -1034.5273    30.631561   -1003.8957 
 1365600    804.69121   -1036.4819    32.036467   -1004.4455 
 1365800    853.10732   -1035.5954    33.964015   -1001.6314 
 1366000    754.10344   -1031.9074     30.02246   -1001.8849 
 1366200    740.03093   -1034.1686    29.462204   -1004.7064 
 1366400    807.91639   -1034.7919    32.164868    -1002.627 
 1366600    755.00927   -1032.6146    30.058523   -1002.5561 
 1366800    758.19002   -1031.1134    30.185156   -1000.9283 
 1367000    809.02687   -1034.4819    32.209078   -1002.2728 
 1367200    732.62565   -1036.6695    29.167384   -1007.5021 
 1367400    745.45141   -1033.0109    29.678004   -1003.3329 
 1367600    819.35404   -1033.5002    32.620225     -1000.88 
 1367800    738.49475   -1033.1025    29.401045   -1003.7015 
 1368000    806.11298   -1035.7993    32.093071   -1003.7062 
 1368200    796.10496   -1032.9649     31.69463   -1001.2702 
 1368400    797.22518   -1034.4962    31.739228    -1002.757 
 1368600    764.99356   -1035.5211    30.456019   -1005.0651 
 1368800    795.87081   -1032.9121    31.685308   -1001.2268 
 1369000    790.29801    -1035.098    31.463443   -1003.6345 
 1369200     739.6868   -1034.7466    29.448503   -1005.2981 
 1369400    793.83975   -1032.7227    31.604447   -1001.1183 
 1369600    742.04765   -1032.9815    29.542493    -1003.439 
 1369800    800.40427   -1033.8838    31.865794    -1002.018 
 1370000    772.92015   -1034.0299    30.771594   -1003.2583 
 1370200    809.56897   -1034.6246    32.230661    -1002.394 
 1370400    729.24664   -1034.6547    29.032858   -1005.6218 
 1370600    785.65585   -1033.0025    31.278629   -1001.7239 
 1370800    771.25024   -1032.9991    30.705111    -1002.294 
 1371000    782.28807    -1034.362     31.14455   -1003.2175 
 1371200    849.71979   -1035.2382     33.82915    -1001.409 
 1371400    798.57407   -1033.3865     31.79293   -1001.5936 
 1371600    756.48984   -1032.1999    30.117468   -1002.0824 
 1371800     761.6432   -1031.8166    30.322634   -1001.4939 
 1372000    827.67329   -1032.1679    32.951432   -999.21649 
 1372200    783.61046   -1034.0622    31.197197    -1002.865 
 1372400    746.99247   -1032.7934    29.739357    -1003.054 
 1372600    829.01258    -1029.827    33.004752   -996.82222 
 1372800    754.98258   -1032.5394    30.057461   -1002.4819 
 1373000    749.38406   -1033.9727    29.834572   -1004.1381 
 1373200    818.85387   -1032.6068    32.600312   -1000.0064 
 1373400    798.05668   -1032.1922    31.772332   -1000.4199 
 1373600    730.60691   -1032.8641    29.087013   -1003.7771 
 1373800    824.38193   -1033.7133    32.820396   -1000.8929 
 1374000    816.79327   -1029.9908    32.518275   -997.47251 
 1374200     751.0702   -1031.9434      29.9017   -1002.0417 
 1374400    781.12411   -1035.0542     31.09821    -1003.956 
 1374600     818.2783   -1033.0833    32.577398   -1000.5059 
 1374800    769.76024   -1033.1944    30.645791   -1002.5487 
 1375000     811.2538   -1034.4421    32.297738   -1002.1443 
 1375200    803.51643   -1033.4697    31.989696     -1001.48 
 1375400    788.97928   -1031.1534    31.410941   -999.74242 
 1375600     773.4066   -1033.1049     30.79096    -1002.314 
 1375800    786.68524   -1036.0783    31.319611   -1004.7586 
 1376000    759.30383   -1031.8911    30.229499   -1001.6616 
 1376200    799.79458   -1032.3031    31.841522   -1000.4615 
 1376400    786.94547   -1032.7788    31.329971   -1001.4488 
 1376600    759.09512   -1032.3273    30.221189   -1002.1061 
 1376800     785.6073   -1032.6799    31.276696   -1001.4032 
 1377000    795.91203   -1032.8045    31.686949   -1001.1176 
 1377200      774.335   -1031.4174    30.827921   -1000.5895 
 1377400    779.68339   -1031.0819    31.040852   -1000.0411 
 1377600    771.98054   -1035.1748    30.734185   -1004.4406 
 1377800    772.97384   -1031.8136    30.773731   -1001.0398 
 1378000    789.62369   -1032.2199    31.436597   -1000.7833 
 1378200    741.31061   -1031.9838     29.51315   -1002.4706 
 1378400    753.01171   -1031.8015    29.978996   -1001.8225 
 1378600    793.56664   -1032.2817    31.593574   -1000.6882 
 1378800    830.19194   -1034.4878    33.051705   -1001.4361 
 1379000    779.55676   -1034.9448    31.035811    -1003.909 
 1379200    790.98428   -1032.5836    31.490765   -1001.0928 
 1379400    796.92628   -1032.8622    31.727328   -1001.1348 
 1379600    734.42777   -1033.6844     29.23913   -1004.4452 
 1379800    848.83746   -1035.2326    33.794023   -1001.4386 
 1380000    772.12809   -1032.0803     30.74006   -1001.3402 
 1380200    702.90182   -1033.0057    27.984015   -1005.0217 
 1380400    748.12915    -1033.496    29.784611   -1003.7113 
 1380600     817.1224    -1032.429    32.531379   -999.89762 
 1380800    830.77673   -1035.0282    33.074987   -1001.9532 
 1381000    708.05988   -1035.3552    28.189368   -1007.1659 
 1381200    818.65013    -1031.832    32.592201   -999.23981 
 1381400     777.1187   -1032.7133    30.938746   -1001.7746 
 1381600     782.3534   -1036.6076    31.147151   -1005.4605 
 1381800    814.82174   -1034.7176    32.439785   -1002.2778 
 1382000    841.41761   -1033.6867    33.498623   -1000.1881 
 1382200    775.56761   -1035.4888    30.876994   -1004.6118 
 1382400    746.60398   -1034.3956    29.723891   -1004.6717 
 1382600    905.90893   -1035.2846    36.066159    -999.2184 
 1382800    751.95278   -1035.2161    29.936838   -1005.2793 
 1383000    768.26843    -1034.764    30.586399   -1004.1776 
 1383200     817.6921   -1033.1408     32.55406   -1000.5867 
 1383400    843.84401    -1035.007    33.595223   -1001.4118 
 1383600    688.68259   -1034.3254    27.417917   -1006.9075 
 1383800    801.01124    -1033.922    31.889959    -1002.032 
 1384000    762.46422   -1032.6836    30.355321   -1002.3283 
 1384200    799.28907   -1036.7256    31.821396   -1004.9042 
 1384400    810.93555   -1034.7403    32.285067   -1002.4552 
 1384600     753.5207   -1033.6399     29.99926   -1003.6406 
 1384800    757.02205   -1034.6153    30.138656   -1004.4766 
 1385000    837.41089   -1033.9894    33.339107   -1000.6502 
 1385200    779.70413   -1034.3526    31.041678   -1003.3109 
 1385400    822.22738   -1034.8252    32.734619   -1002.0905 
 1385600    805.65156   -1033.9584      32.0747   -1001.8837 
 1385800    814.68078   -1035.1253    32.434173   -1002.6911 
 1386000    762.53367   -1033.4907    30.358086   -1003.1326 
 1386200    784.30247   -1034.3474    31.224748   -1003.1226 
 1386400    782.00844   -1031.7639    31.133418   -1000.6305 
 1386600    763.47162   -1029.1838    30.395427   -998.78839 
 1386800    750.27564    -1032.101    29.870067   -1002.2309 
 1387000    741.57541   -1033.1821    29.523693   -1003.6585 
 1387200    792.44962   -1031.7865    31.549103   -1000.2374 
 1387400    760.73258   -1033.3727     30.28638   -1003.0863 
 1387600    826.08916    -1033.961    32.888365   -1001.0727 
 1387800    793.88611   -1033.4482    31.606293   -1001.8419 
 1388000    708.74916   -1031.4645     28.21681   -1003.2477 
 1388200    787.57681    -1032.473    31.355106   -1001.1179 
 1388400    814.50355   -1035.1784    32.427117   -1002.7513 
 1388600    775.06768   -1036.4966    30.857091   -1005.6395 
 1388800    823.89991    -1033.705    32.801206   -1000.9038 
 1389000    807.70563   -1033.4429    32.156477   -1001.2865 
 1389200    766.45112    -1033.746    30.514048    -1003.232 
 1389400    777.79741   -1032.5702    30.965768   -1001.6045 
 1389600    754.28025   -1033.5897    30.029499   -1003.5602 
 1389800     804.7127   -1035.0538    32.037322   -1003.0165 
 1390000    848.80363   -1034.2573    33.792676   -1000.4646 
 1390200    795.26227   -1034.9221    31.661081   -1003.2611 
 1390400    753.18495    -1035.493    29.985893   -1005.5071 
 1390600     793.5141   -1034.0833    31.591482   -1002.4918 
 1390800    751.94551   -1031.8768    29.936548   -1001.9403 
 1391000    774.84996   -1034.4308    30.848423   -1003.5824 
 1391200    800.19601   -1033.2937    31.857503   -1001.4362 
 1391400    801.38838   -1031.4114    31.904974   -999.50647 
 1391600    740.79086   -1034.7944    29.492458   -1005.3019 
 1391800    750.47809   -1034.8965    29.878127   -1005.0184 
 1392000    878.27371    -1031.818    34.965943   -996.85204 
 1392200    768.68552   -1032.2935    30.603004   -1001.6905 
 1392400    722.45721   -1036.5931    28.762556   -1007.8305 
 1392600    809.98926   -1033.6136    32.247393   -1001.3662 
 1392800    851.70306   -1032.0624    33.908109   -998.15434 
 1393000    709.94913   -1034.7792    28.264583   -1006.5146 
 1393200    770.33282   -1035.9155    30.668586   -1005.2469 
 1393400    841.20099   -1032.7002    33.489999   -999.21024 
 1393600    773.75673   -1034.3044      30.8049   -1003.4995 
 1393800    776.28694   -1036.5949    30.905632   -1005.6893 
 1394000    834.32931   -1032.0506    33.216423   -998.83413 
 1394200    768.44225   -1034.1472    30.593319   -1003.5539 
 1394400    767.06184   -1036.2793    30.538362    -1005.741 
 1394600    810.97051   -1032.5887    32.286459   -1000.3022 
 1394800     809.4892   -1034.8647    32.227485   -1002.6372 
 1395000    778.83737   -1036.7824    31.007171   -1005.7752 
 1395200     784.4475   -1034.6455    31.230522    -1003.415 
 1395400    778.55586   -1033.5306    30.995963   -1002.5347 
 1395600    800.81668   -1033.7958    31.882213   -1001.9136 
 1395800    734.95937   -1032.7467    29.260294   -1003.4864 
 1396000    767.27683   -1033.1237    30.546921   -1002.5768 
 1396200    809.00231    -1032.763    32.208101   -1000.5549 
 1396400    791.57745   -1033.0795     31.51438   -1001.5651 
 1396600     778.1229    -1031.398    30.978726   -1000.4192 
 1396800    816.25249   -1033.0535    32.496746   -1000.5568 
 1397000    728.12673   -1032.4475    28.988272   -1003.4592 
 1397200    837.61566   -1033.9994    33.347259   -1000.6521 
 1397400    832.65814   -1033.7473     33.14989   -1000.5974 
 1397600    707.94654   -1031.4404    28.184856   -1003.2555 
 1397800    829.42634   -1032.9326    33.021225   -999.91137 
 1398000     722.3619   -1031.5203    28.758762   -1002.7616 
 1398200    788.89236   -1033.5156    31.407481   -1002.1081 
 1398400    782.25174   -1031.0787    31.143104   -999.93556 
 1398600    788.74775   -1034.3094    31.401724   -1002.9076 
 1398800    799.50296   -1034.4562    31.829912   -1002.6263 
 1399000    775.87052   -1030.1206    30.889054   -999.23153 
 1399200    806.36559   -1033.3855    32.103127   -1001.2824 
 1399400    752.77436   -1033.4536    29.969547   -1003.4841 
 1399600    789.87947   -1031.0731     31.44678   -999.62635 
 1399800    772.21267   -1032.5839    30.743427   -1001.8404 
 1400000    731.45091   -1033.6868    29.120615   -1004.5662 
 1400200    828.47475   -1033.0471     32.98334   -1000.0637 
 1400400    816.55896    -1032.137    32.508947   -999.62803 
 1400600    766.84266   -1035.8835    30.529636   -1005.3539 
 1400800     784.4374   -1035.1038     31.23012   -1003.8737 
 1401000    761.24598   -1030.5924     30.30682   -1000.2856 
 1401200     824.8874   -1031.2277     32.84052   -998.38717 
 1401400      706.624   -1034.2051    28.132203   -1006.0729 
 1401600    741.61587   -1033.4297    29.525303   -1003.9044 
 1401800    889.24577   -1031.3129    35.402764   -995.91013 
 1402000    732.74966   -1032.7368    29.172321   -1003.5645 
 1402200    766.50535   -1034.7349    30.516207   -1004.2187 
 1402400    804.74715   -1030.1406    32.038694   -998.10195 
 1402600    769.63058   -1031.4843    30.640629   -1000.8437 
 1402800    717.69863   -1034.8249    28.573107   -1006.2518 
 1403000    826.99072   -1032.6252    32.924258    -999.7009 
 1403200    808.24956   -1029.8048    32.178132   -997.62665 
 1403400     738.4165   -1034.9802     29.39793   -1005.5822 
 1403600    789.57074   -1034.2714    31.434489   -1002.8369 
 1403800    839.60827   -1032.9869    33.426589   -999.56029 
 1404000    777.70891   -1032.5119    30.962244   -1001.5496 
 1404200    762.15381   -1031.9256    30.342962   -1001.5826 
 1404400    772.78589   -1032.4496    30.766248   -1001.6833 
 1404600    786.12979   -1034.5328    31.297497   -1003.2353 
 1404800    759.79413   -1033.0018    30.249019   -1002.7528 
 1405000    789.46517     -1033.43    31.430286   -1001.9997 
 1405200     734.7001   -1033.3495    29.249972   -1004.0995 
 1405400    826.25101     -1032.18    32.894808    -999.2852 
 1405600    808.98219   -1033.5136      32.2073   -1001.3063 
 1405800    816.75337    -1036.292    32.516687   -1003.7753 
 1406000     757.2941    -1034.618    30.149487   -1004.4686 
 1406200    796.98681   -1034.9637    31.729738   -1003.2339 
 1406400    850.99097   -1034.7102    33.879759   -1000.8305 
 1406600    730.72459   -1036.5494    29.091698   -1007.4577 
 1406800    839.97933   -1036.1884    33.441362    -1002.747 
 1407000    777.65978   -1031.8523    30.960288    -1000.892 
 1407200    777.39033   -1034.3587    30.949561   -1003.4092 
 1407400     765.2972   -1035.7514    30.468108   -1005.2833 
 1407600    743.21295   -1032.6382    29.588886   -1003.0494 
 1407800    840.96151   -1032.2247    33.480465   -998.74423 
 1408000    739.50608    -1035.561    29.441308   -1006.1197 
 1408200     751.4644   -1032.5236    29.917394   -1002.6062 
 1408400    789.57535   -1030.4148    31.434672   -998.98014 
 1408600     708.5089   -1032.0376    28.207245   -1003.8303 
 1408800    834.36153   -1035.0988    33.217705   -1001.8811 
 1409000    811.58638   -1034.4269    32.310978    -1002.116 
 1409200    783.74708   -1034.4035    31.202636   -1003.2009 
 1409400    799.51241   -1034.2305    31.830288   -1002.4002 
 1409600    791.47707   -1033.0371    31.510384   -1001.5267 
 1409800    788.38268   -1034.6251     31.38719   -1003.2379 
 1410000     770.2513   -1031.2604    30.665341    -1000.595 
 1410200    807.32561   -1033.9798    32.141348   -1001.8385 
 1410400    727.97283   -1032.4278    28.982145   -1003.4457 
 1410600    810.64843   -1031.6442    32.273636   -999.37055 
 1410800    794.98976    -1032.515    31.650231   -1000.8648 
 1411000    802.56545    -1034.739    31.951836   -1002.7872 
 1411200     799.6804   -1031.9967    31.836976   -1000.1598 
 1411400    810.08069   -1033.3578    32.251033   -1001.1067 
 1411600    818.74029   -1037.3155    32.595791   -1004.7197 
 1411800     819.0707   -1034.7726    32.608945   -1002.1636 
 1412000    776.03882    -1032.019    30.895754   -1001.1232 
 1412200    799.72465   -1034.5144    31.838737   -1002.6757 
 1412400    821.14417   -1034.6362    32.691494   -1001.9447 
 1412600     786.9506     -1034.75    31.330175   -1003.4198 
 1412800    794.06644   -1032.4461    31.613472   -1000.8326 
 1413000    791.66328   -1030.2276    31.517797   -998.70977 
 1413200    770.06759   -1033.2021    30.658027   -1002.5441 
 1413400    841.68177   -1037.2502     33.50914    -1003.741 
 1413600    776.57446   -1032.0835    30.917079   -1001.1664 
 1413800     850.3386   -1031.8742    33.853786   -998.02042 
 1414000    731.37121   -1032.4965    29.117442    -1003.379 
 1414200    863.85949   -1033.0684    34.392082   -998.67627 
 1414400    810.52491   -1032.2288    32.268719   -999.96003 
 1414600    808.32157   -1032.2282    32.180999   -1000.0472 
 1414800    793.50951   -1030.9135      31.5913   -999.32215 
 1415000    758.21563   -1031.7282    30.186175    -1001.542 
 1415200    831.96235   -1032.8586    33.122189   -999.73644 
 1415400    776.26209   -1032.1595    30.904643   -1001.2549 
 1415600    807.72519   -1028.2225    32.157256   -996.06527 
 1415800    784.65684   -1031.0644    31.238856   -999.82552 
 1416000    795.22108   -1034.9556    31.659441   -1003.2962 
 1416200    800.15961   -1031.6059    31.856054   -999.74982 
 1416400    793.87197   -1030.1882     31.60573   -998.58245 
 1416600    757.26041   -1033.4262    30.148146   -1003.2781 
 1416800    782.86593   -1032.7629    31.167556   -1001.5954 
 1417000    831.92231   -1030.8854    33.120595   -997.76476 
 1417200    814.00704   -1033.0247     32.40735   -1000.6174 
 1417400     826.6834   -1034.8964    32.912023   -1001.9843 
 1417600    805.84739   -1031.1628    32.082497   -999.08026 
 1417800    812.73663   -1031.7374    32.356772   -999.38064 
 1418000     764.7893   -1032.7898    30.447887   -1002.3419 
 1418200     775.8422   -1031.9841    30.887926   -1001.0962 
 1418400     843.0567   -1031.2538    33.563879   -997.68996 
 1418600    771.06852    -1031.534    30.697876   -1000.8361 
 1418800    815.51886    -1034.052    32.467538   -1001.5844 
 1419000    802.61643   -1030.8128    31.953865   -998.85892 
 1419200    789.29467   -1031.8171    31.423498   -1000.3936 
 1419400     799.3866    -1031.932    31.825279   -1000.1067 
 1419600    828.06773   -1030.8219    32.967136   -997.85472 
 1419800    808.72235   -1030.6987    32.196955   -998.50179 
 1420000    829.82283   -1034.8908     33.03701   -1001.8538 
 1420200    826.78454   -1034.8598    32.916049   -1001.9437 
 1420400    847.21594   -1029.2761    33.729466   -995.54666 
 1420600    771.39289   -1031.8121     30.71079   -1001.1013 
 1420800    763.39521   -1032.9121    30.392385   -1002.5197 
 1421000    813.94179   -1031.2011    32.404752   -998.79637 
 1421200     821.1348   -1030.3018    32.691121   -997.61065 
 1421400     783.0153   -1032.6992    31.173503   -1001.5257 
 1421600    779.06445   -1032.5159    31.016211   -1001.4997 
 1421800    841.11328    -1029.896    33.486507    -996.4095 
 1422000    768.60282    -1034.606    30.599711   -1004.0063 
 1422200    781.89259   -1032.6117    31.128805   -1001.4829 
 1422400     843.8929   -1029.0862    33.597169   -995.48905 
 1422600     730.5152   -1033.0851    29.083362   -1004.0018 
 1422800    774.47045   -1033.7643    30.833314    -1002.931 
 1423000    807.93395   -1030.1563    32.165567   -997.99074 
 1423200    798.23198   -1032.5156    31.779311   -1000.7363 
 1423400    809.30591   -1034.1472    32.220188    -1001.927 
 1423600    779.55506   -1031.3141    31.035743   -1000.2783 
 1423800    793.56658   -1031.0335    31.593572   -999.43994 
 1424000    734.51122    -1031.301    29.242452   -1002.0586 
 1424200    786.61356   -1031.6529    31.316757   -1000.3361 
 1424400    853.40488   -1032.9381    33.975861   -998.96222 
 1424600    719.45023   -1031.6155    28.642842   -1002.9727 
 1424800    859.86663   -1032.7976    34.233118   -998.56444 
 1425000    742.47174   -1030.4591    29.559378   -1000.8997 
 1425200    804.40099    -1031.816    32.024912   -999.79113 
 1425400    780.16431   -1031.6853    31.059999   -1000.6253 
 1425600     768.6204   -1031.6136    30.600411   -1001.0132 
 1425800     857.7071   -1033.1095    34.147142    -998.9624 
 1426000    777.45037    -1032.183    30.951951    -1001.231 
 1426200    768.49085   -1030.1314    30.595254   -999.53616 
 1426400    765.97096   -1032.2958    30.494931   -1001.8009 
 1426600    829.25486   -1032.0283    33.014398   -999.01392 
 1426800    799.77511   -1031.7054    31.840746   -999.86464 
 1427000    743.95873    -1030.809    29.618578   -1001.1904 
 1427200     850.8469   -1032.5776    33.874023   -998.70362 
 1427400    823.81813   -1033.4973     32.79795   -1000.6993 
 1427600    818.33429   -1032.5962    32.579627   -1000.0166 
 1427800     811.1161   -1030.7678    32.292255   -998.47551 
 1428000    782.20605   -1031.4242    31.141285    -1000.283 
 1428200    789.45181   -1033.0079    31.429754   -1001.5782 
 1428400    818.24181   -1033.5962    32.575945   -1001.0203 
 1428600    880.94938   -1031.7508    35.072467   -996.67831 
 1428800    736.40335    -1032.221    29.317782   -1002.9032 
 1429000    792.93862    -1034.575    31.568571   -1003.0064 
 1429200    859.66757   -1030.5526    34.225193   -996.32741 
 1429400    785.88156   -1031.8491    31.287614   -1000.5615 
 1429600    737.58201   -1033.7845    29.364707   -1004.4197 
 1429800    851.94384    -1030.823    33.917694   -996.90529 
 1430000    824.81826   -1032.2345    32.837767   -999.39678 
 1430200    791.49088   -1035.4157    31.510934   -1003.9047 
 1430400    828.16112   -1031.9592    32.970854   -998.98835 
 1430600    785.40661   -1030.9611    31.268706   -999.69244 
 1430800    823.06069   -1034.4181    32.767795   -1001.6503 
 1431000    774.19622   -1031.9016    30.822396   -1001.0792 
 1431200    860.70448   -1031.8404    34.266474   -997.57394 
 1431400    801.81908   -1032.3127    31.922121   -1000.3906 
 1431600    781.50089   -1033.4069    31.113211   -1002.2937 
 1431800    784.03268   -1030.3922    31.214007   -999.17823 
 1432000    779.19605   -1031.7741     31.02145   -1000.7527 
 1432200    793.38387   -1031.0128    31.586298    -999.4265 
 1432400    828.48092   -1029.9844    32.983586   -997.00086 
 1432600    769.11689   -1030.3628    30.620178   -999.74261 
 1432800    808.73245   -1032.1435    32.197357   -999.94615 
 1433000    786.38782   -1030.9669     31.30777   -999.65916 
 1433200     838.8864   -1031.2369     33.39785   -997.83903 
 1433400    804.08633   -1034.3135    32.012385   -1002.3011 
 1433600     822.4434   -1033.7249    32.743219   -1000.9817 
 1433800    819.81699   -1030.6428    32.638656   -998.00417 
 1434000    784.86447   -1030.5034    31.247122   -999.25628 
 1434200    829.76748   -1034.1241    33.034806   -1001.0893 
 1434400    781.55855   -1029.8345    31.115506   -998.71899 
 1434600    844.61843    -1032.113    33.626054   -998.48699 
 1434800     805.9671   -1035.2504    32.087263   -1003.1632 
 1435000    838.37698   -1030.0272    33.377569   -996.64962 
 1435200    853.82738   -1032.4534    33.992682   -998.46073 
 1435400    772.71539   -1036.5753    30.763441   -1005.8118 
 1435600    762.86186   -1030.5759    30.371151   -1000.2048 
 1435800    831.54207   -1028.5927    33.105456   -995.48723 
 1436000    785.52174   -1033.7614     31.27329   -1002.4881 
 1436200    788.99461    -1034.808    31.411552   -1003.3965 
 1436400    831.84784   -1031.2036     33.11763   -998.08598 
 1436600    744.65133   -1029.1022    29.646152   -999.45609 
 1436800    761.41177   -1033.2232     30.31342   -1002.9098 
 1437000    822.99785   -1031.8808    32.765293   -999.11548 
 1437200    765.00071   -1029.8176    30.456304   -999.36131 
 1437400    815.55492    -1030.909    32.468974   -998.44007 
 1437600    843.83837   -1032.5986    33.594998   -999.00356 
 1437800    802.64624   -1031.4403    31.955052   -999.48522 
 1438000    890.10817   -1032.6525    35.437097   -997.21539 
 1438200    825.51853   -1032.2725    32.865647   -999.40682 
 1438400    803.86118   -1032.7907    32.003421   -1000.7872 
 1438600    773.92118   -1033.5265    30.811447   -1002.7151 
 1438800    839.57638   -1033.7572     33.42532   -1000.3318 
 1439000     785.7348   -1031.8624    31.281772   -1000.5806 
 1439200    777.42788    -1032.111    30.951055     -1001.16 
 1439400    771.72536   -1033.2273    30.724026   -1002.5032 
 1439600    779.27246   -1032.2154    31.024492   -1001.1909 
 1439800    808.50259   -1030.3781    32.188206   -998.18991 
 1440000    851.51462   -1035.4604    33.900606   -1001.5598 
 1440200    750.08531   -1033.7717     29.86249   -1003.9092 
 1440400    831.44967   -1027.5825    33.101778    -994.4807 
 1440600    767.46853   -1029.2671    30.554553   -998.71256 
 1440800     759.9994   -1032.8852    30.257191    -1002.628 
 1441000    837.11039   -1033.1823    33.327143   -999.85519 
 1441200    837.35368   -1031.0724    33.336829   -997.73555 
 1441400    762.12702   -1029.6561    30.341896   -999.31421 
 1441600    780.63943   -1031.6245    31.078914   -1000.5456 
 1441800    858.46347     -1033.06    34.177255   -998.88275 
 1442000    797.65889   -1033.6405    31.756495    -1001.884 
 1442200    821.52008   -1032.6325     32.70646   -999.92609 
 1442400    846.62355   -1032.5962    33.705882   -998.89034 
 1442600    814.64737   -1034.3443    32.432843   -1001.9114 
 1442800    826.75967   -1034.8781    32.915059    -1001.963 
 1443000    793.30157   -1029.6779    31.583021   -998.09492 
 1443200    866.36858   -1034.5891    34.491974   -1000.0971 
 1443400     789.3969   -1036.8275    31.427568   -1005.3999 
 1443600    857.28313   -1033.5014    34.130263   -999.37114 
 1443800     775.4005   -1031.1237    30.870341   -1000.2534 
 1444000    745.93149   -1033.1357    29.697117   -1003.4385 
 1444200     855.5366   -1031.5764     34.06073   -997.51569 
 1444400    860.05741   -1034.5539    34.240713   -1000.3132 
 1444600    770.62538   -1034.6101    30.680234   -1003.9299 
 1444800    849.68071   -1032.6475    33.827594   -998.81989 
 1445000    816.44874   -1032.6823    32.504559   -1000.1778 
 1445200    779.95268   -1034.4743    31.051573   -1003.4227 
 1445400    854.82847   -1032.7875    34.032538   -998.75496 
 1445600    761.69994   -1032.0472    30.324893   -1001.7223 
 1445800    716.49494   -1031.9657    28.525186   -1003.4405 
 1446000    911.02407   -1032.9988    36.269804   -996.72904 
 1446200    793.58524   -1032.2053    31.594315    -1000.611 
 1446400    752.18616   -1035.0344    29.946129   -1005.0883 
 1446600     795.5128   -1031.1947    31.671055   -999.52368 
 1446800    848.88606   -1031.4531    33.795958   -997.65711 
 1447000    743.15158   -1032.1182    29.586443   -1002.5317 
 1447200    791.45841   -1031.0268    31.509641   -999.51712 
 1447400    809.78365   -1032.7794    32.239208   -1000.5402 
 1447600    833.44774   -1034.8304    33.181325   -1001.6491 
 1447800    807.41468    -1033.378    32.144894   -1001.2331 
 1448000    899.35635   -1035.4904    35.805287    -999.6851 
 1448200    783.97199   -1033.4655    31.211591   -1002.2539 
 1448400    813.37007   -1033.5579     32.38199   -1001.1759 
 1448600    795.11561   -1028.5713    31.655242   -996.91611 
 1448800    839.61737   -1030.3977    33.426952   -996.97077 
 1449000    749.85168   -1033.7679    29.853188   -1003.9147 
 1449200    833.08656   -1034.2936    33.166946   -1001.1266 
 1449400    861.41975   -1030.2972     34.29495   -996.00221 
 1449600    787.63537   -1031.9439    31.357438   -1000.5865 
 1449800     780.1514    -1033.769    31.059485   -1002.7095 
 1450000    854.33873   -1030.9658     34.01304   -996.95277 
 1450200    799.61199   -1034.2624    31.834252   -1002.4281 
 1450400    792.06885   -1035.9707    31.533944   -1004.4368 
 1450600    856.56391   -1030.9402    34.101629    -996.8386 
 1450800    779.25664   -1032.9067    31.023863   -1001.8829 
 1451000    747.09942   -1035.7623    29.743615   -1006.0187 
 1451200    811.81961   -1032.7166    32.320264   -1000.3963 
 1451400     865.6632   -1031.7037    34.463891   -997.23983 
 1451600    736.57791   -1034.4593    29.324732   -1005.1346 
 1451800     820.8173   -1034.6445    32.678481   -1001.9661 
 1452000    765.79086   -1026.7975    30.487761   -996.30969 
 1452200    799.84114   -1033.4241    31.843375   -1001.5808 
 1452400    754.94003   -1036.1492    30.055767   -1006.0934 
 1452600    791.95645   -1027.3879    31.529469   -995.85838 
 1452800    815.64306   -1030.5151    32.472483   -998.04266 
 1453000    739.07561   -1034.7016     29.42417   -1005.2775 
 1453200     863.6266   -1031.5937     34.38281   -997.21085 
 1453400    782.29647   -1030.3928    31.144885   -999.24793 
 1453600    820.12367   -1035.6437    32.650866   -1002.9928 
 1453800    799.74307   -1034.5575    31.839471    -1002.718 
 1454000    866.62525   -1032.3177    34.502192   -997.81551 
 1454200    805.39467   -1034.1199    32.064473   -1002.0554 
 1454400    801.21499   -1037.2424    31.898071   -1005.3443 
 1454600     862.5925   -1032.9484     34.34164   -998.60674 
 1454800    820.27198    -1032.864     32.65677   -1000.2072 
 1455000    779.89466   -1033.4724    31.049264   -1002.4231 
 1455200     859.2786   -1033.5004    34.209707    -999.2907 
 1455400    794.81724    -1030.474    31.643363   -998.83066 
 1455600    837.93613   -1033.1464    33.360018   -999.78638 
 1455800    785.80524   -1032.9754    31.284576   -1001.6908 
 1456000    854.75557   -1032.1474    34.029635   -998.11777 
 1456200    814.20865   -1032.2379    32.415376   -999.82255 
 1456400    774.89709    -1033.512      30.8503   -1002.6617 
 1456600    860.06885   -1031.8522    34.241168   -997.61108 
 1456800    820.24207   -1030.0509    32.655579   -997.39533 
 1457000    805.21325   -1035.4295     32.05725   -1003.3722 
 1457200    770.82536   -1033.1565    30.688195   -1002.4683 
 1457400    872.07589   -1029.7501    34.719194   -995.03091 
 1457600    786.57125   -1035.2277    31.315073   -1003.9127 
 1457800    762.09921    -1035.375    30.340789   -1005.0342 
 1458000    899.14149   -1028.5112    35.796733    -992.7145 
 1458200    752.35662   -1033.0808    29.952916   -1003.1279 
 1458400    776.92592   -1035.7929    30.931072   -1004.8618 
 1458600    858.10229   -1028.8684    34.162875   -994.70552 
 1458800    720.54015   -1031.0925    28.686234   -1002.4063 
 1459000    850.28756   -1037.2684    33.851754   -1003.4166 
 1459200    836.38422   -1032.8868    33.298233    -999.5886 
 1459400    813.61501    -1032.588    32.391742   -1000.1962 
 1459600    757.59287    -1032.487    30.161382   -1002.3256 
 1459800      836.005   -1032.3197    33.283135   -999.03653 
 1460000    815.10534    -1032.177    32.451075   -999.72594 
 1460200     816.5441   -1035.1808    32.508356   -1002.6725 
 1460400    848.64864   -1034.0471    33.786506   -1000.2606 
 1460600    783.89022   -1030.9569    31.208335   -999.74859 
 1460800    848.06815   -1031.6637    33.763395   -997.90031 
 1461000     788.5538   -1030.7839    31.394002   -999.38994 
 1461200    788.47222   -1032.6622    31.390754   -1001.2715 
 1461400    825.54193   -1030.6985    32.866578   -997.83193 
 1461600    832.91182   -1031.0086    33.159989   -997.84862 
 1461800    814.09065   -1033.4156    32.410678   -1001.0049 
 1462000    774.74594   -1031.2922    30.844282   -1000.4479 
 1462200    808.99632   -1029.1175    32.207863   -996.90962 
 1462400    824.66277   -1032.1827    32.831577   -999.35111 
 1462600    768.30932   -1031.9802    30.588027   -1001.3922 
 1462800    881.94583   -1033.3488    35.112137    -998.2367 
 1463000    773.08383   -1031.3916     30.77811   -1000.6135 
 1463200    755.29643    -1032.614    30.069956    -1002.544 
 1463400    841.49377   -1029.9217    33.501655      -996.42 
 1463600    825.52692   -1031.7889    32.865981   -998.92291 
 1463800    736.89173   -1032.0073    29.337225   -1002.6701 
 1464000    858.34269   -1030.6434    34.172446   -996.47096 
 1464200    848.70343    -1031.447    33.788687   -997.65836 
 1464400    805.20692   -1033.3549    32.056998   -1001.2979 
 1464600    815.38272    -1031.482    32.462118   -999.01989 
 1464800    831.76096   -1030.0195    33.114171   -996.90535 
 1465000    797.51881   -1032.6099    31.750918    -1000.859 
 1465200    800.39571   -1033.3804    31.865454   -1001.5149 
 1465400    883.72885   -1031.7837    35.183123   -996.60055 
 1465600    810.98532   -1032.3229    32.287049   -1000.0359 
 1465800    795.48734   -1031.1135    31.670041    -999.4435 
 1466000    847.83795   -1030.6677     33.75423   -996.91343 
 1466200     851.7853   -1034.8713    33.911383   -1000.9599 
 1466400    820.69483   -1035.7216    32.673605    -1003.048 
 1466600    810.20291   -1032.7044    32.255899   -1000.4485 
 1466800    808.56578   -1032.4745    32.190722   -1000.2838 
 1467000    784.75363   -1034.2169     31.24271   -1002.9742 
 1467200    866.88689   -1034.9766    34.512609    -1000.464 
 1467400    791.45798   -1034.1846    31.509624    -1002.675 
 1467600    827.46373   -1034.5115    32.943089   -1001.5684 
 1467800    832.58308    -1032.643    33.146901    -999.4961 
 1468000    732.50964   -1030.6803    29.162765   -1001.5175 
 1468200    801.76621   -1032.3933    31.920016   -1000.4733 
 1468400    842.96045   -1032.6542    33.560047   -999.09411 
 1468600    834.66032   -1032.1204    33.229601   -998.89076 
 1468800    807.38826   -1031.2186    32.143842   -999.07479 
 1469000     806.6815   -1032.1073    32.115704    -999.9916 
 1469200    816.34191   -1031.4026    32.500306   -998.90233 
 1469400    820.60751   -1031.8726    32.670128   -999.20245 
 1469600     771.3822   -1032.3629    30.710364   -1001.6525 
 1469800    811.36633   -1032.9791    32.302218   -1000.6769 
 1470000    859.61631   -1032.3698    34.223152   -998.14663 
 1470200    799.44032    -1033.785    31.827418   -1001.9576 
 1470400    797.55996   -1034.4436    31.752556    -1002.691 
 1470600    845.19017   -1032.9036    33.648816   -999.25477 
 1470800    761.98278   -1031.9848    30.336153   -1001.6487 
 1471000    819.49885   -1031.5359     32.62599   -998.90995 
 1471200    796.91982   -1031.9667    31.727071   -1000.2396 
 1471400    877.25904   -1036.1467    34.925546   -1001.2212 
 1471600    821.29243   -1035.6961    32.697396   -1002.9987 
 1471800    785.55022   -1032.4035    31.274423   -1001.1291 
 1472000    823.10891    -1031.634    32.769715   -998.86427 
 1472200    812.50871   -1033.2118    32.347698   -1000.8641 
 1472400    790.63643   -1032.9981    31.476916   -1001.5211 
 1472600    869.20458   -1034.8464    34.604881   -1000.2415 
 1472800    839.83794   -1034.5964    33.435733   -1001.1607 
 1473000    812.43061    -1031.681    32.344589    -999.3364 
 1473200    778.24904   -1033.8835    30.983748   -1002.8998 
 1473400    847.47042    -1034.619    33.739598   -1000.8794 
 1473600      800.104   -1032.7224     31.85384   -1000.8686 
 1473800    850.64334   -1033.7297    33.865919   -999.86373 
 1474000    866.54485   -1035.5677    34.498992   -1001.0688 
 1474200    778.91489   -1035.9876    31.010257   -1004.9773 
 1474400    871.78616   -1035.4848    34.707659   -1000.7771 
 1474600    808.91269   -1032.2555    32.204533   -1000.0509 
 1474800    782.65942   -1033.4615    31.159335   -1002.3022 
 1475000    841.33355   -1032.9746    33.495276   -999.47929 
 1475200    841.53916   -1033.2177    33.503462   -999.71427 
 1475400    820.24954   -1034.8993    32.655877   -1002.2434 
 1475600    797.18956   -1032.5526     31.73781   -1000.8148 
 1475800    807.12548   -1034.8048     32.13338   -1002.6714 
 1476000      820.439    -1035.162     32.66342   -1002.4986 
 1476200    804.36846   -1032.8207    32.023617   -1000.7971 
 1476400    833.48909   -1034.8358    33.182972   -1001.6528 
 1476600    766.37509   -1034.2624    30.511021   -1003.7514 
 1476800     852.5075   -1032.3895    33.940135    -998.4494 
 1477000    866.07375   -1033.1004    34.480236    -998.6202 
 1477200    796.58856    -1035.812    31.713883   -1004.0981 
 1477400    825.98893   -1034.2547    32.884374   -1001.3703 
 1477600    886.38505   -1032.6825    35.288872   -997.39365 
 1477800    765.97108   -1035.1968    30.494936   -1004.7019 
 1478000    823.13852   -1035.6854    32.770893   -1002.9145 
 1478200    868.80004   -1031.7256    34.588776   -997.13686 
 1478400    798.03492    -1035.588    31.771466   -1003.8165 
 1478600    817.78352   -1035.5302    32.557699   -1002.9725 
 1478800    861.95717   -1031.0134    34.316346   -996.69707 
 1479000    834.59344   -1031.7333    33.226938   -998.50638 
 1479200    769.08869   -1035.7011    30.619055   -1005.0821 
 1479400    775.98354   -1028.4145    30.893553   -997.52094 
 1479600    878.64561   -1031.8276    34.980749    -996.8469 
 1479800    719.74917   -1033.0122    28.654744   -1004.3574 
 1480000    779.72618   -1028.7512    31.042556   -997.70861 
 1480200    885.65996   -1032.4482    35.260005   -997.18824 
 1480400    782.38177     -1035.37    31.148281   -1004.2217 
 1480600    862.75264   -1033.5639    34.348016   -999.21591 
 1480800    854.50048   -1029.8724     34.01948   -995.85291 
 1481000    766.87166   -1033.8978     30.53079    -1003.367 
 1481200    828.43637   -1032.0513    32.981812    -999.0695 
 1481400    816.25845   -1029.1123    32.496983   -996.61533 
 1481600    805.01012   -1034.0228    32.049163   -1001.9737 
 1481800    813.90364   -1032.8166    32.403233   -1000.4134 
 1482000    857.59574   -1030.8187    34.142709   -996.67602 
 1482200    855.86342    -1035.205    34.073741   -1001.1313 
 1482400    773.39872   -1033.9708    30.790646   -1003.1802 
 1482600    952.94764   -1034.1399     37.93887   -996.20108 
 1482800    832.27095   -1034.7676    33.134475   -1001.6332 
 1483000    812.01373   -1035.3228    32.327992   -1002.9948 
 1483200    847.01744   -1032.5054    33.721564   -998.78382 
 1483400    827.50429   -1029.6004    32.944704   -996.65565 
 1483600    788.15348   -1031.6115    31.378065   -1000.2334 
 1483800    777.38425   -1033.3097    30.949319   -1002.3604 
 1484000    826.13805   -1027.1751    32.890311   -994.28474 
 1484200    790.83483   -1029.9965    31.484815    -998.5117 
 1484400    704.05489   -1033.8824    28.029921   -1005.8525 
 1484600    776.10737   -1029.8725    30.898483   -998.97404 
 1484800    840.71326   -1028.9075    33.470581   -995.43695 
 1485000     789.5668   -1037.3035    31.434332   -1005.8691 
 1485200    834.01243   -1032.2095    33.203807   -999.00573 
 1485400    868.29338   -1028.5158    34.568604   -993.94722 
 1485600    816.77503    -1036.077     32.51755   -1003.5594 
 1485800    809.74122   -1035.4878    32.237518   -1003.2503 
 1486000    822.88528   -1028.6353    32.760811   -995.87453 
 1486200    842.33727   -1032.9247    33.535236   -999.38943 
 1486400    819.84238   -1036.7384    32.639667   -1004.0987 
 1486600     865.6552   -1032.0144    34.463573   -997.55079 
 1486800    853.45856   -1032.2381    33.977999   -998.26005 
 1487000    779.04931   -1035.7907    31.015608   -1004.7751 
 1487200    791.21632   -1032.0984    31.500003   -1000.5984 
 1487400    868.53765    -1032.566    34.578329   -997.98769 
 1487600    851.21181   -1036.8707    33.888551   -1002.9822 
 1487800    811.39816   -1035.4397    32.303485   -1003.1362 
 1488000    814.40746   -1030.0006    32.423292   -997.57728 
 1488200    783.57456   -1032.7584    31.195768   -1001.5626 
 1488400    769.40545   -1034.8673    30.631665   -1004.2357 
 1488600    789.76106   -1030.9741    31.442066   -999.53203 
 1488800    838.25493   -1031.0241     33.37271    -997.6514 
 1489000    776.93622   -1035.2274    30.931482   -1004.2959 
 1489200    806.28797   -1032.8887    32.100037   -1000.7887 
 1489400    804.56471   -1031.1055    32.031431   -999.07408 
 1489600    798.13802   -1035.5786     31.77557    -1003.803 
 1489800    804.50517   -1036.4964     32.02906   -1004.4673 
 1490000    839.68207   -1033.1279    33.429527   -999.69839 
 1490200     838.1715   -1035.2411    33.369388   -1001.8718 
 1490400     719.3949   -1033.4385    28.640639   -1004.7978 
 1490600    903.09768   -1035.5162    35.954237   -999.56194 
 1490800    862.54465   -1035.0184    34.339735   -1000.6787 
 1491000    819.45846   -1035.5162    32.624383   -1002.8918 
 1491200     849.5651      -1035.1    33.822992    -1001.277 
 1491400    824.32314   -1032.4127    32.818056   -999.59463 
 1491600    835.70062   -1033.4657    33.271017   -1000.1947 
 1491800    801.34707    -1033.663    31.903329   -1001.7597 
 1492000    782.65886   -1032.5445    31.159312   -1001.3852 
 1492200    866.27351   -1034.7564    34.488189   -1000.2682 
 1492400    826.28883   -1033.7471    32.896314   -1000.8508 
 1492600    848.14796    -1034.619    33.766572   -1000.8524 
 1492800     778.4161   -1031.8032    30.990399   -1000.8128 
 1493000     802.7815    -1031.348    31.960437   -999.38759 
 1493200    802.75266   -1033.3903    31.959289    -1001.431 
 1493400    834.83517   -1034.0456    33.236562   -1000.8091 
 1493600    873.31559   -1034.0693    34.768549   -999.30076 
 1493800    760.50526   -1032.3553     30.27733    -1002.078 
 1494000    880.05726   -1032.4531    35.036949   -997.41615 
 1494200    873.81806   -1032.1651    34.788554   -997.37658 
 1494400    812.25109   -1033.3825    32.337442    -1001.045 
 1494600     833.3186   -1032.2386    33.176184    -999.0624 
 1494800    874.98238   -1033.0048    34.834908   -998.16992 
 1495000    795.89021   -1033.4112     31.68608   -1001.7251 
 1495200    853.39628   -1034.9113    33.975519   -1000.9358 
 1495400    813.14396   -1033.1077    32.372989   -1000.7347 
 1495600    828.87355   -1031.7381    32.999217   -998.73886 
 1495800    803.47497   -1033.0385    31.988046   -1001.0505 
 1496000     821.1219   -1031.3195    32.690608    -998.6289 
 1496200    835.98146   -1030.7559    33.282198   -997.47368 
 1496400    853.35157   -1034.1719    33.973739   -1000.1981 
 1496600    812.89475   -1033.0687    32.363067   -1000.7056 
 1496800    827.68648   -1031.6422    32.951957   -998.69026 
 1497000    822.87379   -1032.1154    32.760354   -999.35507 
 1497200    801.96595   -1034.5281    31.927969   -1002.6001 
 1497400    816.83199   -1031.7635    32.519817   -999.24365 
 1497600    884.99973   -1030.3225     35.23372   -995.08882 
 1497800    808.97895   -1034.9451    32.207171   -1002.7379 
 1498000    836.30572   -1036.1695    33.295108   -1002.8744 
 1498200    848.26057   -1028.1606    33.771055   -994.38952 
 1498400    820.28472   -1030.6774    32.657277    -998.0201 
 1498600    783.34665   -1033.8071    31.186695   -1002.6204 
 1498800    842.96871   -1034.1158    33.560376   -1000.5554 
 1499000    801.38019   -1029.0678    31.904648   -997.16318 
 1499200    832.38611   -1032.0651     33.13906   -998.92607 
 1499400     814.2305   -1032.7602    32.416246   -1000.3439 
 1499600    807.88698   -1029.5634    32.163697   -997.39968 
 1499800    821.88487    -1032.848    32.720983    -1000.127 
 1500000    809.43677   -1034.3108    32.225398   -1002.0854 
 1500200    918.93647   -1033.6651    36.584813   -997.08024 
 1500400    774.78265   -1030.8675    30.845743   -1000.0218 
 1500600     769.2699   -1031.8622    30.626269    -1001.236 
 1500800    860.34597   -1032.3729    34.252201   -998.12075 
 1501000    928.96839   -1032.9783    36.984205   -995.99412 
 1501200     778.4926    -1034.015    30.993444   -1003.0215 
 1501400    839.50887   -1033.3415    33.422632   -999.91882 
 1501600    886.31974   -1031.9944    35.286272   -996.70812 
 1501800    759.56221   -1033.1137    30.239785   -1002.8739 
 1502000    841.10269   -1032.9691    33.486085   -999.48305 
 1502200     844.6989    -1032.005    33.629258   -998.37576 
 1502400    824.88985   -1035.3892    32.840617   -1002.5486 
 1502600    832.66662   -1035.6911    33.150227   -1002.5409 
 1502800    855.50812   -1034.4569    34.059596   -1000.3974 
 1503000    824.47073   -1031.8132    32.823931   -998.98931 
 1503200    773.80483   -1032.3136    30.806814   -1001.5067 
 1503400    852.65848   -1034.5969    33.946146   -1000.6508 
 1503600    870.25948   -1034.6324    34.646879   -999.98549 
 1503800    777.64137   -1034.5473    30.959555   -1003.5877 
 1504000    882.65542   -1031.1124    35.140388   -995.97206 
 1504200    813.27724   -1031.4312    32.378295   -999.05289 
 1504400     762.2675   -1035.5829    30.347489   -1005.2354 
 1504600     800.5382   -1031.3812    31.871127   -999.51009 
 1504800    842.82007   -1030.5018    33.554458    -996.9473 
 1505000    795.63044   -1031.9325    31.675738   -1000.2568 
 1505200    838.10304   -1033.5208    33.366663   -1000.1542 
 1505400    793.31072   -1032.3292    31.583385   -1000.7459 
 1505600    858.68431   -1032.0065    34.186047   -997.82042 
 1505800    854.60848   -1033.2277    34.023779   -999.20392 
 1506000    778.50203   -1034.0104     30.99382   -1003.0165 
 1506200    885.57289   -1034.2623    35.256538   -999.00573 
 1506400    820.38738   -1030.1958    32.661365   -997.53448 
 1506600    831.47737   -1033.3252    33.102881   -1000.2223 
 1506800    794.73412   -1035.7932    31.640054   -1004.1531 
 1507000    873.40071   -1033.9312    34.771938   -999.15927 
 1507200    862.11764     -1033.45    34.322735   -999.12725 
 1507400    816.55782    -1035.516    32.508902   -1003.0071 
 1507600    856.25164   -1033.6496    34.089197   -999.56041 
 1507800    832.29377   -1032.7467    33.135383   -999.61135 
 1508000    816.67914   -1035.2915    32.513732   -1002.7778 
 1508200    856.03949   -1034.5878    34.080751   -1000.5071 
 1508400    838.80314   -1031.9207    33.394535   -998.52618 
 1508600    793.44477   -1031.6044    31.588722   -1000.0157 
 1508800    843.01587   -1034.8079    33.562253   -1001.2457 
 1509000    802.10844   -1032.9357    31.933641    -1001.002 
 1509200    759.30786   -1032.5457    30.229659    -1002.316 
 1509400    844.20516   -1031.7056    33.609601   -998.09602 
 1509600    842.38736   -1035.8721    33.537231   -1002.3348 
 1509800    794.89534   -1035.5092    31.646472   -1003.8627 
 1510000    773.00003   -1031.7955    30.774774   -1001.0208 
 1510200    877.89327   -1031.3988    34.950796   -996.44801 
 1510400    822.46219   -1032.6041    32.743967   -999.86013 
 1510600    762.87223   -1032.8151    30.371564   -1002.4436 
 1510800    878.96845   -1033.7203    34.993601   -998.72668 
 1511000    875.11883    -1032.441     34.84034   -997.60065 
 1511200    809.66821   -1036.2232    32.234612   -1003.9886 
 1511400    809.96013   -1033.9055    32.246234   -1001.6593 
 1511600    860.27611   -1031.7438     34.24942   -997.49439 
 1511800    837.86335   -1032.6277     33.35712   -999.27054 
 1512000    802.85318   -1032.3081    31.963291   -1000.3448 
 1512200    817.72781   -1031.0402    32.555481   -998.48471 
 1512400    871.70716   -1033.0028    34.704514   -998.29824 
 1512600    782.94255   -1033.9586    31.170606    -1002.788 
 1512800    825.87045   -1034.1199    32.879657   -1001.2402 
 1513000    872.05781   -1033.3075    34.718474     -998.589 
 1513200    809.16144   -1035.1384    32.214436   -1002.9239 
 1513400    847.52306   -1035.6515    33.741694   -1001.9098 
 1513600    842.76398   -1034.1227    33.552225   -1000.5705 
 1513800    867.97693   -1035.5851    34.556006   -1001.0291 
 1514000    846.69542   -1034.9078    33.708743    -1001.199 
 1514200    839.43143   -1033.5592    33.419549   -1000.1397 
 1514400    805.57734   -1033.1645    32.071746   -1001.0927 
 1514600    787.11308   -1033.8639    31.336644   -1002.5272 
 1514800    787.04333   -1033.1603    31.333867   -1001.8264 
 1515000    870.57783   -1035.6185    34.659553    -1000.959 
 1515200    846.43919   -1035.4229    33.698543   -1001.7244 
 1515400     884.8732   -1034.5845    35.228682   -999.35584 
 1515600     789.8635   -1030.8072    31.446144   -999.36109 
 1515800    799.46743   -1033.7844    31.828497   -1001.9559 
 1516000    844.60815   -1031.6046    33.625645   -997.97891 
 1516200    818.85756    -1034.363    32.600459   -1001.7626 
 1516400    854.87248   -1034.9851     34.03429   -1000.9509 
 1516600    853.26111   -1033.5488    33.970138   -999.57863 
 1516800    856.85405   -1034.6003     34.11318   -1000.4872 
 1517000    777.13736   -1033.2893     30.93949   -1002.3499 
 1517200    838.82724   -1032.4708    33.395495   -999.07529 
 1517400    809.80121   -1032.2893    32.239907   -1000.0494 
 1517600     840.8743   -1034.8606    33.476993   -1001.3836 
 1517800    837.50065   -1033.2636     33.34268   -999.92093 
 1518000     816.4654   -1032.5721    32.505222   -1000.0669 
 1518200    863.10478   -1035.4755    34.362035   -1001.1135 
 1518400    822.05572    -1031.913    32.727785   -999.18518 
 1518600    900.06943   -1034.0327    35.833676   -998.19903 
 1518800    824.19065   -1033.5431    32.812781   -1000.7303 
 1519000    836.38136   -1032.3639    33.298119   -999.06577 
 1519200    893.75964   -1031.2997     35.58247   -995.71723 
 1519400    858.79136   -1034.1795    34.190309   -999.98916 
 1519600    807.73563   -1034.7622    32.157672   -1002.6045 
 1519800    790.31706   -1031.4655    31.464201   -1000.0013 
 1520000    881.25529   -1034.2582    35.084645   -999.17359 
 1520200    821.75565   -1034.2152    32.715839   -1001.4994 
 1520400    890.33854   -1032.9553    35.446269   -997.50899 
 1520600    811.66401   -1034.1983    32.314069   -1001.8842 
 1520800    796.80274   -1031.9936     31.72241   -1000.2712 
 1521000    909.11416   -1034.2073    36.193766   -998.01355 
 1521200    820.58366   -1034.9733    32.669179   -1002.3042 
 1521400    843.32889    -1031.796    33.574715   -998.22127 
 1521600    725.54281   -1028.8771    28.885401   -999.99167 
 1521800    798.90931   -1031.4752    31.806277   -999.66891 
 1522000    822.73905   -1033.1804     32.75499   -1000.4254 
 1522200    804.28503   -1031.5037    32.020296   -999.48343 
 1522400    879.84052   -1034.0583     35.02832   -999.03002 
 1522600    793.07063   -1034.6981    31.573827   -1003.1243 
 1522800    847.48536   -1033.8895    33.740193   -1000.1493 
 1523000    779.01405   -1034.8543    31.014204   -1003.8401 
 1523200    821.33216   -1031.2527    32.698978   -998.55376 
 1523400    796.51695   -1030.4359    31.711032   -998.72489 
 1523600    811.62348   -1034.8404    32.312455    -1002.528 
 1523800     773.0831   -1033.3767    30.778081   -1002.5986 
 1524000    868.40637   -1031.3306    34.573103   -996.75753 
 1524200    830.83275     -1034.46    33.077217   -1001.3828 
 1524400     782.2834   -1036.9703    31.144364   -1005.8259 
 1524600    845.04852   -1032.8155    33.643177   -999.17237 
 1524800    909.40508   -1033.0186    36.205348   -996.81325 
 1525000    811.94043      -1035.4    32.325074   -1003.0749 
 1525200    842.58129   -1036.3283    33.544951   -1002.7833 
 1525400    824.81081   -1031.8181    32.837471   -998.98064 
 1525600    885.46256   -1035.4164    35.252146   -1000.1643 
 1525800    750.34729   -1033.1229     29.87292     -1003.25 
 1526000    857.18766   -1030.2398    34.126462   -996.11329 
 1526200    861.44254   -1034.9346    34.295858   -1000.6388 
 1526400    778.37724   -1036.2927    30.988852   -1005.3039 
 1526600    912.43191   -1032.9693    36.325853   -996.64349 
 1526800    837.44484   -1031.8041    33.340458   -998.46367 
 1527000    801.35306   -1036.3047    31.903568   -1004.4011 
 1527200    834.25183   -1034.1428    33.213338   -1000.9295 
 1527400    928.72021   -1032.0168    36.974325   -995.04251 
 1527600    808.90172   -1035.6438    32.204096   -1003.4397 
 1527800    808.31039   -1036.6684    32.180554   -1004.4879 
 1528000    836.61104   -1030.6044    33.307263   -997.29714 
 1528200    838.29012   -1033.2387    33.374111   -999.86459 
 1528400    771.34223   -1034.0685    30.708773   -1003.3597 
 1528600    835.99177   -1030.5749    33.282609   -997.29226 
 1528800    809.80094   -1031.0007    32.239896   -998.76076 
 1529000    838.69842   -1036.0938    33.390366   -1002.7034 
 1529200    800.18394   -1035.6708    31.857023   -1003.8138 
 1529400    848.74114   -1030.8399    33.790188   -997.04968 
 1529600    827.03366   -1032.9249    32.925967   -999.99898 
 1529800    797.72581   -1036.1874    31.759159   -1004.4282 
 1530000    875.53222   -1033.3389    34.856798   -998.48211 
 1530200    865.12346   -1032.1582    34.442403   -997.71581 
 1530400    770.86881   -1036.5302    30.689925   -1005.8402 
 1530600    894.35779   -1033.2792    35.606284   -997.67291 
 1530800    916.05699   -1031.2702    36.470175   -994.80002 
 1531000    716.76626   -1035.5511    28.535988   -1007.0151 
 1531200    835.13852   -1033.7968    33.248639   -1000.5481 
 1531400    935.02613   -1029.1627    37.225377   -991.93731 
 1531600    812.53176   -1035.6477    32.348616   -1003.2991 
 1531800     783.6937   -1036.9316    31.200511   -1005.7311 
 1532000    864.56903   -1030.6974     34.42033   -996.27706 
 1532200    872.46153    -1031.592    34.734547   -996.85746 
 1532400    764.05681   -1036.8615    30.418725   -1006.4428 
 1532600    875.47349   -1034.5058     34.85446   -999.65132 
 1532800    884.41492   -1031.7201    35.210437   -996.50969 
 1533000    796.14525   -1034.4995    31.696234   -1002.8032 
 1533200    770.49903   -1034.1751    30.675204   -1003.4999 
 1533400    845.07773    -1030.013     33.64434   -996.36863 
 1533600    844.98835   -1034.4229    33.640782   -1000.7821 
 1533800     801.5615    -1035.775    31.911866   -1003.8631 
 1534000    957.26041   -1033.6852    38.110571   -995.57464 
 1534200    817.03803   -1033.2928     32.52802   -1000.7648 
 1534400    866.66316   -1036.9886    34.503702   -1002.4848 
 1534600    830.59577   -1032.2326    33.067782   -999.16482 
 1534800    803.19866   -1032.0409    31.977045   -1000.0638 
 1535000    866.75324   -1030.0221    34.507288   -995.51483 
 1535200    817.90966   -1031.5997    32.562721     -999.037 
 1535400    784.50825   -1034.4928     31.23294   -1003.2598 
 1535600    870.87346      -1034.3    34.671323   -999.62869 
 1535800    803.76888   -1031.0134    31.999747   -999.01362 
 1536000    857.10373   -1034.3033     34.12312   -1000.1802 
 1536200    850.08401    -1031.975     33.84365   -998.13133 
 1536400    829.49942   -1031.3244    33.024134   -998.30024 
 1536600    746.39003   -1033.4955    29.715373   -1003.7801 
 1536800     823.2569   -1031.5306    32.775607   -998.75498 
 1537000    835.05014   -1032.1234     33.24512   -998.87824 
 1537200    791.74882   -1035.4989    31.521203   -1003.9777 
 1537400    878.75461   -1034.9842    34.985088   -999.99913 
 1537600    868.14691   -1033.3081    34.562773   -998.74532 
 1537800    802.86409   -1034.9046    31.963725   -1002.9409 
 1538000    842.49855   -1033.3814    33.541657   -999.83973 
 1538200    841.19767   -1032.6929    33.489866     -999.203 
 1538400    819.58826   -1033.0071     32.62955   -1000.3776 
 1538600    875.31706   -1033.6668    34.848232   -998.81857 
 1538800    810.08719   -1031.8121    32.251292   -999.56083 
 1539000    817.34321   -1034.6119     32.54017   -1002.0717 
 1539200    825.88876   -1030.6628    32.880386   -997.78237 
 1539400    871.42423   -1031.7706     34.69325   -997.07731 
 1539600    841.12868     -1033.71     33.48712   -1000.2229 
 1539800    822.56541   -1031.9262    32.748076   -999.17809 
 1540000    886.57454   -1029.9158    35.296416   -994.61941 
 1540200    819.20352   -1029.9275    32.614233    -997.3133 
 1540400    796.30906   -1034.4851    31.702755   -1002.7824 
 1540600    842.65193   -1032.4385    33.547764   -998.89076 
 1540800    886.95542   -1033.4879     35.31158   -998.17637 
 1541000    735.86874   -1031.6719    29.296498   -1002.3754 
 1541200    850.36752   -1033.0751    33.854938   -999.22014 
 1541400     889.4944   -1033.7652    35.412662   -998.35257 
 1541600    807.64876   -1034.2752    32.154213    -1002.121 
 1541800    819.02719   -1033.5987    32.607212   -1000.9915 
 1542000     789.4698   -1029.9316     31.43047    -998.5011 
 1542200    865.11704   -1033.2991    34.442148    -998.8569 
 1542400    817.82483   -1033.7164    32.559344   -1001.1571 
 1542600     875.0494   -1033.7083    34.837576   -998.87071 
 1542800     812.7557   -1030.8067    32.357531   -998.44914 
 1543000    862.58826   -1033.4927    34.341471    -999.1512 
 1543200    857.17439   -1032.7959    34.125934   -998.66994 
 1543400    852.63043   -1030.9133    33.945029   -996.96827 
 1543600     844.8438   -1034.8089    33.635027   -1001.1738 
 1543800    792.77751    -1031.151    31.562157   -999.58881 
 1544000    876.62175   -1030.0519    34.900174   -995.15169 
 1544200    860.60038   -1034.3988    34.262329   -1000.1364 
 1544400    785.53694   -1036.6589    31.273895   -1005.3851 
 1544600       844.46   -1031.6373    33.619747   -998.01751 
 1544800    862.01983    -1030.203    34.318841   -995.88418 
 1545000    829.05973   -1035.1447     33.00663   -1002.1381 
 1545200    767.65233   -1030.6833     30.56187   -1000.1214 
 1545400    867.69317   -1030.3551    34.544709   -995.81042 
 1545600    783.22435   -1031.7267    31.181825   -1000.5449 
 1545800    827.56465   -1033.1636    32.947107   -1000.2165 
 1546000    906.70892   -1028.8112    36.098008   -992.71314 
 1546200    882.42934   -1032.2724    35.131387   -997.14103 
 1546400    833.22381   -1034.3187     33.17241   -1001.1463 
 1546600    880.83485   -1034.3842    35.067907   -999.31633 
 1546800    844.06726    -1030.778    33.604111   -997.17389 
 1547000    830.48765   -1034.3781    33.063478   -1001.3146 
 1547200    851.44785   -1034.1988    33.897948   -1000.3008 
 1547400    817.52565   -1032.8363    32.547433   -1000.2889 
 1547600    820.93364   -1032.4136    32.683113   -999.73046 
 1547800    842.08272   -1032.6537    33.525102   -999.12863 
 1548000    819.03325   -1032.5279    32.607454   -999.92045 
 1548200    833.82674   -1034.0463    33.196414   -1000.8499 
 1548400    797.00028   -1032.1512    31.730275   -1000.4209 
 1548600    827.39399   -1032.5433    32.940313   -999.60294 
 1548800    824.19732   -1032.8655    32.813047   -1000.0524 
 1549000    850.75131   -1035.4782    33.870217    -1001.608 
 1549200    808.97313   -1031.1042    32.206939   -998.89726 
 1549400    856.47165    -1031.084    34.097956   -996.98603 
 1549600    816.81497   -1033.7902     32.51914   -1001.2711 
 1549800    838.12594   -1032.5295    33.367575   -999.16192 
 1550000    913.18036   -1031.3519     36.35565   -994.99627 
 1550200    787.57063    -1031.673     31.35486   -1000.3181 
 1550400    874.96662   -1033.0167     34.83428   -998.18239 
 1550600    862.75466   -1031.3619    34.348096   -997.01383 
 1550800    816.86393   -1032.1075    32.521088   -999.58638 
 1551000    826.03871   -1031.6044    32.886356   -998.71802 
 1551200    873.79613   -1031.7038     34.78768   -996.91612 
 1551400    847.40267   -1031.4238    33.736901   -997.68689 
 1551600    810.96814    -1032.297    32.286365   -1000.0106 
 1551800     812.9974   -1033.0736    32.367154   -1000.7065 
 1552000    874.28998   -1032.2543    34.807342   -997.44699 
 1552200    818.72916   -1031.7632    32.595347   -999.16782 
 1552400    792.09004   -1031.4874    31.534788   -999.95257 
 1552600    845.36844   -1032.0564    33.655914   -998.40052 
 1552800    823.13707   -1032.9278    32.770836    -1000.157 
 1553000    817.09394   -1034.0608    32.530246   -1001.5306 
 1553200    864.22392   -1032.0659     34.40659   -997.65936 
 1553400    866.39012   -1033.2024    34.492831   -998.70955 
 1553600    844.82386   -1034.5374    33.634233   -1000.9032 
 1553800    890.02024   -1034.1518    35.433597   -998.71824 
 1554000    770.43184   -1033.9266    30.672528   -1003.2541 
 1554200    820.40237   -1033.0446    32.661961   -1000.3827 
 1554400    878.76978   -1030.8577    34.985692   -995.87202 
 1554600    822.33877   -1032.0109    32.739054   -999.27183 
 1554800    729.96792    -1031.785    29.061574   -1002.7234 
 1555000    842.14377   -1033.4239    33.527533   -999.89635 
 1555200    870.19268   -1032.2873     34.64422    -997.6431 
 1555400    840.97709   -1035.4165    33.481085   -1001.9354 
 1555600    812.82967   -1035.0985    32.360476    -1002.738 
 1555800    887.80884   -1032.4774    35.345556   -997.13184 
 1556000    859.30679   -1033.9605    34.210829   -999.74969 
 1556200     854.2219   -1034.6653    34.008389   -1000.6569 
 1556400     870.9006   -1035.1955    34.672403   -1000.5231 
 1556600    866.54151   -1034.7065    34.498858   -1000.2077 
 1556800    842.04997   -1033.0031    33.523798   -999.47926 
 1557000    844.27769    -1032.733    33.612489   -999.12055 
 1557200    855.54315   -1037.4795    34.060991   -1003.4185 
 1557400    848.84522   -1033.8216    33.794332   -1000.0273 
 1557600    924.06605   -1032.7836    36.789033   -995.99455 
 1557800    829.62897   -1035.4481    33.029292   -1002.4188 
 1558000    743.76112   -1030.5985     29.61071   -1000.9878 
 1558200     907.1211   -1032.0464    36.114418   -995.93194 
 1558400    805.45627   -1035.5731    32.066925   -1003.5061 
 1558600    785.85712    -1034.448    31.286642   -1003.1614 
 1558800    943.39432   -1033.9361    37.558532   -996.37761 
 1559000     808.0673   -1032.0414    32.170876   -999.87055 
 1559200    825.44773   -1036.0685    32.862828   -1003.2057 
 1559400    882.87791   -1032.8586    35.149246   -997.70935 
 1559600    870.37256   -1033.2933    34.651381   -998.64191 
 1559800    770.67443    -1034.245    30.682186   -1003.5628 
 1560000    788.86607   -1032.8666    31.406434   -1001.4601 
 1560200    923.22757   -1031.0107    36.755651   -994.25502 
 1560400    847.25323   -1033.7742    33.730951   -1000.0433 
 1560600    769.10997   -1034.7772    30.619902   -1004.1573 
 1560800    864.48248   -1034.1378    34.416884   -999.72093 
 1561000    847.54949   -1030.2575    33.742746   -996.51476 
 1561200    772.28836    -1031.341    30.746441   -1000.5946 
 1561400     859.0833   -1035.8248    34.201931   -1001.6228 
 1561600    795.22433   -1029.4642     31.65957   -997.80468 
 1561800     831.7606   -1031.0804    33.114157   -997.96628 
 1562000    809.45325   -1033.2519    32.226054   -1001.0259 
 1562200    858.78886   -1035.3488    34.190209   -1001.1586 
 1562400    852.34909   -1034.2609    33.933828   -1000.3271 
 1562600    877.62964   -1035.7366    34.940301   -1000.7963 
 1562800    849.21765   -1033.6885    33.809159   -999.87933 
 1563000    809.06756   -1034.2896    32.210699   -1002.0789 
 1563200    878.17482   -1034.1469    34.962005   -999.18493 
 1563400    887.44886   -1032.9112    35.331225   -997.57999 
 1563600    835.70696   -1035.2342     33.27127    -1001.963 
 1563800    815.37692   -1033.3721    32.461888   -1000.9102 
 1564000    839.83515   -1032.3161    33.435622   -998.88047 
 1564200    807.19062   -1031.9299    32.135974   -999.79391 
 1564400    800.06206   -1033.5262     31.85217   -1001.6741 
 1564600    833.89789   -1034.0395    33.199247   -1000.8403 
 1564800    839.69871   -1029.8846     33.43019   -996.45442 
 1565000    868.17031   -1033.9417    34.563705   -999.37802 
 1565200    831.18972   -1035.5107    33.091429   -1002.4193 
 1565400    921.36005   -1035.2799    36.681301   -998.59863 
 1565600    814.87949   -1032.0862    32.442084   -999.64409 
 1565800    843.52171   -1031.9612    33.582392    -998.3788 
 1566000    942.65986   -1034.2548    37.529292   -996.72548 
 1566200    795.75808   -1032.5605     31.68082   -1000.8797 
 1566400    868.38109   -1034.3569    34.572096   -999.78485 
 1566600    850.62973   -1032.5072    33.865377    -998.6418 
 1566800    875.22949   -1033.0614    34.844745   -998.21664 
 1567000    802.60594   -1034.4532    31.953448   -1002.4998 
 1567200    860.52953   -1032.2906    34.259509   -998.03108 
 1567400    848.41828   -1029.5029    33.777334   -995.72559 
 1567600     834.2581   -1033.3206    33.213587    -1000.107 
 1567800    848.46526   -1033.3182    33.779205   -999.53899 
 1568000    937.41009   -1033.3295    37.320287   -996.00926 
 1568200    832.73941    -1034.334    33.153125   -1001.1809 
 1568400    856.19234   -1035.2884    34.086836   -1001.2015 
 1568600     918.4655   -1031.2486    36.566063   -994.68254 
 1568800    828.73098    -1032.719    32.993541   -999.72545 
 1569000    836.39129   -1035.5865    33.298514    -1002.288 
 1569200    857.59007   -1029.9418    34.142483   -995.79934 
 1569400    901.92467   -1030.3928    35.907538   -994.48529 
 1569600    800.42197   -1035.2829    31.866499   -1003.4164 
 1569800    818.08241   -1034.2141    32.569599   -1001.6445 
 1570000    903.59922   -1029.2806    35.974205   -993.30639 
 1570200    934.26979   -1033.6693    37.195265   -996.47404 
 1570400    760.39513   -1036.0193    30.272946   -1005.7464 
 1570600    934.43207   -1033.0608    37.201726   -995.85903 
 1570800    854.69029   -1029.7173    34.027037   -995.69023 
 1571000    858.33548   -1035.6027    34.172159   -1001.4306 
 1571200    855.33804   -1034.3483    34.052825   -1000.2954 
 1571400    923.77028   -1029.7625    36.777258   -992.98527 
 1571600    801.46737   -1031.9682    31.908119     -1000.06 
 1571800    800.33292   -1034.1943    31.862954   -1002.3314 
 1572000    924.80224    -1032.529    36.818342   -995.71068 
 1572200    815.33238   -1034.0355    32.460114   -1001.5754 
 1572400    796.33589   -1033.3415    31.703824   -1001.6377 
 1572600    883.78416   -1033.8416    35.185325   -998.65632 
 1572800     944.7203   -1034.7198    37.611322   -997.10848 
 1573000    871.36097   -1034.5537    34.690731   -999.86293 
 1573200    837.67742    -1034.914    33.349718   -1001.5642 
 1573400     891.7057   -1033.5272    35.500699   -998.02652 
 1573600      881.207   -1033.7122    35.082723   -998.62943 
 1573800    850.02242   -1035.6893    33.841198   -1001.8481 
 1574000    858.42759    -1033.414    34.175826   -999.23814 
 1574200    846.70073   -1031.2031    33.708955   -997.49417 
 1574400    844.80484   -1034.4164    33.633475   -1000.7829 
 1574600     830.0141    -1032.883    33.044625   -999.83833 
 1574800     863.2301   -1030.9887    34.367025   -996.62164 
 1575000    816.79025   -1033.1387    32.518155   -1000.6206 
 1575200    853.43255   -1033.3166    33.976963   -999.33968 
 1575400    888.99453   -1032.0511    35.392761   -996.65837 
 1575600     843.9243   -1035.8726     33.59842   -1002.2741 
 1575800    817.72822   -1033.0465    32.555498   -1000.4911 
 1576000    902.54832   -1033.6361    35.932366   -997.70372 
 1576200    860.15386   -1033.4217    34.244553   -999.17718 
 1576400    861.73458   -1032.5406    34.307485   -998.23307 
 1576600    864.51427   -1031.3774     34.41815   -996.95925 
 1576800    860.41199   -1034.0385    34.254829   -999.78363 
 1577000    867.94688   -1036.5483    34.554809   -1001.9935 
 1577200    884.33112   -1034.7142    35.207101   -999.50707 
 1577400    826.36361   -1033.3848    32.899291   -1000.4855 
 1577600    871.54428   -1035.7335     34.69803   -1001.0354 
 1577800    893.75883   -1034.3323    35.582438   -998.74984 
 1578000    821.20445   -1033.0631    32.693894   -1000.3692 
 1578200    784.97173   -1032.8402    31.251392   -1001.5888 
 1578400    915.40049    -1033.595    36.444038   -997.15094 
 1578600    846.59559   -1033.5132    33.704769   -999.80844 
 1578800    809.55749   -1034.1227    32.230204   -1001.8925 
 1579000    886.57339   -1032.7652     35.29637   -997.46882 
 1579200    911.41496   -1034.9701    36.285366   -998.68469 
 1579400    788.02766   -1034.4359    31.373055   -1003.0628 
 1579600    853.26143   -1032.9761     33.97015   -999.00592 
 1579800    894.18483   -1033.4802    35.599398   -997.88083 
 1580000    810.65332   -1034.7837    32.273831   -1002.5099 
 1580200    849.74989   -1035.2567    33.830348   -1001.4264 
 1580400    893.87321   -1032.0642    35.586992   -996.47718 
 1580600    856.88177   -1034.8032    34.114284   -1000.6889 
 1580800    876.77128   -1035.8756    34.906128   -1000.9695 
 1581000     877.5773    -1032.517    34.938217   -997.57874 
 1581200    858.49203   -1033.0307    34.178392   -998.85229 
 1581400    803.22363   -1034.4274    31.978039   -1002.4493 
 1581600    868.61724   -1033.0513    34.581498   -998.46976 
 1581800    899.06752   -1032.4837    35.793788   -996.68991 
 1582000    891.01121    -1036.579    35.473049    -1001.106 
 1582200    780.97171   -1032.5578    31.092143   -1001.4656 
 1582400    865.45293   -1030.8932     34.45552   -996.43764 
 1582600    836.78305   -1032.8522    33.314111   -999.53805 
 1582800    890.08024   -1036.1905    35.435985   -1000.7545 
 1583000    884.33324   -1034.2604    35.207185   -999.05319 
 1583200    796.45376   -1029.9565    31.708517   -998.24797 
 1583400    906.43182   -1034.3038    36.086977   -998.21685 
 1583600    868.76943    -1036.187    34.587557   -1001.5995 
 1583800    853.52092   -1032.3023    33.980481   -998.32178 
 1584000     874.5513   -1032.7331    34.817745   -997.91533 
 1584200    789.46271   -1034.2015    31.430188   -1002.7714 
 1584400    884.55273    -1029.816    35.215923   -994.60008 
 1584600    853.25527   -1031.0564    33.969905   -997.08646 
 1584800    821.62241   -1033.5573    32.710534   -1000.8467 
 1585000    805.58074   -1032.7841    32.071881   -1000.7122 
 1585200    855.73459   -1030.1458    34.068612    -996.0772 
 1585400    818.82861   -1032.8485    32.599307   -1000.2492 
 1585600    811.13249   -1034.8591    32.292908   -1002.5662 
 1585800     962.0685   -1030.2448    38.301991   -991.94282 
 1586000    844.68933   -1032.6644    33.628877   -999.03554 
 1586200    846.54633   -1035.0027    33.702808   -1001.2999 
 1586400    855.05652   -1033.0244    34.041617   -998.98275 
 1586600    914.34699   -1031.2027    36.402096   -994.80065 
 1586800    877.76994    -1033.053    34.945886   -998.10713 
 1587000    823.17003   -1032.7228    32.772148   -999.95061 
 1587200     853.0286   -1030.4515    33.960881   -996.49062 
 1587400    891.58841   -1032.0019    35.496029   -996.50588 
 1587600    826.59979    -1032.517    32.908694   -999.60834 
 1587800    851.99778   -1032.0207    33.919842    -998.1009 
 1588000    865.97855   -1032.0033    34.476446   -997.52688 
 1588200    802.79492   -1033.1936    31.960971   -1001.2326 
 1588400    868.65646   -1030.3202    34.583059    -995.7371 
 1588600     911.8521   -1030.5572     36.30277   -994.25442 
 1588800    820.36762   -1033.1229    32.660578   -1000.4623 
 1589000    810.13025   -1032.0189    32.253007   -999.76584 
 1589200    866.00777   -1030.9315    34.477609   -996.45386 
 1589400    837.99067   -1033.3031    33.362189    -999.9409 
 1589600    856.15251    -1031.919     34.08525   -997.83377 
 1589800    886.08493   -1032.0729    35.276924   -996.79595 
 1590000    840.42421   -1036.9198    33.459073   -1003.4607 
 1590200    867.95548   -1033.6478    34.555152   -999.09269 
 1590400    876.67149   -1031.0395    34.902155    -996.1374 
 1590600    808.12019   -1033.6452    32.172982   -1001.4722 
 1590800    795.03075   -1031.0263    31.651863    -999.3744 
 1591000    882.60258   -1028.6855    35.138284   -993.54726 
 1591200    919.69558   -1032.5737    36.615035   -995.95869 
 1591400    834.06381   -1034.8565    33.205852   -1001.6507 
 1591600     875.8415   -1032.4216    34.869111   -997.55245 
 1591800    846.95683   -1031.7688    33.719151   -998.04966 
 1592000    807.97108   -1033.4329    32.167045   -1001.2659 
 1592200    811.59828   -1031.4491    32.311452   -999.13762 
 1592400    885.15371   -1031.2231     35.23985   -995.98325 
 1592600    796.36375   -1029.6615    31.704933   -997.95658 
 1592800    881.56586   -1033.4493     35.09701   -998.35229 
 1593000     861.1758   -1030.7273    34.285238    -996.4421 
 1593200     927.8787    -1032.466    36.940822   -995.52516 
 1593400    879.43949   -1032.3289    35.012355    -997.3165 
 1593600    878.06557    -1032.286    34.957656   -997.32839 
 1593800    891.55328   -1031.8759     35.49463   -996.38127 
 1594000    812.72449   -1031.8317    32.356289    -999.4754 
 1594200    831.05915   -1033.8846     33.08623   -1000.7984 
 1594400    865.74986    -1032.784    34.467341   -998.31664 
 1594600    848.96769   -1031.2289    33.799208   -997.42966 
 1594800    799.66828    -1030.356    31.836493   -998.51949 
 1595000    818.80667   -1031.2549    32.598433   -998.65642 
 1595200    854.43229   -1033.1339    34.016765   -999.11714 
 1595400    865.40687   -1034.0379    34.453686   -999.58419 
 1595600    884.71904   -1030.9733    35.222545    -995.7508 
 1595800    832.01801    -1033.309    33.124405   -1000.1846 
 1596000    855.00363   -1031.1193    34.039511   -997.07983 
 1596200    933.92239    -1032.684    37.181435   -995.50259 
 1596400    824.57525   -1034.2384    32.828093   -1001.4103 
 1596600    867.19083   -1031.2236    34.524709   -996.69886 
 1596800     891.2198   -1033.8367    35.481354   -998.35535 
 1597000    874.75457   -1037.0843    34.825838   -1002.2585 
 1597200    787.51509   -1032.9497    31.352649    -1001.597 
 1597400    927.05513   -1029.0219    36.908035   -992.11384 
 1597600    892.48373    -1032.494    35.531673   -996.96237 
 1597800    788.00987   -1036.3294    31.372347   -1004.9571 
 1598000    858.91424   -1030.2164    34.195201   -996.02116 
 1598200    904.39266   -1028.5945    36.005793   -992.58866 
 1598400    810.21501   -1033.7701    32.256381   -1001.5138 
 1598600    859.72801   -1038.0943    34.227599   -1003.8667 
 1598800    919.35743   -1029.5454    36.601572   -992.94386 
 1599000     876.8091   -1031.4146    34.907633     -996.507 
 1599200     810.5064   -1034.9724    32.267982   -1002.7044 
 1599400    879.97921   -1032.2374    35.033842   -997.20352 
 1599600     799.4498   -1030.2543    31.827795   -998.42646 
 1599800    833.83327   -1035.1036    33.196674   -1001.9069 
 1600000    878.78166   -1032.9334    34.986165    -997.9472 
 1600200    924.06156   -1031.7942    36.788854   -995.00534 
 1600400    795.08738   -1033.0997    31.654118   -1001.4456 
 1600600    838.59894   -1033.3919    33.386406   -1000.0054 
 1600800    897.99233   -1030.4115    35.750983   -994.66047 
 1601000    809.86307   -1030.9187     32.24237   -998.67632 
 1601200    889.41172   -1035.4877     35.40937   -1000.0784 
 1601400    875.66359   -1030.6849    34.862028    -995.8229 
 1601600    834.34701   -1029.9693    33.217127   -996.75221 
 1601800     828.0154   -1032.6676    32.965052   -999.70253 
 1602000    866.88788   -1034.3302    34.512648   -999.81756 
 1602200    856.83893   -1030.5371    34.112578   -996.42453 
 1602400    889.13358   -1032.3292    35.398297   -996.93088 
 1602600    835.13408   -1031.7456    33.248462   -998.49712 
 1602800    839.37598   -1031.8393    33.417341   -998.42192 
 1603000    858.46323   -1031.8896    34.177245   -997.71238 
 1603200    835.38053    -1031.034    33.258274   -997.77576 
 1603400    876.85813   -1034.1018    34.909585   -999.19226 
 1603600    831.50504   -1032.7711    33.103982   -999.66712 
 1603800    895.52431   -1030.9523    35.652725   -995.29954 
 1604000    811.09039   -1031.7317    32.291232   -999.44047 
 1604200    825.25934   -1031.8719    32.855328   -999.01657 
 1604400    854.88839   -1029.0357    34.034923   -995.00074 
 1604600    863.98444   -1035.0851    34.397056    -1000.688 
 1604800    830.37919   -1032.6181     33.05916    -999.5589 
 1605000     913.3783   -1029.8497    36.363531   -993.48619 
 1605200    834.18224   -1032.2589    33.210567   -999.04832 
 1605400    824.86554   -1031.5815     32.83965   -998.74182 
 1605600    873.73422   -1028.0967    34.785216   -993.31147 
 1605800    954.48285   -1035.1728     37.99999   -997.17278 
 1606000    824.37552    -1036.048    32.820141   -1003.2279 
 1606200    860.72465   -1030.3879    34.267277   -996.12064 
 1606400    929.76917    -1031.952    37.016086   -994.93588 
 1606600    781.20437   -1033.6526    31.101406   -1002.5512 
 1606800    852.29956   -1033.0308    33.931856   -999.09895 
 1607000    912.50469   -1028.1007     36.32875   -991.77198 
 1607200    864.36357   -1034.1876     34.41215   -999.77546 
 1607400    823.91039    -1034.787    32.801623   -1001.9853 
 1607600     925.7465   -1027.4343    36.855935   -990.57836 
 1607800    924.40317    -1032.373    36.802454   -995.57051 
 1608000    832.25741   -1037.6504    33.133936   -1004.5165 
 1608200    905.78134   -1031.4373     36.06108   -995.37619 
 1608400    911.61729    -1029.129    36.293421   -992.83561 
 1608600    812.38593   -1033.8727     32.34281   -1001.5299 
 1608800    879.08461   -1034.1536    34.998226   -999.15538 
 1609000    876.44323   -1030.8697    34.893067   -995.97664 
 1609200    832.03526   -1033.3415    33.125092   -1000.2164 
 1609400    852.78146   -1033.2642    33.951042   -999.31316 
 1609600    848.32514   -1030.7087    33.773626   -996.93503 
 1609800    919.21337   -1031.8972    36.595837   -995.30135 
 1610000    886.81654   -1032.9417    35.306051   -997.63567 
 1610200    875.16691   -1030.3018    34.842254   -995.45951 
 1610400    931.62262   -1029.7703    37.089876   -992.68047 
 1610600    849.45717   -1029.9364    33.818695   -996.11774 
 1610800    837.44912   -1032.0082    33.340629   -998.66753 
 1611000    887.14469   -1029.0171    35.319115   -993.69799 
 1611200    881.56324   -1029.1851    35.096906   -994.08823 
 1611400     794.1389   -1033.3884    31.616357    -1001.772 
 1611600    873.10601   -1033.1865    34.760205   -998.42631 
 1611800    923.19581    -1030.908    36.754387   -994.15363 
 1612000    898.12054    -1035.461    35.756087   -999.70488 
 1612200    854.89392   -1034.7628    34.035143   -1000.7276 
 1612400     891.7249   -1032.8382    35.501463   -997.33673 
 1612600    931.26698   -1032.4303    37.075717   -995.35462 
 1612800    810.58455   -1036.1439    32.271093   -1003.8728 
 1613000    895.10021   -1034.0896    35.635841   -998.45378 
 1613200     923.7801   -1031.6655    36.777648   -994.88785 
 1613400    823.07406   -1034.4229    32.768327   -1001.6546 
 1613600    848.20374   -1030.9687    33.768793   -997.19995 
 1613800    915.42875   -1030.5803    36.445163   -994.13518 
 1614000    805.07202   -1030.7795    32.051627    -998.7279 
 1614200    863.96154   -1032.3969    34.396145   -998.00073 
 1614400    875.10572   -1031.9371    34.839818   -997.09729 
 1614600    882.00706   -1032.9054    35.114575   -997.79086 
 1614800     844.1602   -1032.6932    33.607811   -999.08541 
 1615000    907.74142   -1034.3443    36.139115   -998.20523 
 1615200    888.80638   -1032.7977    35.385271    -997.4124 
 1615400    878.61275   -1032.7813     34.97944   -997.80188 
 1615600    910.19593   -1032.8784    36.236834   -996.64158 
 1615800    809.61723   -1030.9259    32.232582   -998.69332 
 1616000    841.91144   -1030.6635    33.518283   -997.14524 
 1616200    891.58409   -1029.7727    35.495857   -994.27683 
 1616400    847.86242    -1033.561    33.755204    -999.8058 
 1616600    813.75434   -1033.6968    32.397289   -1001.2995 
 1616800    899.71985    -1031.568    35.819759   -995.74822 
 1617000    926.99804   -1031.5485    36.905761    -994.6427 
 1617200    758.00972   -1032.0088    30.177978   -1001.8309 
 1617400    819.76602   -1032.5784    32.636627   -999.94177 
 1617600    896.97163   -1030.1875    35.710346   -994.47717 
 1617800    894.91195   -1033.1516    35.628346   -997.52329 
 1618000    805.99483   -1034.0901    32.088367   -1002.0018 
 1618200    884.07132   -1029.9466    35.196758   -994.74983 
 1618400    845.00867   -1030.4203    33.641591   -996.77868 
 1618600    819.19134   -1034.6358    32.613748    -1002.022 
 1618800    822.83115   -1031.8037    32.758656   -999.04508 
 1619000    914.94234   -1028.9766    36.425799    -992.5508 
 1619200    805.21636   -1032.1077    32.057374   -1000.0504 
 1619400    788.48737   -1033.2363    31.391358    -1001.845 
 1619600    868.00328   -1028.8169    34.557055   -994.25987 
 1619800     803.1574   -1032.2362    31.975403   -1000.2608 
 1620000    836.86816   -1033.2611      33.3175    -999.9436 
 1620200    862.05985   -1030.1957    34.320434   -995.87531 
 1620400    875.65177   -1033.8556    34.861558   -998.99404 
 1620600    864.90993   -1035.6959    34.433902    -1001.262 
 1620800    897.02384    -1028.724    35.712425   -993.01154 
 1621000    845.63485    -1031.653     33.66652   -997.98649 
 1621200    913.92567    -1037.838    36.385323   -1001.4527 
 1621400    896.32516   -1030.0332    35.684609   -994.34862 
 1621600    869.02626   -1030.1349    34.597782   -995.53714 
 1621800     835.6584   -1032.8357    33.269336   -999.56632 
 1622000    892.50388   -1033.6421    35.532476   -998.10959 
 1622200    934.44579   -1034.0184    37.202272   -996.81612 
 1622400    826.75531   -1034.4196    32.914885   -1001.5048 
 1622600    919.81102   -1033.8619    36.619631   -997.24225 
 1622800    921.30565    -1032.954    36.679136   -996.27489 
 1623000    910.71054    -1037.434    36.257322   -1001.1767 
 1623200    875.72917   -1034.2092    34.864639   -999.34456 
 1623400    872.54355   -1030.1451    34.737813   -995.40725 
 1623600    846.13737   -1033.4847    33.686527   -999.79815 
 1623800    840.33752   -1033.8837    33.455622    -1000.428 
 1624000    949.00449     -1030.53    37.781885   -992.74808 
 1624200    888.81639   -1033.6643    35.385669   -998.27867 
 1624400    754.64312   -1031.7536    30.043946   -1001.7097 
 1624600    901.13987   -1031.4495    35.876293   -995.57324 
 1624800    854.08575    -1030.425    34.002968   -996.42203 
 1625000    895.61828   -1033.3135    35.656467   -997.65702 
 1625200    847.68607   -1032.3438    33.748183   -998.59557 
 1625400    921.28119   -1034.7609    36.678161   -998.08273 
 1625600    891.04881   -1034.2364    35.474546   -998.76181 
 1625800    819.47337   -1031.4564    32.624976   -998.83146 
 1626000    868.36146   -1030.4053    34.571315   -995.83403 
 1626200    835.05272   -1030.4484    33.245223   -997.20322 
 1626400    894.04245   -1030.8369    35.593729   -995.24315 
 1626600    904.17807   -1034.0647     35.99725   -998.06745 
 1626800    827.53842   -1032.1146    32.946063    -999.1685 
 1627000    936.68843   -1031.3209    37.291557   -994.02936 
 1627200    895.63442    -1032.703    35.657109   -997.04593 
 1627400    835.96225   -1033.4164    33.281433   -1000.1349 
 1627600    906.85276   -1033.8406    36.103735   -997.73682 
 1627800     859.1483    -1029.744    34.204519   -995.53948 
 1628000    856.00922   -1031.9985    34.079546   -997.91894 
 1628200    916.80659   -1034.6638    36.500018   -998.16382 
 1628400    881.83508   -1033.5437    35.107728   -998.43593 
 1628600    842.49554    -1030.178    33.541537    -996.6365 
 1628800    884.54823   -1030.3561    35.215744   -995.14038 
 1629000    860.97561   -1032.9866    34.277268    -998.7093 
 1629200    885.52122    -1031.779    35.254481    -996.5245 
 1629400    893.60561    -1030.918    35.576338   -995.34166 
 1629600    828.82456   -1030.0871    32.997267   -997.08987 
 1629800    907.99977   -1032.6514      36.1494   -996.50202 
 1630000    938.64622   -1034.5101    37.369501    -997.1406 
 1630200    871.08049   -1033.1276    34.679565   -998.44802 
 1630400    862.47775   -1031.3093    34.337072   -996.97219 
 1630600     878.7267   -1031.9915    34.983977   -997.00748 
 1630800    879.67731   -1031.9782    35.021823   -996.95634 
 1631000     879.2156   -1030.4895    35.003441   -995.48608 
 1631200    837.61969   -1030.8529     33.34742    -997.5055 
 1631400    827.20198   -1032.4715    32.932668   -999.53886 
 1631600    878.88356   -1030.5322    34.990222   -995.54201 
 1631800    829.69422   -1029.8465     33.03189   -996.81464 
 1632000    857.61682   -1033.8199    34.143548   -999.67633 
 1632200    851.64586   -1032.0372    33.905831   -998.13134 
 1632400    954.63881   -1031.9509    38.006199   -993.94472 
 1632600     912.6751   -1032.4111    36.335535   -996.07552 
 1632800    843.74837   -1031.2824    33.591415   -997.69101 
 1633000    861.67196   -1032.4492    34.304991   -998.14419 
 1633200     856.7295   -1030.2683    34.108221   -996.16009 
 1633400    838.31729   -1032.7362    33.375192   -999.36099 
 1633600    827.61175   -1032.1795    32.948982   -999.23055 
 1633800    908.78185   -1028.5743    36.180536   -992.39376 
 1634000    827.39382   -1031.7284    32.940306   -998.78805 
 1634200    825.63998   -1033.9334    32.870482   -1001.0629 
 1634400    858.45119   -1031.5999    34.176766   -997.42312 
 1634600    919.08264   -1032.6661    36.590633   -996.07549 
 1634800    850.19829   -1033.8606      33.8482   -1000.0124 
 1635000    909.33934   -1030.9514    36.202731   -994.74866 
 1635200    924.64735   -1031.6733    36.812176   -994.86109 
 1635400    817.70294   -1034.6656    32.554491   -1002.1111 
 1635600    832.88363   -1032.3514    33.158867   -999.19256 
 1635800    920.40408   -1027.9207    36.643242   -991.27742 
 1636000    867.48345    -1033.621    34.536359   -999.08464 
 1636200    834.65267   -1035.0956    33.229296   -1001.8663 
 1636400    948.78489   -1031.8304    37.773142    -994.0573 
 1636600    880.54331    -1030.848      35.0563   -995.79166 
 1636800    881.57805   -1032.0974    35.097495   -996.99992 
 1637000     907.5615   -1033.9127    36.131951   -997.78074 
 1637200    841.15301    -1030.049    33.488088   -996.56092 
 1637400     933.6203   -1033.5485    37.169408   -996.37907 
 1637600     860.5703   -1031.4441    34.261132   -997.18292 
 1637800    944.45168   -1031.2222    37.600628   -993.62156 
 1638000     795.1647   -1029.7892    31.657196   -998.13204 
 1638200    887.28582   -1032.9966    35.324734   -997.67189 
 1638400    834.85931   -1032.3952    33.237523   -999.15766 
 1638600    916.10156   -1031.5663    36.471949   -995.09435 
 1638800    879.21739   -1033.2563    35.003512   -998.25277 
 1639000    810.92171   -1033.1705    32.284516   -1000.8859 
 1639200    873.84403    -1028.014    34.789587   -993.22442 
 1639400    873.48399   -1032.2693    34.775254   -997.49404 
 1639600    832.58031   -1033.2469    33.146791   -1000.1001 
 1639800    901.68883    -1032.418    35.898148   -996.51989 
 1640000    937.24753   -1031.7308    37.313815     -994.417 
 1640200    809.32989   -1033.1133    32.221142   -1000.8921 
 1640400    836.04974    -1031.682    33.284917   -998.39703 
 1640600    918.78643   -1027.8853     36.57884   -991.30646 
 1640800    840.07167   -1032.8302    33.445038   -999.38513 
 1641000    875.38805   -1033.8491    34.851058     -998.998 
 1641200    934.16948   -1031.0992    37.191272    -993.9079 
 1641400    886.36404   -1030.8138    35.288036   -995.52576 
 1641600    904.74754   -1035.4495    36.019922   -999.42955 
 1641800    873.24734   -1031.0548    34.765832   -996.28893 
 1642000    888.64633   -1029.5545    35.378899   -994.17564 
 1642200    769.93842   -1030.8008    30.652884   -1000.1479 
 1642400    898.07977   -1030.8515    35.754464   -995.09708 
 1642600    903.48754   -1031.1413    35.969759   -995.17158 
 1642800    807.12241   -1029.7054    32.133258   -997.57211 
 1643000    911.40104   -1030.0589    36.284812   -993.77414 
 1643200    863.50761   -1030.6865    34.378072   -996.30839 
 1643400    855.47691   -1032.6732    34.058353   -998.61488 
 1643600     838.7119   -1028.6366    33.390903    -995.2457 
 1643800    870.56299   -1030.4345    34.658962    -995.7755 
 1644000    826.99063   -1033.2147    32.924254   -1000.2905 
 1644200     887.4576   -1029.5981    35.331573    -994.2665 
 1644400    963.58875   -1033.3616    38.362515   -994.99905 
 1644600    743.23936   -1033.4589    29.589938    -1003.869 
 1644800    962.56801   -1033.8117    38.321878   -995.48979 
 1645000    883.35005   -1029.5095    35.168042   -994.34141 
 1645200    872.26206   -1030.5938    34.726606    -995.8672 
 1645400    845.50426     -1033.74    33.661321   -1000.0787 
 1645600    878.92229   -1031.9134    34.991764   -996.92159 
 1645800    914.65739   -1033.1745    36.414454   -996.76003 
 1646000    813.51461   -1032.2656    32.387745   -999.87788 
 1646200    867.22188   -1030.7804    34.525945   -996.25441 
 1646400    924.57331    -1030.484    36.809228   -993.67482 
 1646600    890.68285   -1033.0194    35.459977   -997.55946 
 1646800    825.84915   -1031.8328    32.878809   -998.95395 
 1647000    870.87271   -1029.0639    34.671293   -994.39258 
 1647200    895.68958   -1032.8804    35.659305   -997.22108 
 1647400    822.56917   -1033.1523    32.748226   -1000.4041 
 1647600    899.29078    -1029.516    35.802677   -993.71335 
 1647800    817.05596   -1027.4966    32.528734   -994.96783 
 1648000    904.08623   -1033.0024    35.993594   -997.00876 
 1648200    913.37347   -1033.1408    36.363338   -996.77743 
 1648400    934.19002   -1030.9325     37.19209   -993.74039 
 1648600    855.79853   -1031.0868    34.071158    -997.0156 
 1648800    864.35216   -1031.1627    34.411696   -996.75102 
 1649000    929.48769   -1031.2631     37.00488   -994.25825 
 1649200    948.19082   -1031.5487    37.749491   -993.79917 
 1649400    808.61919   -1030.8949    32.192848    -998.7021 
 1649600    919.06044   -1030.9803    36.589749   -994.39057 
 1649800    821.24275   -1027.3625    32.695419   -994.66711 
 1650000    905.67011   -1033.6843    36.056651   -997.62768 
 1650200    847.34685   -1034.0733    33.734679   -1000.3386 
 1650400    805.18155   -1029.6006    32.055988   -997.54464 
 1650600    1012.5316   -1031.2079    40.311032   -990.89687 
 1650800    771.99303   -1030.0779    30.734683   -999.34326 
 1651000    930.09324   -1032.3212    37.028988   -995.29223 
 1651200    889.49195   -1027.3851    35.412564    -991.9725 
 1651400    858.68253    -1034.166    34.185976   -999.98002 
 1651600    850.43111   -1033.6532    33.857469   -999.79577 
 1651800    896.57841   -1030.4338    35.694692   -994.73911 
 1652000    849.04124   -1031.8222    33.802136   -998.02005 
 1652200    830.88322   -1032.9439    33.079226   -999.86472 
 1652400    923.04722   -1030.8972    36.748471   -994.14874 
 1652600    862.66488   -1031.8356    34.344522   -997.49105 
 1652800    870.82334   -1033.1862    34.669327   -998.51685 
 1653000    909.34716   -1030.5991    36.203042   -994.39605 
 1653200    871.05362   -1031.0086    34.678495   -996.33011 
 1653400     823.6799   -1032.5477    32.792447   -999.75527 
 1653600     891.1295   -1029.8681    35.477759   -994.39037 
 1653800    881.12655    -1032.602     35.07952   -997.52247 
 1654000    845.61691    -1031.204    33.665806   -997.53821 
 1654200    843.76107   -1029.4825    33.591921   -995.89063 
 1654400    890.73785   -1032.2152    35.462166   -996.75301 
 1654600    847.23472   -1031.9976    33.730214   -998.26737 
 1654800    916.97495   -1031.9487    36.506721   -995.44203 
 1655000    926.71351   -1034.2185    36.894434   -997.32405 
 1655200    858.29041    -1034.354    34.170365   -1000.1837 
 1655400    974.35649   -1035.2224    38.791202   -996.43122 
 1655600    867.35364   -1034.6655    34.531191   -1000.1343 
 1655800    850.38313   -1030.3047    33.855559   -996.44915 
 1656000    918.00985   -1032.3588    36.547923   -995.81087 
 1656200    892.35488   -1032.1668    35.526544   -996.64028 
 1656400    861.27537   -1032.8503    34.289202   -998.56112 
 1656600    971.39562   -1034.4555    38.673323   -995.78218 
 1656800     869.3304   -1033.2908     34.60989   -998.68095 
 1657000    869.27202   -1035.0015    34.607566   -1000.3939 
 1657200    944.75729   -1030.8973    37.612795   -993.28448 
 1657400    861.24849   -1029.5162    34.288132   -995.22804 
 1657600    850.44335   -1031.4976    33.857957   -997.63964 
 1657800    842.27547   -1031.0998    33.532776   -997.56704 
 1658000    914.76656   -1035.0388      36.4188   -998.62003 
 1658200    822.86855   -1030.9343    32.760145   -998.17417 
 1658400    889.20721   -1028.9025    35.401228   -993.50129 
 1658600     837.9306   -1030.7434    33.359798   -997.38358 
 1658800    865.84208   -1032.6876    34.471013   -998.21659 
 1659000    874.89221   -1030.7061    34.831318   -995.87481 
 1659200    908.33967   -1030.9027    36.162932   -994.73981 
 1659400    941.49212   -1033.3847    37.482802   -995.90192 
 1659600    821.57091   -1035.4936    32.708483   -1002.7851 
 1659800    868.02023   -1031.4647    34.557729   -996.90695 
 1660000    863.26033   -1028.5055    34.368228   -994.13726 
 1660200     804.3558   -1033.5249    32.023113   -1001.5018 
 1660400    892.06851   -1032.1981    35.515143   -996.68296 
 1660600    915.32223   -1031.1024    36.440923   -994.66145 
 1660800    798.60798   -1034.3967    31.794281   -1002.6025 
 1661000    877.45881   -1034.6202      34.9335   -999.68673 
 1661200    1002.1716   -1033.9702    39.898582   -994.07158 
 1661400    860.13649   -1033.1452    34.243861    -998.9013 
 1661600    843.33473   -1033.6331    33.574947   -1000.0581 
 1661800    966.61788    -1030.638    38.483111    -992.1549 
 1662000    881.64536   -1033.0683    35.100175   -997.96816 
 1662200    828.75358   -1034.1699    32.994441   -1001.1754 
 1662400    922.98161   -1029.5868    36.745859   -992.84092 
 1662600    913.33541   -1032.0976    36.361823    -995.7358 
 1662800    856.05633   -1035.3348    34.081421   -1001.2534 
 1663000    920.17567   -1031.9599    36.634149    -995.3257 
 1663200    926.99157   -1031.7056    36.905504   -994.80009 
 1663400    825.38665   -1033.5731    32.860396   -1000.7127 
 1663600    898.90767   -1033.9516    35.787424   -998.16415 
 1663800    894.06359   -1030.8055    35.594571   -995.21089 
 1664000    849.12853   -1033.5534    33.805611   -999.74782 
 1664200    830.51399   -1033.8078    33.064526   -1000.7433 
 1664400    921.14739   -1031.5373    36.672835   -994.86447 
 1664600    870.64147   -1034.1729    34.662087    -999.5108 
 1664800    899.65131    -1035.436     35.81703   -999.61898 
 1665000    956.77941   -1033.5075    38.091421   -995.41604 
 1665200    898.24434   -1034.7613    35.761016   -999.00031 
 1665400    842.60363   -1034.9488    33.545841    -1001.403 
 1665600    904.28477   -1031.2752    36.001498   -995.27371 
 1665800    943.80863   -1033.4555    37.575027   -995.88052 
 1666000     844.6615   -1034.4165    33.627769   -1000.7887 
 1666200    909.52838   -1031.9944    36.210257   -995.78411 
 1666400     891.2782   -1030.0816    35.483679   -994.59794 
 1666600    873.68759   -1035.1132    34.783359   -1000.3299 
 1666800    806.69708   -1034.9375    32.116325   -1002.8212 
 1667000    942.38503   -1032.5606     37.51835   -995.04227 
 1667200    906.51835   -1031.0114    36.090421   -994.92099 
 1667400    839.05397   -1035.9599    33.404521   -1002.5554 
 1667600    865.35178   -1033.5956    34.451493   -999.14406 
 1667800    977.78184   -1031.3342    38.927573   -992.40662 
 1668000    834.30779   -1033.0115    33.215566   -999.79594 
 1668200    835.36517   -1036.0249    33.257662   -1002.7672 
 1668400    915.05489    -1031.985    36.430279   -995.55468 
 1668600    885.52079   -1029.9307    35.254464   -994.67622 
 1668800    812.87176   -1034.1849    32.362152   -1001.8228 
 1669000    879.65125   -1033.7258    35.020785   -998.70502 
 1669200    968.66268   -1032.8267    38.564519   -994.26216 
 1669400    877.90986   -1033.3087    34.951457   -998.35724 
 1669600    825.53872    -1034.144    32.866451   -1001.2776 
 1669800    949.10981   -1033.7059    37.786078   -995.91982 
 1670000    875.08222   -1034.2623    34.838882   -999.42345 
 1670200    887.38168   -1035.3761     35.32855   -1000.0476 
 1670400    878.29746   -1032.3616    34.966888   -997.39475 
 1670600    904.24644   -1032.7038    35.999972   -996.70386 
 1670800    918.13336    -1032.687     36.55284   -996.13419 
 1671000    827.27513   -1034.7954    32.935581   -1001.8598 
 1671200    920.82374   -1032.5171    36.659949   -995.85716 
 1671400    868.26636   -1030.9663    34.567529   -996.39877 
 1671600     890.2595   -1034.4952    35.443122   -999.05212 
 1671800    879.94275   -1032.6058    35.032391   -997.57344 
 1672000    874.11665   -1031.5043    34.800441   -996.70389 
 1672200    923.65799   -1034.7023    36.772787   -997.92948 
 1672400    847.76263   -1033.6453    33.751232   -999.89405 
 1672600    925.41692   -1032.8435    36.842814    -996.0007 
 1672800    845.93956   -1031.0417    33.678651   -997.36305 
 1673000    845.13151   -1033.1505    33.646481   -999.50404 
 1673200    872.59328   -1032.6443    34.739792   -997.90453 
 1673400    862.33056   -1028.5491    34.331212   -994.21793 
 1673600    865.99993   -1030.4614    34.477297    -995.9841 
 1673800    900.02912   -1033.1461    35.832072   -997.31407 
 1674000    897.43446   -1032.2979    35.728773   -996.56912 
 1674200    782.33651   -1032.1767    31.146479   -1001.0302 
 1674400    904.32896   -1032.6359    36.003257   -996.63263 
 1674600    956.47669   -1036.1289    38.079369   -998.04957 
 1674800     906.4989   -1036.6463    36.089647   -1000.5566 
 1675000    969.00858   -1032.3649     38.57829   -993.78664 
 1675200    924.90994   -1035.4789     36.82263   -998.65632 
 1675400    812.74916   -1033.1435    32.357271   -1000.7862 
 1675600    854.92479   -1029.8986    34.036372   -995.86219 
 1675800    936.00938   -1031.4631    37.264522   -994.19853 
 1676000    852.06659   -1034.0824    33.922581   -1000.1598 
 1676200     846.5849   -1032.9205    33.704343   -999.21619 
 1676400     995.8353   -1032.9147    39.646319   -993.26841 
 1676600    822.91313   -1033.3586     32.76192   -1000.5967 
 1676800    912.96255   -1033.5449    36.346979   -997.19796 
 1677000    933.85903   -1031.8668    37.178912   -994.68785 
 1677200     861.9841   -1036.1632    34.317419   -1001.8458 
 1677400    876.62672   -1033.0162    34.900372   -998.11584 
 1677600    911.11444   -1030.8619    36.273402   -994.58849 
 1677800    849.98619   -1034.1808    33.839756    -1000.341 
 1678000    825.09259   -1034.2746    32.848689   -1001.4259 
 1678200    951.43969   -1033.0983    37.878836   -995.21944 
 1678400    871.28767   -1031.2463    34.687814   -996.55851 
 1678600    895.56028   -1033.6729    35.654157   -998.01879 
 1678800    929.45463   -1034.1566    37.003563   -997.15307 
 1679000    812.75894   -1030.4823     32.35766   -998.12461 
 1679200    935.90303   -1035.2783    37.260288   -998.01797 
 1679400    864.33086   -1032.4537    34.410848   -998.04282 
 1679600    966.15392   -1033.9063     38.46464    -995.4417 
 1679800    868.73592   -1034.2108    34.586223   -999.62462 
 1680000    878.68694   -1033.8103    34.982394   -998.82791 
 1680200     916.8977   -1030.7253    36.503645   -994.22164 
 1680400    897.91606   -1034.5287    35.747946   -998.78075 
 1680600    839.74901   -1036.5443    33.432192   -1003.1121 
 1680800    900.40304   -1032.5625    35.846958   -996.71558 
 1681000    903.47188   -1032.1257    35.969135    -996.1566 
 1681200    842.33161   -1036.1556    33.535011   -1002.6206 
 1681400    872.84431   -1033.0743    34.749786   -998.32454 
 1681600    900.17609   -1029.9158    35.837923    -994.0779 
 1681800    892.90558   -1034.6415    35.548468   -999.09308 
 1682000    822.46349   -1030.3805    32.744019   -997.63652 
 1682200    956.57328   -1030.1214    38.083215   -992.03818 
 1682400    868.27648   -1035.1708    34.567931   -1000.6029 
 1682600    831.87947   -1031.7272    33.118889   -998.60835 
 1682800    970.69833   -1029.1548    38.645563   -990.50923 
 1683000     866.4161    -1030.225    34.493866    -995.7311 
 1683200    926.23583   -1037.2075    36.875416   -1000.3321 
 1683400    892.19339   -1034.3207    35.520115   -998.80062 
 1683600    914.71589     -1030.67    36.416783    -994.2532 
 1683800     870.0828   -1035.8818    34.639845   -1001.2419 
 1684000    877.56309   -1035.1981    34.937651   -1000.2604 
 1684200    920.58667   -1029.4169    36.650511   -992.76641 
 1684400    898.55724   -1031.4813    35.773473   -995.70786 
 1684600    827.55642   -1035.4098     32.94678    -1002.463 
 1684800    946.74751   -1033.3986     37.69203   -995.70654 
 1685000    976.94127   -1031.4631    38.894108   -992.56899 
 1685200    777.57548   -1035.7136    30.956932   -1004.7566 
 1685400    955.38274   -1035.3938    38.035817   -997.35797 
 1685600    918.78709   -1029.8234    36.578866   -993.24451 
 1685800    838.03964   -1034.3819    33.364139   -1001.0178 
 1686000    909.07898   -1033.6485    36.192366   -997.45618 
 1686200    893.48987   -1033.8666     35.57173   -998.29483 
 1686400    895.26242   -1031.2688    35.642299   -995.62646 
 1686600    871.70126    -1031.854    34.704279    -997.1497 
 1686800    847.02473   -1034.0191    33.721854   -1000.2973 
 1687000    874.26002   -1031.0236    34.806149   -996.21748 
 1687200    832.18043   -1028.5806    33.130871   -995.44973 
 1687400    923.02684   -1036.2215     36.74766    -999.4738 
 1687600    878.15899   -1036.0988    34.961375   -1001.1374 
 1687800    987.86872   -1035.0171    39.329153   -995.68796 
 1688000    976.35699   -1034.4075    38.870846   -995.53661 
 1688200    866.39542   -1038.8498    34.493042   -1004.3568 
 1688400    912.33999   -1034.0358    36.322193   -997.71358 
 1688600    960.28842   -1031.6534    38.231122   -993.42232 
 1688800    914.23863   -1033.9061    36.397782   -997.50834 
 1689000    887.68802   -1032.8357    35.340746   -997.49499 
 1689200    848.33404   -1029.8174    33.773981   -996.04338 
 1689400    859.99363   -1030.8104    34.238174   -996.57228 
 1689600    822.55112    -1033.871    32.747508   -1001.1235 
 1689800    900.75044   -1030.8881    35.860789   -995.02735 
 1690000    880.58584   -1031.9631    35.057993   -996.90509 
 1690200    819.44634   -1031.5417      32.6239   -998.91779 
 1690400    899.62604   -1033.4716    35.816024   -997.65554 
 1690600    880.61403   -1032.7714    35.059116    -997.7123 
 1690800    925.85986   -1035.6555    36.860448   -998.79502 
 1691000    848.68975   -1036.6311    33.788142    -1002.843 
 1691200    943.07731   -1033.3722    37.545912   -995.82632 
 1691400    914.82457     -1033.17     36.42111    -996.7489 
 1691600    889.23275   -1034.0486    35.402245   -998.64635 
 1691800    893.34662   -1036.0249    35.566027   -1000.4588 
 1692000    881.34761   -1032.4577    35.088321   -997.36938 
 1692200     854.6105   -1028.8115     34.02386   -994.78762 
 1692400     827.2307   -1031.7096    32.933812   -998.77583 
 1692600    973.68268   -1032.8541    38.764376   -994.08972 
 1692800    831.01234   -1031.4243    33.084367   -998.33992 
 1693000    889.90938   -1031.6034    35.429183   -996.17426 
 1693200    854.61004   -1032.8971    34.023841   -998.87321 
 1693400    866.81631    -1031.316    34.509799   -996.80623 
 1693600    937.62512   -1031.2062    37.328848   -993.87739 
 1693800    835.71605   -1034.6051    33.271632   -1001.3335 
 1694000    897.03742   -1033.7821    35.712966    -998.0691 
 1694200    900.32695   -1030.6136    35.843929   -994.76971 
 1694400    952.80418   -1035.0553    37.933159   -997.12218 
 1694600    849.09905   -1032.3648    33.804437   -998.56033 
 1694800    944.19872   -1030.8708    37.590557   -993.28026 
 1695000    945.38746   -1036.9504    37.637883   -999.31247 
 1695200    828.53828   -1033.3654    32.985869   -1000.3795 
 1695400    912.76369     -1029.21    36.339062   -992.87097 
 1695600      841.947   -1030.8218    33.519699   -997.30215 
 1695800    887.42811   -1034.5794    35.330398   -999.24903 
 1696000    891.49383    -1031.793    35.492263   -996.30074 
 1696200    933.02392    -1031.257    37.145665    -994.1113 
 1696400    896.88235   -1036.1747    35.706792   -1000.4679 
 1696600    906.07734   -1032.6981    36.072864   -996.62521 
 1696800    918.38334   -1029.5928    36.562792   -993.03004 
 1697000    829.24235   -1031.2083      33.0139   -998.19438 
 1697200    892.39929    -1035.546    35.528312   -1000.0177 
 1697400    902.95824   -1032.9739    35.948686   -997.02521 
 1697600    980.06616   -1033.7332    39.018516   -994.71465 
 1697800    879.31475   -1038.9232    35.007389   -1003.9158 
 1698000    863.05054   -1034.1219    34.359876     -999.762 
 1698200    981.65297   -1030.3998    39.081691   -991.31809 
 1698400    851.50705   -1034.5584    33.900305   -1000.6581 
 1698600    859.86474    -1034.552    34.233042    -1000.319 
 1698800    909.98296   -1028.6921    36.228355   -992.46372 
 1699000    886.70335   -1032.6064    35.301544   -997.30488 
 1699200    912.15478   -1035.7053     36.31482   -999.39044 
 1699400    798.47404   -1032.3452    31.788948   -1000.5563 
 1699600    919.47949   -1032.2975    36.606432   -995.69103 
 1699800    852.27392    -1032.842    33.930836   -998.91117 
 1700000      935.201    -1035.184    37.232339    -997.9517 
 1700200    886.63947    -1031.443    35.299001   -996.14397 
 1700400    885.07365   -1033.5361    35.236663   -998.29947 
 1700600    903.07966   -1032.3749     35.95352   -996.42139 
 1700800    890.14941   -1033.2084    35.438739   -997.76968 
 1701000    908.41224   -1031.6642    36.165821   -995.49837 
 1701200    905.21951   -1032.1744    36.038712   -996.13564 
 1701400    911.90184   -1033.7415     36.30475   -997.43672 
 1701600    899.38239   -1033.3751    35.806324   -997.56881 
 1701800    940.64143   -1033.3906    37.448934   -995.94167 
 1702000    841.71179   -1031.8443    33.510335   -998.33396 
 1702200    889.73589    -1034.141    35.422276    -998.7187 
 1702400    1011.8146    -1034.209    40.282488   -993.92649 
 1702600     867.1333   -1033.8978    34.522419   -999.37536 
 1702800    870.74751   -1032.3692    34.666308   -997.70288 
 1703000    929.51737   -1030.2471    37.006061   -993.24109 
 1703200    947.14841   -1037.4649     37.70799   -999.75687 
 1703400    892.61001   -1036.5373    35.536701   -1001.0006 
 1703600    902.39826   -1030.5894    35.926392   -994.66303 
 1703800    942.41623   -1032.9082    37.519592   -995.38856 
 1704000    854.51465     -1034.37    34.020044     -1000.35 
 1704200    944.23647    -1032.516     37.59206   -994.92392 
 1704400    943.26167   -1032.2835    37.553251    -994.7303 
 1704600    832.69432   -1033.2332     33.15133   -1000.0819 
 1704800    896.84703   -1033.7548    35.705386   -998.04942 
 1705000    905.74819   -1030.9786     36.05976    -994.9188 
 1705200    930.21455   -1034.2447    37.033818   -997.21087 
 1705400    886.78912   -1035.1454    35.304959   -999.84043 
 1705600    896.44108   -1033.1206    35.689224   -997.43135 
 1705800    911.44346   -1033.1302    36.286501    -996.8437 
 1706000    865.83151   -1032.2199    34.470592   -997.74932 
 1706200     813.8726   -1031.8024    32.401998   -999.40037 
 1706400    888.70582   -1034.9792    35.381267   -999.59789 
 1706600    939.55429   -1032.7832    37.405652   -995.37755 
 1706800     988.7777   -1036.4392    39.365341   -997.07385 
 1707000    875.81772   -1033.7144    34.868164    -998.8462 
 1707200    964.43016    -1034.615    38.396014   -996.21903 
 1707400    854.68828   -1028.3619    34.026956   -994.33493 
 1707600    880.24008   -1029.9832    35.044228   -994.93897 
 1707800      911.647   -1033.7134    36.294604   -997.41877 
 1708000    981.76188   -1032.2672    39.086026   -993.18119 
 1708200    843.78168   -1031.4963    33.592741   -997.90354 
 1708400    863.43612   -1031.8119    34.375227    -997.4367 
 1708600    1027.3798   -1034.0987    40.902171   -993.19657 
 1708800    854.76444   -1032.7258    34.029989   -998.69578 
 1709000     914.8673   -1033.7393    36.422811   -997.31653 
 1709200    899.62614   -1030.9293    35.816028   -995.11328 
 1709400     874.2423   -1032.9072    34.805443   -998.10173 
 1709600     853.1155   -1034.4122    33.964341   -1000.4479 
 1709800    937.60939   -1033.3309    37.328222   -996.00271 
 1710000    922.38756   -1031.3239    36.722209   -994.60165 
 1710200    874.89854   -1031.4511     34.83157   -996.61948 
 1710400     915.2883   -1036.3192    36.439572   -999.87963 
 1710600    876.48946    -1032.801    34.894907   -997.90605 
 1710800     961.7839   -1031.9667     38.29066   -993.67603 
 1711000    857.96228   -1034.4624    34.157301   -1000.3051 
 1711200    895.11594   -1033.8358    35.636468   -998.19929 
 1711400    984.93306   -1030.0604    39.212278   -990.84815 
 1711600    906.97579    -1034.659    36.108633    -998.5504 
 1711800    922.96804   -1034.7259    36.745319   -997.98061 
 1712000    927.11299   -1031.3007    36.910338   -994.39039 
 1712200     879.9225   -1031.0045    35.031584   -995.97292 
 1712400    932.93584   -1034.8199    37.142158   -997.67774 
 1712600    912.45507   -1031.4455    36.326775   -995.11868 
 1712800    960.47086   -1030.3412    38.238386   -992.10279 
 1713000    875.48203   -1032.6507      34.8548   -997.79594 
 1713200    862.94208   -1033.4242    34.355557   -999.06868 
 1713400    894.83768   -1029.5253    35.625389    -993.8999 
 1713600    890.64673   -1031.9046    35.458538   -996.44605 
 1713800    879.81978    -1034.074    35.027495   -999.04654 
 1714000    883.15117   -1031.7242    35.160125   -996.56409 
 1714200    924.50827   -1031.4109    36.806638   -994.60423 
 1714400     884.7102   -1034.1125    35.222193   -998.89029 
 1714600    891.03659   -1033.5244     35.47406   -998.05036 
 1714800    930.75815   -1029.9231     37.05546   -992.86769 
 1715000    835.57709   -1032.4757    33.266099   -999.20965 
 1715200    839.01762   -1032.4936    33.403074   -999.09056 
 1715400    931.39616   -1028.3339     37.08086   -991.25305 
 1715600    914.24684   -1034.1296    36.398109   -997.73149 
 1715800    864.39397   -1034.4377     34.41336   -1000.0243 
 1716000    930.37641   -1030.7961    37.040262   -993.75584 
 1716200    955.86022     -1031.47    38.054826   -993.41513 
 1716400    851.01155   -1035.5996    33.880578    -1001.719 
 1716600    865.46027   -1030.7875    34.455812   -996.33167 
 1716800    947.57553   -1028.2661    37.724995   -990.54114 
 1717000    867.94339   -1033.6766     34.55467   -999.12196 
 1717200    861.62823   -1033.9787     34.30325   -999.67543 
 1717400    874.77061    -1027.961    34.826477   -993.13455 
 1717600    969.52924   -1032.3272    38.599019    -993.7282 
 1717800    834.98219   -1035.2161    33.242415   -1001.9737 
 1718000    950.21181   -1031.0619    37.829951   -993.23192 
 1718200    919.26552   -1029.0174    36.597914   -992.41949 
 1718400    865.87209   -1036.5905    34.472208   -1002.1183 
 1718600    793.08248   -1031.5185    31.574298   -999.94417 
 1718800    938.83386   -1028.6015     37.37697   -991.22455 
 1719000     862.2213   -1032.9366    34.326862    -998.6097 
 1719200    790.91003   -1032.0323    31.487809   -1000.5445 
 1719400    996.32565   -1030.4555    39.665841   -990.78966 
 1719600    920.77492   -1035.7731    36.658006   -999.11506 
 1719800     862.2897   -1034.9949    34.329585   -1000.6653 
 1720000    942.09475   -1028.8779    37.506794   -991.37111 
 1720200    858.29817   -1029.1084    34.170674   -994.93776 
 1720400     897.7618    -1034.908    35.741805   -999.16623 
 1720600    895.08716   -1033.7649    35.635322    -998.1296 
 1720800    954.78765   -1029.9679    38.012125   -991.95581 
 1721000    880.77099   -1030.9589    35.065365   -995.89351 
 1721200    878.57651   -1034.1619    34.977998   -999.18385 
 1721400    977.30834   -1034.0779    38.908722   -995.16918 
 1721600     922.6291   -1032.3942    36.731825   -995.66241 
 1721800    853.39655   -1033.3292     33.97553   -999.35367 
 1722000    864.67256    -1029.032    34.424452   -994.60755 
 1722200    876.54583   -1029.8335    34.897152   -994.93638 
 1722400    857.38463   -1033.3811    34.134304   -999.24683 
 1722600    949.66618   -1034.9916    37.808228   -997.18336 
 1722800    936.26384   -1030.3515    37.274653   -993.07681 
 1723000    893.56046   -1029.7096    35.574541   -994.13501 
 1723200    861.37286   -1033.4542    34.293084   -999.16114 
 1723400    982.14858   -1030.7273    39.101422   -991.62583 
 1723600    939.69221     -1032.69    37.411143   -995.27887 
 1723800    874.76676   -1034.9295    34.826323   -1000.1032 
 1724000     900.5046   -1032.3278    35.851001   -996.47677 
 1724200    914.32384   -1032.5187    36.401175   -996.11755 
 1724400    910.03556   -1033.7491    36.230449   -997.51868 
 1724600     854.8171   -1033.5214    34.032085   -999.48933 
 1724800    973.85106   -1032.3104     38.77108   -993.53929 
 1725000    880.18854   -1032.1403    35.042176   -997.09811 
 1725200    849.39719   -1033.0248    33.816307    -999.2085 
 1725400    1008.8046   -1031.6538    40.162654   -991.49117 
 1725600    937.33385   -1032.4785    37.317252   -995.16127 
 1725800    777.65578   -1030.8622    30.960129   -999.90204 
 1726000    997.63543   -1029.3493    39.717986   -989.63131 
 1726200    928.48122    -1032.031     36.96481   -995.06619 
 1726400    840.23919   -1032.4537    33.451707   -999.00203 
 1726600    943.37886   -1029.7651    37.557917   -992.20716 
 1726800    939.13949   -1029.9009    37.389139   -992.51172 
 1727000     953.6985   -1033.9148    37.968764   -995.94607 
 1727200    904.42937   -1032.4062    36.007255   -996.39892 
 1727400    919.42072    -1026.559    36.604092   -989.95494 
 1727600    870.83569   -1030.0821    34.669819    -995.4123 
 1727800    877.02523   -1031.8363    34.916238   -996.92006 
 1728000    980.81514   -1029.3119    39.048335   -990.26356 
 1728200    883.75644   -1027.0649    35.184222   -991.88068 
 1728400    892.69522   -1032.9643    35.540093   -997.42416 
 1728600    910.17886   -1030.1157    36.236154   -993.87951 
 1728800    895.59918    -1029.433    35.655706   -993.77734 
 1729000    951.05368    -1032.218    37.863468   -994.35451 
 1729200    890.86635    -1030.747    35.467282   -995.27973 
 1729400    960.28139   -1034.0453    38.230842   -995.81448 
 1729600    910.84794   -1031.1958    36.262792   -994.93303 
 1729800    851.73326     -1031.45    33.909311   -997.54066 
 1730000    908.05149   -1030.6534    36.151459   -994.50192 
 1730200    971.73254   -1031.0115    38.686737   -992.32481 
 1730400    879.62242   -1028.3339    35.019638   -993.31427 
 1730600    850.90844   -1031.1919    33.876473   -997.31546 
 1730800    900.18666   -1028.8873    35.838343   -993.04894 
 1731000    929.25215   -1027.5457    36.995502   -990.55023 
 1731200    885.84886   -1031.8383    35.267525   -996.57078 
 1731400    885.88387   -1031.0993    35.268919   -995.83035 
 1731600    992.57893   -1029.9458    39.516676   -990.42915 
 1731800    884.95606   -1030.3644    35.231981   -995.13243 
 1732000    886.42196   -1032.0313    35.290342   -996.74095 
 1732200    893.37066   -1029.6568    35.566984   -994.08978 
 1732400    958.55912    -1032.014    38.162275   -993.85171 
 1732600    857.74035   -1034.9669    34.148466   -1000.8184 
 1732800     949.6107   -1033.2284     37.80602   -995.42239 
 1733000    955.62813   -1031.9648    38.045586   -993.91919 
 1733200     910.9044   -1032.2458     36.26504   -995.98079 
 1733400    889.48391   -1031.4741    35.412244   -996.06182 
 1733600     922.6556   -1028.9934     36.73288    -992.2605 
 1733800    925.78016   -1031.3879    36.857275   -994.53062 
 1734000    904.70268   -1034.4062    36.018136    -998.3881 
 1734200    917.94535   -1031.6114    36.545355   -995.06601 
 1734400     897.3314   -1032.5323    35.724669   -996.80761 
 1734600    912.85655   -1034.8986    36.342759   -998.55588 
 1734800    940.14359   -1031.8056    37.429114   -994.37649 
 1735000    908.95037    -1031.783    36.187246   -995.59575 
 1735200    867.79701   -1030.9928    34.548843   -996.44398 
 1735400     862.9137   -1028.6003    34.354428    -994.2459 
 1735600    856.93492   -1028.5826      34.1164   -994.46624 
 1735800    1016.4923    -1033.236    40.468718   -992.76726 
 1736000    864.27392   -1032.1251    34.408581   -997.71647 
 1736200    928.43014    -1030.774    36.962776    -993.8112 
 1736400    906.34737   -1029.5567    36.083614   -993.47305 
 1736600    956.61994   -1033.3868    38.085072    -995.3017 
 1736800    887.32959   -1033.1274    35.326476   -997.80088 
 1737000    915.34671   -1033.4813    36.441897    -997.0394 
 1737200    929.02281   -1030.2161    36.986372   -993.22971 
 1737400    878.88075   -1028.1811     34.99011   -993.19099 
 1737600    884.66201   -1031.1819    35.220274    -995.9616 
 1737800    927.49012   -1031.4155    36.925352   -994.49013 
 1738000    907.58795   -1028.6779    36.133005    -992.5449 
 1738200    957.31713   -1033.6697    38.112829   -995.55685 
 1738400    853.45374   -1032.8238    33.977807   -998.84599 
 1738600    936.57084   -1031.5379    37.286875   -994.25107 
 1738800    939.62163   -1032.3342    37.408333   -994.92584 
 1739000    885.28153   -1032.8626    35.244939    -997.6177 
 1739200    865.26214   -1031.3714    34.447924   -996.92346 
 1739400    948.91162   -1030.0048    37.778188   -992.22661 
 1739600     999.5108   -1030.5633    39.792648   -990.77067 
 1739800    858.52198   -1031.6276    34.179584   -997.44806 
 1740000    878.68546   -1030.3426    34.982335    -995.3603 
 1740200    923.31622   -1025.5199     36.75918   -988.76071 
 1740400    831.17398   -1031.5301    33.090802   -998.43927 
 1740600    879.55101   -1032.1944    35.016795    -997.1776 
 1740800    946.80151   -1027.6264     37.69418   -989.93217 
 1741000    907.56774   -1030.6112      36.1322   -994.47903 
 1741200    917.85504   -1032.9837    36.541759   -996.44195 
 1741400    866.95015   -1030.1223    34.515128    -995.6072 
 1741600    879.40127   -1029.3551    35.010833   -994.34426 
 1741800     951.8976   -1029.9538    37.897066   -992.05671 
 1742000    943.38565   -1033.9248    37.558187   -996.36663 
 1742200    895.07765   -1030.2394    35.634943   -994.60446 
 1742400    1002.6265   -1034.8512    39.916691   -994.93455 
 1742600    889.31229   -1033.1518    35.405412   -997.74643 
 1742800    940.68907   -1034.0725     37.45083   -996.62172 
 1743000    992.10765   -1033.4513    39.497913   -993.95342 
 1743200    898.49959    -1030.477    35.771178   -994.70583 
 1743400    846.91228   -1028.6917    33.717377   -994.97435 
 1743600    906.72252   -1031.5257     36.09855   -995.42718 
 1743800    913.70133   -1029.9677    36.376391   -993.59126 
 1744000    943.12597    -1029.276    37.547849   -991.72812 
 1744200    845.60941   -1032.2503    33.665507   -998.58483 
 1744400    918.40954   -1032.6509    36.563835   -996.08708 
 1744600    980.75641   -1034.0212    39.045996   -994.97522 
 1744800    918.28216   -1037.1418    36.558764    -1000.583 
 1745000    972.38262   -1033.8442    38.712618   -995.13154 
 1745200     959.6515   -1032.8712    38.205765   -994.66545 
 1745400    927.20729    -1033.626    36.914092   -996.71186 
 1745600    932.48513   -1030.8128    37.124214   -993.68854 
 1745800     882.2965    -1031.453    35.126098    -996.3269 
 1746000    859.87942   -1031.9612    34.233627   -997.72762 
 1746200    955.81473   -1029.5564    38.053015   -991.50341 
 1746400    883.54078    -1029.596    35.175636   -994.42034 
 1746600    887.00288   -1032.4857    35.313469   -997.17223 
 1746800    939.82077   -1030.3784    37.416262   -992.96214 
 1747000    944.55819   -1033.9857    37.604869   -996.38079 
 1747200    779.44272   -1029.9148    31.031271   -998.88354 
 1747400    978.59222   -1029.6511    38.959835   -990.69129 
 1747600    972.00974   -1032.1152    38.697773   -993.41744 
 1747800    805.93811   -1033.6536    32.086109   -1001.5675 
 1748000    992.75542   -1031.0998    39.523703   -991.57608 
 1748200    932.36329   -1025.7672    37.119363   -988.64784 
 1748400    854.89016   -1030.7276    34.034993   -996.69265 
 1748600    896.93195   -1033.0773    35.708767   -997.36856 
 1748800    1008.9981   -1026.4446    40.170358   -986.27419 
 1749000    896.51443   -1028.6611    35.692144   -992.96896 
 1749200    809.16039   -1032.2235    32.214394   -1000.0091 
 1749400    979.87063   -1029.5517    39.010731   -990.54099 
 1749600    898.28958   -1028.8018    35.762817   -993.03896 
 1749800    898.95894    -1034.425    35.789465    -998.6355 
 1750000    858.52583   -1031.4438    34.179737   -997.26402 
 1750200    1014.4302   -1027.0368     40.38662   -986.65022 
 1750400    854.33502   -1028.6312    34.012892   -994.61832 
 1750600    835.22474   -1032.0823    33.252072   -998.83022 
 1750800    908.62274   -1026.3232    36.174202   -990.14896 
 1751000    871.80794   -1026.0873    34.708526   -991.37882 
 1751200    887.26333   -1032.0682    35.323838   -996.74432 
 1751400     907.7005    -1035.218    36.137485   -999.08049 
 1751600    1025.7422    -1029.553    40.836975   -988.71603 
 1751800    895.22826   -1029.6216    35.640939   -993.98061 
 1752000    835.98728   -1033.0417     33.28243   -999.75925 
 1752200    964.72241   -1030.8599    38.407649   -992.45225 
 1752400    951.06227   -1029.1087     37.86381   -991.24494 
 1752600    857.29491   -1033.0916    34.130732   -998.96083 
 1752800    914.43698   -1031.9455    36.405679   -995.53985 
 1753000     922.1755   -1027.4058    36.713766   -990.69204 
 1753200    947.38559   -1028.8802    37.717433   -991.16272 
 1753400    891.54888   -1033.9587    35.494455   -998.46427 
 1753600    958.83984   -1030.3085    38.173451   -992.13505 
 1753800    941.46045   -1029.7865    37.481541   -992.30498 
 1754000      838.281   -1032.7413    33.373748   -999.36759 
 1754200    982.65028   -1029.6476    39.121396   -990.52617 
 1754400     961.8983   -1028.1265    38.295215   -989.83132 
 1754600    940.66797   -1032.3098     37.44999   -994.85978 
 1754800      873.776   -1030.6275    34.786879   -995.84061 
 1755000    903.13456   -1026.8347    35.955706   -990.87895 
 1755200    863.06777   -1027.3443    34.360562   -992.98371 
 1755400    934.95811   -1031.9943    37.222669   -994.77159 
 1755600    937.23762   -1028.3358    37.313421   -991.02234 
 1755800    932.60369    -1030.863    37.128934   -993.73404 
 1756000    834.58098   -1026.4549    33.226442   -993.22848 
 1756200    958.54792   -1028.8415    38.161829   -990.67971 
 1756400      882.087   -1032.0267    35.117758   -996.90895 
 1756600    853.50386   -1030.5498    33.979802   -996.57004 
 1756800    1004.5841   -1029.7849    39.994628   -989.79027 
 1757000    917.17105   -1031.2201    36.514528   -994.70556 
 1757200    922.33743   -1032.0123    36.720213   -995.29207 
 1757400    892.75072   -1029.0627    35.542303   -993.52037 
 1757600    945.32902   -1028.9971    37.635557   -991.36152 
 1757800    861.17657   -1031.5049    34.285269   -997.21962 
 1758000    913.50038   -1029.9414    36.368391   -993.57298 
 1758200     906.6303   -1027.2465    36.094878   -991.15161 
 1758400    885.80714   -1031.8101    35.265864   -996.54419 
 1758600    917.58017   -1031.6158    36.530816   -995.08498 
 1758800    963.19716   -1030.3282    38.346926   -991.98125 
 1759000    912.25325    -1030.797     36.31874   -994.47823 
 1759200    893.56981    -1032.271    35.574913   -996.69606 
 1759400    918.01998   -1027.8827    36.548326   -991.33441 
 1759600    916.98807    -1029.921    36.507244   -993.41374 
 1759800    855.36966   -1031.0407    34.054084   -996.98658 
 1760000    933.71197   -1028.9783    37.173057   -991.80529 
 1760200    964.39352   -1029.0045    38.394555   -990.60994 
 1760400    914.57803   -1032.7793    36.411295   -996.36798 
 1760600    916.15075   -1031.4818    36.473908   -995.00794 
 1760800    979.06247   -1028.7052    38.978557   -989.72664 
 1761000    873.30163   -1034.5775    34.767993   -999.80949 
 1761200    907.24143   -1034.4479    36.119209   -998.32866 
 1761400    950.10426   -1028.7424    37.825669   -990.91675 
 1761600    937.68409   -1033.7176    37.331196   -996.38637 
 1761800     852.4637   -1031.8213    33.938391   -997.88288 
 1762000    928.17747   -1030.1961    36.952717   -993.24337 
 1762200    1012.3053   -1035.2061    40.302025   -994.90404 
 1762400    923.79596   -1034.5875     36.77828   -997.80923 
 1762600    1015.8806   -1034.2251    40.444367   -993.78072 
 1762800    859.41829   -1029.2074    34.215268   -994.99216 
 1763000    939.86638    -1034.218    37.418078   -996.79995 
 1763200    897.22216   -1031.7525     35.72032   -996.03219 
 1763400    941.64233   -1030.8191    37.488782   -993.33032 
 1763600    912.18772   -1031.8399    36.316131   -995.52375 
 1763800    900.78018   -1033.7627    35.861973   -997.90077 
 1764000    910.56174   -1030.0986    36.251398   -993.84721 
 1764200    926.56728    -1026.304    36.888612   -989.41534 
 1764400    928.12068    -1030.428    36.950456   -993.47753 
 1764600    887.69436   -1033.6487    35.340999    -998.3077 
 1764800    952.79945   -1032.9824     37.93297   -995.04941 
 1765000    916.29995    -1029.695    36.479848   -993.21513 
 1765200    898.58507   -1029.3281    35.774581   -993.55347 
 1765400    911.32209   -1030.1703    36.281669   -993.88866 
 1765600    956.86923   -1031.7338    38.094997   -993.63882 
 1765800    938.17398    -1031.573    37.350699   -994.22235 
 1766000     891.8155   -1031.4464     35.50507   -995.94136 
 1766200    968.78352   -1030.6711     38.56933   -992.10173 
 1766400    899.66698   -1032.6202    35.817654   -996.80253 
 1766600    926.08177   -1032.4751    36.869283   -995.60583 
 1766800    889.86805   -1030.2719    35.427538   -994.84437 
 1767000    975.77342   -1031.9752    38.847613   -993.12754 
 1767200    917.60297   -1030.7612    36.531724   -994.22946 
 1767400     967.8654   -1034.5757    38.532778   -996.04288 
 1767600    903.56517   -1031.7825    35.972849   -995.80963 
 1767800    932.69206   -1031.0217    37.132453   -993.88929 
 1768000    922.28384   -1029.8706    36.718079   -993.15251 
 1768200    902.83533   -1027.8543    35.943793    -991.9105 
 1768400    860.58146   -1027.5841    34.261576   -993.32256 
 1768600    906.54371   -1032.0371    36.091431   -995.94565 
 1768800    976.81097   -1034.1491     38.88892   -995.26016 
 1769000    928.95632   -1028.4035    36.983725   -991.41978 
 1769200    896.96263   -1029.6637    35.709988   -993.95372 
 1769400    834.42198   -1029.7302    33.220112    -996.5101 
 1769600      922.252   -1029.3147    36.716811   -992.59794 
 1769800    921.09789   -1025.1975    36.670864   -988.52659 
 1770000    859.13303   -1031.6482    34.203911   -997.44425 
 1770200    926.85608   -1033.5065     36.90011   -996.60641 
 1770400      960.952   -1029.8062    38.257541   -991.54862 
 1770600    909.70035   -1033.3948    36.217104   -997.17771 
 1770800    841.51981   -1030.5518    33.502692   -997.04915 
 1771000    949.66752   -1029.2051    37.808282   -991.39682 
 1771200    890.00203   -1028.7743    35.432872   -993.34147 
 1771400     850.4196   -1030.6351    33.857011   -996.77807 
 1771600    964.30355    -1031.904    38.390973   -993.51299 
 1771800    968.22836   -1029.9188    38.547228   -991.37153 
 1772000     847.6769   -1030.1515    33.747818   -996.40364 
 1772200    917.65898   -1032.6617    36.533954   -996.12772 
 1772400    976.07569   -1030.3769    38.859647   -991.51729 
 1772600    835.77481   -1028.9635    33.273971   -995.68956 
 1772800    883.00567   -1030.7712    35.154332   -995.61684 
 1773000    966.09382   -1026.5972    38.462248   -988.13492 
 1773200    911.39233   -1029.1669    36.284465   -992.88244 
 1773400    884.01817   -1032.5329    35.194642   -997.33827 
 1773600    876.38639   -1026.6958    34.890804   -991.80496 
 1773800    1010.3406   -1026.9935    40.223806   -986.76972 
 1774000    882.55098    -1031.953     35.13623   -996.81674 
 1774200    874.82719   -1032.5667    34.828729   -997.73799 
 1774400    1028.0345   -1028.6165    40.928236   -987.68823 
 1774600    863.45257    -1029.158    34.375881   -994.78211 
 1774800    933.30855   -1031.4591    37.156996   -994.30208 
 1775000    934.98487    -1030.309    37.223734   -993.08528 
 1775200    937.33874   -1029.9422    37.317447   -992.62478 
 1775400    935.20506    -1031.179      37.2325   -993.94648 
 1775600     899.7579   -1031.1919    35.821274   -995.37064 
 1775800    905.17966   -1030.4647    36.037126   -994.42758 
 1776000    908.41212    -1031.169    36.165816   -995.00319 
 1776200    854.93858   -1030.4619    34.036921     -996.425 
 1776400    996.99145    -1033.488    39.692348   -993.79569 
 1776600    878.65053   -1031.3461    34.980944    -996.3652 
 1776800    962.42029   -1030.6562    38.315996   -992.34017 
 1777000    893.22443   -1031.2884    35.561163   -995.72719 
 1777200     943.4957    -1030.722    37.562568   -993.15947 
 1777400    883.56935   -1031.0854    35.176773    -995.9086 
 1777600    895.71049   -1029.2287    35.660138   -993.56852 
 1777800    878.33992   -1025.7015    34.968578   -990.73288 
 1778000    891.85837   -1029.1453    35.506777   -993.63848 
 1778200    922.31056   -1031.6796    36.719143   -994.96042 
 1778400    911.98408   -1030.6964    36.308024   -994.38841 
 1778600    929.54449   -1029.2237    37.007141    -992.2166 
 1778800    867.69788   -1031.4686    34.544896   -996.92371 
 1779000    917.71277    -1034.341    36.536095   -997.80489 
 1779200    895.49553   -1028.2494     35.65158   -992.59787 
 1779400    951.09086   -1030.1525    37.864948   -992.28755 
 1779600    929.74619   -1033.2773    37.015171   -996.26209 
 1779800     899.7396   -1032.5394    35.820545   -996.71881 
 1780000    964.33351   -1028.1426    38.392166   -989.75039 
 1780200    909.46736   -1030.1469    36.207828   -993.93911 
 1780400    876.36858   -1034.0745    34.890095   -999.18441 
 1780600    946.04036    -1029.142    37.663877   -991.47817 
 1780800    1016.8379   -1032.0905    40.482479   -991.60806 
 1781000    829.70738   -1032.2844    33.032414   -999.25198 
 1781200    953.69043   -1031.3977    37.968442   -993.42924 
 1781400    917.84857   -1027.2314    36.541502   -990.68991 
 1781600    868.41307    -1033.976    34.573369    -999.4026 
 1781800    929.55184   -1033.2256    37.007434   -996.21816 
 1782000    970.48986    -1028.283    38.637263   -989.64571 
 1782200    928.10254   -1034.9174    36.949734   -997.96765 
 1782400    846.72252   -1033.5166    33.709823   -999.80677 
 1782600    958.78231    -1028.109    38.171161   -989.93783 
 1782800    1017.6047   -1031.2665    40.513004   -990.75348 
 1783000    843.71278   -1035.2619    33.589998   -1001.6719 
 1783200      922.003   -1031.2151    36.706898   -994.50815 
 1783400    995.21271    -1027.486    39.621533   -987.86445 
 1783600     907.9315   -1034.1588    36.146682    -998.0121 
 1783800    875.01551   -1034.5327    34.836227   -999.69644 
 1784000    951.50225   -1027.6931    37.881326   -989.81178 
 1784200    934.19141    -1030.708    37.192145   -993.51582 
 1784400    868.72721   -1036.1246    34.585876   -1001.5387 
 1784600    1017.4889   -1034.0639    40.508396   -993.55552 
 1784800     953.9935   -1030.1626    37.980508    -992.1821 
 1785000    909.53282   -1034.8101    36.210434   -998.59966 
 1785200    992.50304   -1034.3268    39.513655   -994.81317 
 1785400    978.20277   -1030.8932    38.944331   -991.94892 
 1785600     893.1961   -1033.4444    35.560035   -997.88439 
 1785800    946.21708   -1035.0644    37.670912   -997.39344 
 1786000    1036.3906   -1032.6638    41.260912   -991.40289 
 1786200     856.7425   -1031.8244    34.108739   -997.71565 
 1786400    843.96159   -1028.5004    33.599904   -994.90047 
 1786600    1005.3329   -1027.4763    40.024437    -987.4519 
 1786800    910.34171   -1033.5183    36.242638   -997.27563 
 1787000    847.46041   -1034.4701      33.7392   -1000.7309 
 1787200    1036.0219   -1029.9357    41.246233   -988.68949 
 1787400    908.35826   -1033.0499    36.163672   -996.88627 
 1787600    854.37664   -1035.9974    34.014549   -1001.9828 
 1787800    1000.1706   -1029.7762    39.818918   -989.95724 
 1788000    919.58758   -1028.7662    36.610735   -992.15543 
 1788200    904.04868   -1034.0228    35.992099   -998.03073 
 1788400    942.73749   -1033.7266    37.532382   -996.19423 
 1788600    993.99812   -1030.2714    39.573177   -990.69826 
 1788800    916.93463   -1032.4984    36.505116   -995.99328 
 1789000    910.29916   -1032.6959    36.240944   -996.45491 
 1789200    905.51418   -1024.9439    36.050443   -988.89348 
 1789400    874.19146   -1030.9752    34.803419    -996.1718 
 1789600    941.97847   -1031.8604    37.502164   -994.35821 
 1789800    994.65631   -1029.3763    39.599381   -989.77695 
 1790000    902.18633   -1031.6162    35.917955   -995.69825 
 1790200    949.21916   -1035.3638    37.790431   -997.57335 
 1790400    938.24563   -1029.6937    37.353552    -992.3402 
 1790600    897.70722   -1028.6327    35.739632    -992.8931 
 1790800    886.29289   -1033.3845    35.285203    -998.0993 
 1791000    850.32613   -1029.3403     33.85329   -995.48703 
 1791200    962.83975   -1026.8657    38.332696   -988.53304 
 1791400     949.0336   -1029.2675    37.783044   -991.48442 
 1791600    847.65301   -1029.8141    33.746867   -996.06719 
 1791800    958.32178   -1027.3456    38.152826    -989.1928 
 1792000     901.3072   -1029.0202    35.882955    -993.1372 
 1792200    864.70106   -1030.0629    34.425586   -995.63736 
 1792400    910.21213   -1029.1061    36.237479    -992.8686 
 1792600    934.86503   -1028.5065    37.218963   -991.28749 
 1792800    898.84834   -1031.3503    35.785062   -995.56526 
 1793000    956.13529   -1030.2892    38.065777   -992.22339 
 1793200    1011.4862   -1027.7026    40.269413   -987.43322 
 1793400    989.56959   -1030.2963    39.396868   -990.89942 
 1793600    894.85048    -1031.109    35.625899   -995.48313 
 1793800    991.35787    -1027.916    39.468063   -988.44797 
 1794000    934.72328   -1027.0361     37.21332   -989.82282 
 1794200    879.88727   -1026.8243    35.030182    -991.7941 
 1794400    883.50893   -1024.5391    35.174368    -989.3647 
 1794600    955.04979   -1024.3843    38.022561   -986.36175 
 1794800    921.03949   -1028.4026    36.668539   -991.73401 
 1795000    898.67527     -1030.69    35.778172    -994.9118 
 1795200    975.30903   -1030.9327    38.829125   -992.10361 
 1795400    945.17049   -1028.4211    37.629245   -990.79187 
 1795600       868.27   -1028.9706    34.567673   -994.40291 
 1795800    946.88577    -1030.492    37.697534   -992.79444 
 1796000    879.99567   -1028.6017    35.034497   -993.56718 
 1796200    1067.5656   -1033.7884    42.502054   -991.28632 
 1796400    866.76548   -1028.8301    34.507775   -994.32237 
 1796600    901.75104   -1029.0226    35.900625   -993.12197 
 1796800    886.03736   -1026.1321     35.27503   -990.85704 
 1797000    961.91602    -1029.261     38.29592   -990.96505 
 1797200    922.04046   -1029.0343     36.70839   -992.32588 
 1797400    970.45738   -1031.4987     38.63597    -992.8627 
 1797600    923.66729   -1030.1862    36.773157   -993.41299 
 1797800    900.11433   -1026.5198    35.835464   -990.68435 
 1798000    939.12048   -1028.8024    37.388382     -991.414 
 1798200     907.6174   -1032.8758    36.134177   -996.74165 
 1798400      963.722   -1029.4616     38.36782   -991.09375 
 1798600      966.114   -1026.4173    38.463051   -987.95425 
 1798800    885.46061   -1029.5074    35.252068   -994.25536 
 1799000    947.42938   -1030.1084    37.719177    -992.3892 
 1799200    933.73787   -1026.7033    37.174088   -989.52924 
 1799400    951.43256   -1031.0117    37.878552    -993.1331 
 1799600    919.21404   -1031.4102    36.595864    -994.8143 
 1799800    951.55288   -1026.4956    37.883342   -988.61227 
 1800000    967.41391   -1027.4729    38.514803    -988.9581 
 1800200    875.22199   -1028.0106    34.844447   -993.16614 
 1800400    912.85826   -1026.4757    36.342827   -990.13289 
 1800600    988.48389   -1025.5496    39.353644   -986.19598 
 1800800    945.71202   -1027.5045    37.650805   -989.85373 
 1801000    940.54936   -1025.6032    37.445268   -988.15789 
 1801200    907.24552   -1023.8945    36.119372   -987.77517 
 1801400    954.30042   -1027.1384    37.992727   -989.14567 
 1801600    918.43188   -1028.3511    36.564725    -991.7864 
 1801800     925.9305   -1024.8344    36.863261   -987.97113 
 1802000    884.46566   -1026.0033    35.212457   -990.79083 
 1802200    850.95941   -1028.4042    33.878502   -994.52566 
 1802400    959.97574    -1026.284    38.218674   -988.06532 
 1802600       924.04   -1024.4557    36.787996   -987.66768 
 1802800    937.27081   -1029.5438    37.314742   -992.22908 
 1803000    835.94102   -1024.2349    33.280588    -990.9543 
 1803200    1001.4962   -1023.3934    39.871691    -983.5217 
 1803400    927.24721   -1030.4574    36.915681   -993.54173 
 1803600    920.69257   -1025.9348    36.654727    -989.2801 
 1803800     998.3323   -1025.0425     39.74573   -985.29672 
 1804000    874.15946   -1027.4581    34.802145     -992.656 
 1804200    913.09257   -1026.3945    36.352155   -990.04233 
 1804400    932.81448    -1025.878    37.137326   -988.74067 
 1804600    995.33894   -1029.9871    39.626558   -990.36054 
 1804800    909.75885   -1030.4141    36.219433   -994.19464 
 1805000    995.16022   -1027.4846    39.619443    -987.8652 
 1805200    963.13833   -1028.0876    38.344583   -989.74297 
 1805400     888.9107   -1028.4376    35.389424   -993.04818 
 1805600      966.233    -1027.174    38.467789   -988.70618 
 1805800    913.34953   -1023.6827    36.362385   -987.32034 
 1806000    917.69653   -1026.4851    36.535449   -989.94964 
 1806200    868.14899   -1024.7406    34.562856   -990.17776 
 1806400    1009.5518    -1028.846    40.192404   -988.65363 
 1806600    970.09602   -1029.0533    38.621584   -990.43175 
 1806800     899.4297   -1026.4212    35.808207     -990.613 
 1807000     936.0962   -1026.9599    37.267978   -989.69193 
 1807200    843.88832   -1026.6431    33.596987   -993.04615 
 1807400    987.36226   -1028.3962    39.308989   -989.08721 
 1807600    876.33503   -1023.2404    34.888759   -988.35166 
 1807800    962.13128   -1030.3591    38.304491    -992.0546 
 1808000    935.04581     -1028.33    37.226161   -991.10389 
 1808200    969.73596   -1027.0746    38.607249   -988.46738 
 1808400     896.6966   -1027.9636    35.699397   -992.26416 
 1808600    880.70345   -1031.1002    35.062675   -996.03749 
 1808800     958.9198   -1026.4133    38.176634   -988.23664 
 1809000     949.4926   -1023.8887    37.801318   -986.08739 
 1809200     901.6899   -1028.8292    35.898191   -992.93103 
 1809400    906.29394   -1029.5363    36.081487   -993.45479 
 1809600    971.90371   -1025.6037    38.693552   -986.91013 
 1809800    899.43124   -1027.3533    35.808268   -991.54503 
 1810000    970.48492   -1031.7135    38.637067   -993.07644 
 1810200    949.33224   -1027.0872    37.794933   -989.29223 
 1810400    880.49994   -1027.4366    35.054573   -992.38207 
 1810600    949.59815   -1029.4746     37.80552   -991.66903 
 1810800    879.55611   -1026.9228    35.016997    -991.9058 
 1811000    934.89284   -1028.0527     37.22007   -990.83262 
 1811200    877.21554   -1030.5157    34.923814   -995.59188 
 1811400    967.61963   -1030.6451    38.522994   -992.12207 
 1811600     970.8793   -1027.9452    38.652768   -989.29238 
 1811800    972.57533   -1030.0666     38.72029   -991.34627 
 1812000    917.69946   -1029.2743    36.535565   -992.73873 
 1812200     938.7679   -1027.4657    37.374345   -990.09136 
 1812400    986.22616   -1028.2781    39.263759   -989.01429 
 1812600    879.96639   -1028.1624    35.033332   -993.12906 
 1812800    939.14859   -1026.1854    37.389501   -988.79593 
 1813000    978.05979   -1028.6937    38.938638   -989.75503 
 1813200    932.83549   -1031.9665    37.138163   -994.82831 
 1813400    1005.7817   -1028.9676    40.042307   -988.92527 
 1813600    964.46198   -1026.7082     38.39728   -988.31091 
 1813800    866.66814   -1028.0757      34.5039   -993.57183 
 1814000    953.36049   -1026.3378    37.955307    -988.3825 
 1814200    916.88024   -1025.6038     36.50295   -989.10084 
 1814400    957.87732   -1025.0916    38.135131   -986.95651 
 1814600    911.77533    -1027.365    36.299713   -991.06533 
 1814800    893.91446   -1025.3037    35.588634   -989.71505 
 1815000    922.85106   -1029.1499    36.740662   -992.40926 
 1815200    891.30117   -1026.5596    35.484593   -991.07498 
 1815400    937.25186   -1025.2516    37.313988   -987.93765 
 1815600    982.87824   -1027.0828    39.130471   -987.95233 
 1815800    965.92703   -1029.8997    38.455607   -991.44414 
 1816000    908.48009    -1027.716    36.168523    -991.5475 
 1816200    912.96621   -1025.5852    36.347125   -989.23804 
 1816400     951.0269   -1025.4686    37.862401   -987.60621 
 1816600    984.58037   -1025.8406    39.198236   -986.64235 
 1816800    942.21667   -1026.1345    37.511648   -988.62288 
 1817000    932.71569    -1027.888    37.133393   -990.75456 
 1817200    944.63226   -1029.2756    37.607817   -991.66778 
 1817400    974.10882    -1025.109    38.781342   -986.32765 
 1817600    985.24839   -1026.8321    39.224832   -987.60723 
 1817800    895.26389   -1025.3358    35.642357   -989.69347 
 1818000    956.23996   -1025.8736    38.069945   -987.80366 
 1818200    909.82184   -1024.5085    36.221941   -988.28658 
 1818400    909.80042    -1024.912    36.221088   -988.69091 
 1818600    896.21259   -1025.9188    35.680127   -990.23865 
 1818800    953.27777   -1028.7297    37.952013   -990.77769 
 1819000    952.37465   -1029.6763    37.916058   -991.76023 
 1819200    884.20706   -1026.2892    35.202162   -991.08708 
 1819400     901.2028    -1023.067    35.878798   -987.18821 
 1819600    949.11507   -1029.4009    37.786287   -991.61459 
 1819800    954.71983   -1030.3713    38.009425   -992.36186 
 1820000    998.10313   -1029.8961    39.736606   -990.15948 
 1820200    928.14698   -1023.6505    36.951503   -986.69904 
 1820400    926.03136   -1026.8489    36.867276   -989.98165 
 1820600    905.32052   -1028.8792    36.042733   -992.83649 
 1820800     969.8312   -1025.8681    38.611041   -987.25707 
 1821000    935.19282   -1029.4868    37.232013   -992.25479 
 1821200    917.38797   -1032.8031    36.523164   -996.27997 
 1821400    933.58297   -1026.7721    37.167922   -989.60423 
 1821600    1027.4127   -1025.4236    40.903483    -984.5201 
 1821800    900.65015   -1031.5484    35.856796   -995.69159 
 1822000    941.84803   -1031.2944    37.496971   -993.79748 
 1822200    953.34383   -1024.7468    37.954643   -986.79215 
 1822400    906.17422   -1026.5152    36.076721    -990.4385 
 1822600    885.98062    -1029.603    35.272771   -994.33024 
 1822800     968.6496   -1026.6546    38.563999   -988.09064 
 1823000    991.08262   -1022.9156    39.457105   -983.45853 
 1823200    879.19031   -1025.7095    35.002434   -990.70711 
 1823400    930.72733   -1024.1993    37.054232   -987.14507 
 1823600    1014.3726   -1026.6296    40.384329   -986.24531 
 1823800    866.28339   -1029.8964    34.488582   -995.40784 
 1824000    952.19593   -1030.0752    37.908943   -992.16627 
 1824200     960.0266   -1024.1367    38.220699   -985.91597 
 1824400    924.23577   -1028.5399     36.79579   -991.74414 
 1824600    883.05878   -1027.2023    35.156446   -992.04584 
 1824800    957.32748   -1023.8176    38.113241   -985.70433 
 1825000    998.04372   -1024.7487    39.734241   -985.01448 
 1825200    852.62041   -1026.2471     33.94463   -992.30247 
 1825400    948.93325   -1027.1624    37.779049   -989.38334 
 1825600    936.78961   -1022.4264    37.295585   -985.13084 
 1825800    962.53318    -1027.842    38.320491   -989.52156 
 1826000    913.79412   -1030.5012    36.380086   -994.12108 
 1826200    1010.3322   -1029.8311    40.223472   -989.60762 
 1826400    925.32925   -1024.9952    36.839323   -988.15583 
 1826600    925.90322   -1027.0831    36.862174   -990.22091 
 1826800    938.37193   -1023.1782     37.35858   -985.81963 
 1827000    952.79298   -1024.7305    37.932713   -986.79778 
 1827200    877.77477   -1028.6352    34.946078   -993.68915 
 1827400     935.1729   -1024.1306     37.23122   -986.89935 
 1827600    995.73856   -1020.7129    39.642468   -981.07047 
 1827800    931.05978   -1026.7773    37.067468   -989.70979 
 1828000    922.44516   -1032.0763    36.724502   -995.35179 
 1828200    981.98254   -1025.5151    39.094811   -986.42033 
 1828400    994.35401   -1027.8179    39.587346   -988.23054 
 1828600    926.79829    -1030.339    36.897809   -993.44123 
 1828800    951.42523   -1023.2012     37.87826   -985.32293 
 1829000    982.89561   -1024.8024    39.131162    -985.6712 
 1829200    843.62622   -1027.7646    33.586552   -994.17807 
 1829400    910.58456   -1027.7862    36.252306    -991.5339 
 1829600    966.89044   -1024.1534    38.493963   -985.65942 
 1829800     909.7564   -1029.6225    36.219335   -993.40314 
 1830000    891.01701   -1028.3599     35.47328   -992.88663 
 1830200    1000.2699   -1022.5474    39.822871   -982.72456 
 1830400    871.93498     -1026.66    34.713584   -991.94642 
 1830600    845.62553   -1029.3126    33.666149   -995.64646 
 1830800     1057.002   -1027.1738    42.081496   -985.09232 
 1831000    993.61087   -1029.3833     39.55776   -989.82556 
 1831200     838.7687    -1030.465    33.393164   -997.07186 
 1831400    978.43605    -1024.978    38.953618   -986.02443 
 1831600     950.6175    -1020.926    37.846102   -983.07987 
 1831800     870.2364   -1029.6396     34.64596   -994.99366 
 1832000    943.92907   -1026.5624    37.579822   -988.98257 
 1832200    1059.8506   -1025.4303    42.194903    -983.2354 
 1832400    892.47286    -1025.613    35.531241   -990.08177 
 1832600    924.17164   -1027.7762    36.793237   -990.98292 
 1832800    992.63709   -1024.6056    39.518992   -985.08662 
 1833000    958.29295   -1025.2771    38.151678   -987.12537 
 1833200    926.46289   -1024.7304    36.884456   -987.84593 
 1833400    1009.7794   -1026.8177    40.201462    -986.6162 
 1833600    933.32208   -1027.3814    37.157535   -990.22387 
 1833800    926.99382   -1028.2212    36.905594   -991.31562 
 1834000    1047.0558   -1028.7396    41.685515   -987.05409 
 1834200    952.40734   -1028.1002     37.91736    -990.1828 
 1834400    946.77977   -1028.6489    37.693314   -990.95562 
 1834600    950.04174   -1025.9707     37.82318   -988.14756 
 1834800    974.81462   -1026.3312    38.809441   -987.52174 
 1835000    874.19196   -1028.1373    34.803439   -993.33384 
 1835200    917.15317   -1025.6548    36.513816   -989.14101 
 1835400     1000.123   -1027.8632     39.81702   -988.04623 
 1835600    841.40602   -1025.4517    33.498161   -991.95352 
 1835800    1000.7388   -1027.3386    39.841539   -987.49703 
 1836000    1000.0448   -1025.3802    39.813909    -985.5663 
 1836200    977.63359   -1028.0376     38.92167   -989.11596 
 1836400    901.18588   -1028.8696    35.878125   -992.99152 
 1836600    983.93193   -1029.9759    39.172421   -990.80348 
 1836800    944.20221   -1025.0608    37.590696   -987.47014 
 1837000    996.96925   -1029.5978    39.691464   -989.90629 
 1837200    871.60683      -1030.2     34.70052    -995.4995 
 1837400    921.23334   -1025.6794    36.676256    -989.0031 
 1837600    928.97587   -1023.4404    36.984503   -986.45587 
 1837800    926.27953   -1028.9522    36.877156   -992.07509 
 1838000    835.10913   -1025.4916    33.247469   -992.24411 
 1838200    974.94514   -1022.6523    38.814638   -983.83767 
 1838400    920.00208   -1026.3234    36.627238   -989.69613 
 1838600    952.08885   -1027.1258     37.90468   -989.22111 
 1838800    951.70948   -1025.5941    37.889576   -987.70454 
 1839000    911.17789   -1030.0229    36.275928   -993.74702 
 1839200    944.34612   -1028.4656    37.596425   -990.86916 
 1839400     904.9114   -1025.2979    36.026445   -989.27147 
 1839600    961.55467   -1026.2223    38.281535   -987.94077 
 1839800    928.44004   -1029.5359    36.963171   -992.57271 
 1840000    960.58093   -1028.1496    38.242768   -989.90678 
 1840200    972.31104   -1027.8155    38.709768   -989.10573 
 1840400    862.77764   -1029.1192    34.349011    -994.7702 
 1840600    998.57573   -1027.8864    39.755421   -988.13098 
 1840800    966.27837   -1027.2045    38.469595   -988.73487 
 1841000    921.32259   -1028.8104     36.67981   -992.13058 
 1841200    1015.8217   -1028.3737    40.442019   -987.93167 
 1841400    916.83291   -1026.4172    36.501066    -989.9161 
 1841600    948.23839   -1028.3998    37.751385   -990.64839 
 1841800    917.02953   -1029.3599    36.508894   -992.85101 
 1842000    1030.3987   -1026.7209    41.022363   -985.69852 
 1842200     902.1521    -1027.575    35.916592   -991.65836 
 1842400     832.9948   -1028.9473    33.163293   -995.78396 
 1842600    1037.4551   -1027.6878    41.303292    -986.3845 
 1842800    993.77299   -1027.5803    39.564214   -988.01604 
 1843000    989.03458   -1028.8913    39.375568    -989.5157 
 1843200    864.63342   -1025.8488    34.422894   -991.42586 
 1843400    997.23475    -1028.127    39.702034   -988.42495 
 1843600    971.51901   -1029.4483    38.678236   -990.77008 
 1843800    949.28151   -1029.4438    37.792914   -991.65088 
 1844000    1024.9003   -1027.9568    40.803458   -987.15337 
 1844200    1006.9801   -1029.8291    40.090015   -989.73909 
 1844400    915.24856   -1029.0535     36.43799   -992.61552 
 1844600    926.39553   -1028.5004    36.881774   -991.61866 
 1844800    958.75936   -1027.1929    38.170247   -989.02269 
 1845000    921.31393   -1024.9211    36.679465   -988.24167 
 1845200    930.16029    -1025.443    37.031657   -988.41137 
 1845400    924.64065   -1026.9753    36.811909   -990.16341 
 1845600    944.83271   -1027.4731    37.615798   -989.85735 
 1845800    1001.3918   -1027.5879    39.867537   -987.72035 
 1846000    874.53123   -1028.3605    34.816946   -993.54354 
 1846200    938.65913   -1028.5187    37.370014   -991.14871 
 1846400    964.96069   -1028.5965    38.417135   -990.17941 
 1846600    922.58389   -1027.5242    36.730025    -990.7942 
 1846800    1019.7488   -1029.8885    40.598365   -989.29018 
 1847000    922.87861   -1027.7629    36.741758   -991.02114 
 1847200    1025.5304   -1029.6324    40.828545   -988.80382 
 1847400    962.46743   -1030.2299    38.317873   -991.91208 
 1847600    920.42202   -1031.6917    36.643956   -995.04772 
 1847800    941.34456   -1026.5962    37.476927   -989.11927 
 1848000    1036.2834   -1026.5924    41.256646    -985.3358 
 1848200    902.68407   -1029.3544    35.937771    -993.4166 
 1848400    893.35576   -1025.9686    35.566391   -990.40217 
 1848600     987.1223     -1024.39    39.299436   -985.09055 
 1848800    932.92627   -1027.9565    37.141777   -990.81471 
 1849000    947.12507   -1028.5708    37.707061   -990.86369 
 1849200    941.30834   -1026.0829    37.475485   -988.60738 
 1849400    935.88207   -1025.1379    37.259454   -987.87841 
 1849600    937.05837   -1028.4826    37.306285   -991.17627 
 1849800    917.60113   -1026.6241    36.531651   -990.09246 
 1850000    1040.2136   -1027.0623    41.413113    -985.6492 
 1850200    876.29354   -1027.7469    34.887108   -992.85979 
 1850400    974.19402   -1029.8925    38.784734   -991.10779 
 1850600    968.76601   -1025.2991    38.568633   -986.73051 
 1850800    952.78925   -1026.6681    37.932564   -988.73556 
 1851000    890.93389   -1026.2003    35.469971   -990.73035 
 1851200    1006.1557   -1023.6891    40.057194   -983.63192 
 1851400    946.97131   -1026.5634     37.70094   -988.86243 
 1851600    920.30158   -1030.2068    36.639161   -993.56766 
 1851800    1030.1439   -1030.6108    41.012217   -989.59859 
 1852000    957.91998   -1027.1868     38.13683   -989.04993 
 1852200    953.54795   -1028.7876     37.96277   -990.82479 
 1852400    871.91554   -1027.4457     34.71281   -992.73293 
 1852600    979.38785   -1027.0963    38.991511   -988.10483 
 1852800    928.94976   -1026.9202    36.983464   -989.93677 
 1853000     918.2877   -1028.3754    36.558984   -991.81637 
 1853200    1096.3285   -1026.7939    43.647165   -983.14677 
 1853400    918.47861   -1025.3856    36.566585   -988.81902 
 1853600    914.15268   -1029.4036     36.39436   -993.00924 
 1853800    1009.1372   -1024.7897    40.175897   -984.61378 
 1854000     909.3274   -1024.1493    36.202256   -987.94701 
 1854200    916.69066   -1027.0659    36.495403   -990.57053 
 1854400    913.52886    -1024.431    36.369525   -988.06143 
 1854600    964.49913    -1024.512     38.39876   -986.11324 
 1854800    921.38003   -1026.0787    36.682097   -989.39656 
 1855000     953.6524   -1025.9375    37.966928   -987.97055 
 1855200    993.00694   -1025.2302    39.533716   -985.69647 
 1855400    972.71414   -1028.0637    38.725817   -989.33784 
 1855600    947.92774   -1026.9689    37.739017   -989.22985 
 1855800     1047.522   -1027.0934    41.704076   -985.38928 
 1856000    930.67512    -1023.841    37.052154   -986.78884 
 1856200    907.11088   -1023.6289    36.114011   -987.51492 
 1856400    973.29934   -1027.0543    38.749115   -988.30519 
 1856600    943.16479   -1025.9414    37.549394     -988.392 
 1856800    1026.4911   -1027.7646    40.866792    -986.8978 
 1857000    984.14495   -1030.3531    39.180901    -991.1722 
 1857200    927.10734   -1028.0373    36.910113   -991.12722 
 1857400    1008.1816   -1023.7396    40.137852   -983.60173 
 1857600    956.99737   -1025.0925    38.100099   -986.99236 
 1857800    944.71929   -1028.3139    37.611282   -990.70266 
 1858000    966.05284   -1024.3966    38.460616   -985.93597 
 1858200    1002.3243   -1023.4221    39.904662   -983.51747 
 1858400    876.50161     -1024.73    34.895392   -989.83457 
 1858600    901.46639   -1022.6833    35.889292   -986.79403 
 1858800    950.00563   -1023.6171    37.821743   -985.79535 
 1859000    921.35618   -1022.5043    36.681147   -985.82318 
 1859200    1021.5613   -1026.2279    40.670525   -985.55734 
 1859400    942.23452   -1025.5359    37.512358   -988.02355 
 1859600     912.4127   -1028.3335    36.325088   -992.00839 
 1859800    1061.6468   -1027.7522    42.266414   -985.48582 
 1860000    950.43052   -1025.2321    37.838658   -987.39347 
 1860200    916.89313   -1028.3896    36.503464   -991.88615 
 1860400    970.80192   -1027.1003    38.649687   -988.45063 
 1860600    963.60364     -1026.32    38.363108   -987.95685 
 1860800    950.16615    -1028.424    37.828133   -990.59587 
 1861000     937.7206   -1027.6363     37.33265   -990.30365 
 1861200    976.31778    -1022.864    38.869285   -983.99468 
 1861400    935.05482   -1027.4024    37.226519   -990.17584 
 1861600    946.70215   -1029.6672    37.690224   -991.97693 
 1861800    971.28958   -1027.6365    38.669102   -988.96742 
 1862000    945.21405   -1026.9252     37.63098   -989.29423 
 1862200    983.61107   -1028.6208    39.159646   -989.46117 
 1862400    872.09694   -1029.4002    34.720032   -994.68019 
 1862600    990.16607   -1028.7581    39.420615   -989.33751 
 1862800    992.60099   -1026.5814    39.517554   -987.06381 
 1863000    1008.0037   -1030.3871    40.130768   -990.25631 
 1863200    884.50985   -1029.3235    35.214216   -994.10924 
 1863400    973.87725   -1027.2535    38.772123   -988.48139 
 1863600    982.56993   -1026.6422    39.118197   -987.52403 
 1863800    920.83774   -1030.9341    36.660507    -994.2736 
 1864000    951.78219    -1028.957    37.892471   -991.06456 
 1864200    941.29442   -1026.4166    37.474931    -988.9417 
 1864400    977.65326   -1027.8848    38.922453   -988.96233 
 1864600    939.98349   -1029.4026     37.42274    -991.9799 
 1864800    991.32072   -1031.7911    39.466584   -992.32456 
 1865000    972.37787   -1028.7653    38.712429   -990.05284 
 1865200    908.54772   -1025.9305    36.171215   -989.75933 
 1865400    1015.4455   -1027.3379    40.427044   -986.91083 
 1865600    901.33269   -1030.2756    35.883969   -994.39163 
 1865800    964.86688   -1031.4901      38.4134   -993.07671 
 1866000    967.17384   -1024.8664    38.505245   -986.36116 
 1866200    915.78263    -1027.348    36.459252   -990.88872 
 1866400    920.05417    -1031.329    36.629311   -994.69964 
 1866600    997.36095   -1028.9094    39.707058   -989.20235 
 1866800    1023.3197   -1028.0316    40.740532   -987.29111 
 1867000    955.95494   -1034.9127    38.058597   -996.85412 
 1867200    936.28053   -1032.3721    37.275317   -995.09677 
 1867400     1051.298   -1027.3483    41.854408   -985.49392 
 1867600    989.45152   -1030.2246    39.392167   -990.83242 
 1867800    815.35515    -1033.182    32.461021    -1000.721 
 1868000    1024.5357   -1026.8488    40.788945   -986.05984 
 1868200    1046.2088   -1025.3496    41.651795   -983.69776 
 1868400    862.17477   -1028.8817    34.325009   -994.55669 
 1868600    949.59758   -1030.6988    37.805497   -992.89335 
 1868800    1011.7913   -1028.6114    40.281562   -988.32985 
 1869000    961.99227    -1026.874    38.298956   -988.57507 
 1869200    868.65244   -1029.4163    34.582899   -994.83338 
 1869400    994.80309    -1030.209    39.605225   -990.60378 
 1869600    1013.9452   -1026.6647    40.367313   -986.29741 
 1869800    907.84771   -1029.9199    36.143346   -993.77657 
 1870000    955.78296   -1029.4711     38.05175   -991.41935 
 1870200     988.7541   -1024.5917    39.364401   -985.22732 
 1870400     953.6895   -1027.9208    37.968405   -989.95237 
 1870600    868.39939   -1030.2726    34.572825   -995.69979 
 1870800    964.89363   -1025.6191    38.414466    -987.2046 
 1871000    997.59193   -1025.1888    39.716254   -985.47253 
 1871200    887.47241   -1031.8551    35.332162   -996.52297 
 1871400    955.62643   -1033.5812    38.045518   -995.53573 
 1871600    955.15244   -1025.1929    38.026648    -987.1663 
 1871800    937.79319   -1029.5373    37.335539   -992.20177 
 1872000      872.263   -1029.7334    34.726643    -995.0068 
 1872200    1104.4197    -1027.816    43.969294   -983.84674 
 1872400    972.19392   -1028.2617    38.705106   -989.55655 
 1872600    975.34566   -1033.7069    38.830583   -994.87628 
 1872800    982.80885   -1029.6723    39.127708   -990.54462 
 1873000    930.20144   -1028.3037    37.033296   -991.27037 
 1873200    923.91631   -1028.7691    36.783071   -991.98605 
 1873400    946.03707    -1028.429    37.663746   -990.76525 
 1873600    1027.5704   -1029.3502    40.909759   -988.44048 
 1873800    945.58817   -1033.1257    37.645874   -995.47982 
 1874000    1025.8254   -1030.0447    40.840288   -989.20441 
 1874200    947.13503   -1027.3331    37.707458    -989.6256 
 1874400    871.43425   -1031.8976    34.693649   -997.20391 
 1874600    967.85783   -1028.6388    38.532477    -990.1063 
 1874800    923.51742   -1025.9734    36.767191   -989.20619 
 1875000     919.4136   -1030.9336    36.603809   -994.32978 
 1875200    1023.2833   -1031.2535    40.739084   -990.51442 
 1875400    998.49232   -1026.3109    39.752101   -986.55875 
 1875600    920.43208   -1029.3436    36.644357   -992.69922 
 1875800    962.51681   -1028.7905    38.319839   -990.47061 
 1876000    1008.9559   -1026.3022    40.168677   -986.13356 
 1876200    897.08652   -1031.0487     35.71492   -995.33378 
 1876400    972.76822   -1031.9033     38.72797   -993.17533 
 1876600    944.27753   -1028.7865    37.593695   -991.19284 
 1876800    966.58592   -1027.5533    38.481839   -989.07144 
 1877000    1047.3518   -1031.2324    41.697299   -989.53514 
 1877200    956.70142   -1030.0575    38.088316   -991.96916 
 1877400    1033.3727   -1032.5375    41.140764   -991.39678 
 1877600    947.85516   -1029.8328    37.736128   -992.09666 
 1877800    1031.0428   -1029.7179    41.048006   -988.66994 
 1878000    971.73385   -1029.7372    38.686789   -991.05046 
 1878200    892.36583   -1027.3742     35.52698    -991.8472 
 1878400    1030.3306   -1027.6933    41.019651   -986.67363 
 1878600      954.708   -1028.8338    38.008954    -990.8248 
 1878800    908.21504   -1029.1195     36.15797   -992.96158 
 1879000    985.29476   -1030.0305    39.226678   -990.80385 
 1879200    945.24843   -1029.5498    37.632348   -991.91747 
 1879400    1005.1146   -1031.5754    40.015747   -991.55964 
 1879600    943.46179   -1030.3956    37.561218   -992.83441 
 1879800    986.19832   -1028.1707     39.26265     -988.908 
 1880000    910.92461    -1025.319    36.265844   -989.05312 
 1880200    943.58818    -1028.149     37.56625   -990.58279 
 1880400     954.7837   -1028.2563    38.011968   -990.24437 
 1880600    1047.0984   -1028.8606    41.687212   -987.17341 
 1880800    943.22792   -1026.8783    37.551908   -989.32637 
 1881000    861.33924   -1027.5065    34.291745   -993.21474 
 1881200     1033.978   -1030.2602    41.164862   -989.09537 
 1881400    1006.8488   -1029.3349    40.084788   -989.25009 
 1881600    1008.2826   -1031.9027    40.141872   -991.76085 
 1881800    957.88531   -1030.2672     38.13545   -992.13177 
 1882000    968.84378    -1026.841    38.571729   -988.26924 
 1882200    925.95971   -1025.7447    36.864423   -988.88024 
 1882400    944.10741   -1029.9808    37.586922   -992.39388 
 1882600    993.80855   -1028.3703     39.56563   -988.80469 
 1882800    953.19197   -1028.4692    37.948598   -990.52065 
 1883000    1026.2242   -1030.7574    40.856165   -989.90123 
 1883200    929.94008   -1031.2716     37.02289   -994.24869 
 1883400    997.25937   -1030.0218    39.703014   -990.31882 
 1883600    959.65633   -1027.3631    38.205957   -989.15716 
 1883800    903.82857   -1029.0266    35.983336    -993.0433 
 1884000    990.10686     -1028.11    39.418258   -988.69172 
 1884200    955.24727   -1029.4715    38.030424   -991.44106 
 1884400    1030.6132   -1031.5813    41.030901   -990.55039 
 1884600    938.25384   -1028.1913    37.353879    -990.8374 
 1884800    988.12439   -1026.4116    39.339331   -987.07224 
 1885000    981.40843   -1028.8761    39.071955   -989.80412 
 1885200    871.46527    -1027.925    34.694884   -993.23007 
 1885400    992.55156   -1025.8168    39.515586   -986.30125 
 1885600    989.82121   -1029.7149    39.406885     -990.308 
 1885800    853.80489   -1032.7477    33.991787   -998.75596 
 1886000    1067.5905   -1030.3101    42.503047   -987.80702 
 1886200     1062.516   -1028.2287    42.301019   -985.92767 
 1886400    870.15609   -1032.3384    34.642763   -997.69561 
 1886600    925.72811   -1032.5735    36.855203   -995.71834 
 1886800    1059.8792   -1026.5608    42.196043   -984.36477 
 1887000    974.50434   -1029.4942    38.797088   -990.69708 
 1887200    905.19366   -1034.6568    36.037683    -998.6191 
 1887400    1020.4453   -1029.3196    40.626096   -988.69353 
 1887600    1015.5473   -1026.1152    40.431096   -985.68406 
 1887800    940.03348   -1033.6025     37.42473   -996.17774 
 1888000    967.79457    -1033.345    38.529958   -994.81502 
 1888200    1031.6857    -1027.536    41.073599   -986.46244 
 1888400    975.77835   -1030.1811    38.847809   -991.33327 
 1888600    917.00557   -1029.9866     36.50794   -993.47863 
 1888800    1065.1323   -1029.8054    42.405181   -987.40023 
 1889000     904.9221    -1031.252    36.026872   -995.22509 
 1889200     930.2926   -1031.4186    37.036925   -994.38172 
 1889400    1065.6047   -1031.5245    42.423988   -989.10052 
 1889600    982.47831   -1028.2683    39.114549   -989.15374 
 1889800    1009.1809   -1033.7187    40.177636   -993.54102 
 1890000    914.20468   -1031.0637    36.396431   -994.66726 
 1890200    1045.1624   -1029.6069    41.610134   -987.99672 
 1890400    933.22446   -1030.7953    37.153649    -993.6416 
 1890600      926.965   -1029.9648    36.904446   -993.06035 
 1890800    967.76159   -1026.4811    38.528645   -987.95248 
 1891000    914.62896   -1027.5979    36.413322   -991.18454 
 1891200    972.71348   -1032.8909     38.72579   -994.16514 
 1891400    961.18686   -1030.1329    38.266891     -991.866 
 1891600    1039.0609   -1028.2321    41.367223   -986.86492 
 1891800    884.59582   -1028.0899    35.217639    -992.8723 
 1892000    989.23934   -1030.6213     39.38372   -991.23754 
 1892200     985.2033    -1025.876    39.223037   -986.65293 
 1892400    959.06901   -1029.7362    38.182575   -991.55361 
 1892600    943.26592   -1028.4841     37.55342   -990.93063 
 1892800    1026.3317   -1028.3902    40.860447   -987.52976 
 1893000    936.37185   -1024.4551    37.278953   -987.17617 
 1893200    961.99456   -1028.7854    38.299047   -990.48637 
 1893400    945.66693    -1027.724     37.64901   -990.07502 
 1893600    1021.6785   -1030.5612    40.675192   -989.88605 
 1893800    945.79356   -1030.7264    37.654051   -993.07232 
 1894000    880.09355   -1029.1138    35.038394   -994.07544 
 1894200    991.89188   -1029.0506    39.489323   -989.56132 
 1894400    988.23561   -1027.5773    39.343759   -988.23355 
 1894600     961.2948   -1033.1769    38.271189   -994.90575 
 1894800    997.85399   -1030.0773    39.726687   -990.35057 
 1895000    1035.8322   -1029.6827    41.238682   -988.44407 
 1895200    959.40096   -1030.8845     38.19579   -992.68866 
 1895400    889.13236   -1029.8568    35.398248   -994.45855 
 1895600    944.32406   -1029.4962    37.595547   -991.90063 
 1895800    1011.2327   -1031.1924    40.259321   -990.93308 
 1896000    931.01279   -1029.1325    37.065597   -992.06689 
 1896200    916.45499   -1027.4948     36.48602   -991.00875 
 1896400    945.49299   -1029.4881    37.642085   -991.84598 
 1896600    938.49366    -1028.873    37.363427   -991.50954 
 1896800    936.23362   -1029.4337    37.273449   -992.16022 
 1897000    910.34639   -1026.8565    36.242824   -990.61366 
 1897200    913.40407   -1026.2336    36.364557   -989.86902 
 1897400    946.02128   -1027.0599    37.663117   -989.39676 
 1897600    934.42723   -1027.6154    37.201533   -990.41387 
 1897800    1022.5972   -1030.5835    40.711766   -989.87177 
 1898000    977.10508   -1029.2329    38.900629   -990.33231 
 1898200    997.61956   -1030.4737    39.717354   -990.75631 
 1898400    1048.1671   -1029.2723     41.72976    -987.5425 
 1898600    998.10162   -1027.0403    39.736546   -987.30373 
 1898800     989.6866   -1029.9728    39.401526   -990.57124 
 1899000    885.07598   -1027.6749    35.236755   -992.43816 
 1899200    963.45019   -1025.4407    38.356999   -987.08371 
 1899400    991.06329   -1026.4964    39.456335   -987.04002 
 1899600    905.82171   -1030.0495    36.062687   -993.98677 
 1899800    1051.1935   -1028.1167    41.850246   -986.26643 
 1900000    978.99152   -1028.9137    38.975733   -989.93794 
 1900200     1000.338   -1032.7063    39.825583   -992.88075 
 1900400    955.51644   -1028.5057     38.04114   -990.46458 
 1900600    980.93647   -1025.6222    39.053165   -986.56901 
 1900800    1028.7393   -1028.8709    40.956299   -987.91456 
 1901000    907.51389   -1029.8479    36.130056   -993.71784 
 1901200    1002.4813   -1026.7179    39.910909   -986.80704 
 1901400    997.31189   -1025.4949    39.705105   -985.78975 
 1901600    913.62948   -1028.8258    36.373531    -992.4523 
 1901800    913.59147   -1031.5413    36.372018    -995.1693 
 1902000    1022.9036   -1028.7972    40.723966   -988.07321 
 1902200    984.86893   -1025.4655    39.209725   -986.25578 
 1902400    930.63336   -1028.9651    37.050491    -991.9146 
 1902600    977.39138    -1029.999    38.912027   -991.08695 
 1902800    958.15956   -1025.8616    38.146368   -987.71526 
 1903000    976.91679   -1030.8762    38.893133   -991.98308 
 1903200    954.64274   -1031.9013    38.006356    -993.8949 
 1903400    1047.5205   -1027.4216    41.704015   -985.71761 
 1903600    868.04148   -1025.3733    34.558576   -990.81476 
 1903800    939.49418   -1027.5435    37.403259   -990.14023 
 1904000    1021.3081   -1028.1861    40.660444   -987.52564 
 1904200    960.52519   -1028.0493    38.240549    -989.8087 
 1904400    1003.3405   -1027.9062    39.945117   -987.96113 
 1904600    937.75439   -1028.9202    37.333995   -991.58622 
 1904800    960.04897    -1028.325    38.221589   -990.10341 
 1905000    1048.1287   -1029.8965    41.728231   -988.16832 
 1905200     966.6938   -1030.4048    38.486134   -991.91867 
 1905400    970.83385   -1028.6989    38.650958   -990.04796 
 1905600    929.70397   -1026.6728     37.01349   -989.65934 
 1905800    947.73133   -1027.7553    37.731198   -990.02411 
 1906000    947.51121   -1029.4861    37.722435   -991.76371 
 1906200    989.11121   -1027.2587    39.378619    -987.8801 
 1906400    1025.9868   -1028.7845    40.846716   -987.93783 
 1906600    988.99792   -1031.7343    39.374109   -992.36023 
 1906800    948.02327    -1026.566    37.742821   -988.82318 
 1907000    1085.6018   -1029.2027    43.220114   -985.98257 
 1907200    918.02247    -1032.871    36.548425   -996.32254 
 1907400    909.54782   -1026.5619    36.211031   -990.35087 
 1907600    953.82899   -1025.7058    37.973959   -987.73185 
 1907800    992.19332   -1030.3665    39.501324   -990.86516 
 1908000    930.43315   -1030.2879    37.042521   -993.24538 
 1908200    979.76906   -1026.4728    39.006688   -987.46607 
 1908400    970.98652   -1026.1444    38.657037   -987.48739 
 1908600     950.4524   -1028.8528     37.83953   -991.01327 
 1908800    898.94473   -1021.8141      35.7889   -986.02524 
 1909000    942.20722   -1023.9738    37.511271   -986.46254 
 1909200    992.97136    -1028.667    39.532299   -989.13469 
 1909400    968.57252   -1027.7416     38.56093   -989.18066 
 1909600    961.17965   -1024.2553    38.266604   -985.98868 
 1909800    991.38707   -1027.9688    39.469225   -988.49961 
 1910000    933.82282   -1026.7083    37.177471   -989.53087 
 1910200    958.56207   -1024.0761    38.162393   -985.91371 
 1910400    959.64381   -1027.3213    38.205459   -989.11583 
 1910600    935.29946   -1027.3016    37.236259   -990.06538 
 1910800    959.36028   -1023.6496    38.194171   -985.45547 
 1911000    1065.4349   -1022.1382    42.417226   -979.72098 
 1911200    884.29153   -1027.6929    35.205525   -992.48733 
 1911400    911.73225   -1028.9872    36.297998   -992.68921 
 1911600    1133.0257   -1023.4821    45.108159   -978.37399 
 1911800    908.97441   -1024.8868    36.188202   -988.69858 
 1912000    910.26319    -1029.671    36.239511   -993.43153 
 1912200    996.99265   -1023.7437    39.692396   -984.05126 
 1912400    1051.8875   -1026.4337    41.877875   -984.55578 
 1912600    903.95112    -1030.921    35.988215   -994.93282 
 1912800     975.1965   -1024.0854    38.824645   -985.26073 
 1913000    1060.3589   -1022.6554    42.215139   -980.44027 
 1913200    861.58102   -1029.6509    34.301371   -995.34958 
 1913400    990.91852   -1027.2464    39.450572    -987.7958 
 1913600    955.44289    -1022.885    38.038212   -984.84683 
 1913800    899.57098   -1028.0694    35.813832   -992.25556 
 1914000    972.14721   -1028.3376    38.703246   -989.63432 
 1914200    1078.7571   -1025.0255    42.947613   -982.07791 
 1914400    1003.8974   -1024.4185     39.96729   -984.45118 
 1914600    920.69833   -1026.4765    36.654957   -989.82158 
 1914800    1018.7003   -1027.7442    40.556622   -987.18762 
 1915000    931.47193   -1024.1333    37.083877   -987.04944 
 1915200    1005.8201   -1025.8784    40.043834   -985.83455 
 1915400    924.73905   -1028.4689    36.815826   -991.65306 
 1915600    953.56292    -1025.178    37.963366   -987.21459 
 1915800    1044.3452   -1024.6434    41.577601    -983.0658 
 1916000    905.42718   -1026.7476     36.04698   -990.70057 
 1916200    992.50902   -1028.0944    39.513893   -988.58048 
 1916400    966.42535   -1024.7562    38.475447   -986.28072 
 1916600    989.36101   -1025.8101    39.388564   -986.42158 
 1916800    965.45026   -1025.9673    38.436626   -987.53067 
 1917000    919.28398   -1022.9402    36.598648   -986.34151 
 1917200    1001.5867   -1023.5252    39.875296   -983.64988 
 1917400    996.85053   -1024.2128    39.686738   -984.52606 
 1917600     933.8016   -1029.7562    37.176626   -992.57956 
 1917800     1078.074   -1028.8924    42.920416     -985.972 
 1918000    917.55133   -1022.4694    36.529668   -985.93973 
 1918200    931.64204   -1027.2394    37.090649   -990.14872 
 1918400    990.09385   -1025.2344     39.41774    -985.8167 
 1918600     988.2009   -1022.3851    39.342377   -983.04268 
 1918800    927.95238   -1028.3977    36.943756   -991.45393 
 1919000    988.12213   -1028.8276    39.339241   -989.48837 
 1919200    991.59951   -1022.6681    39.477683   -983.19046 
 1919400    944.12951   -1027.4067    37.587802   -989.81891 
 1919600    1008.7939   -1027.4361    40.162228   -987.27388 
 1919800    1018.2098   -1026.3382    40.537096   -985.80109 
 1920000    964.02832   -1028.6058    38.380015   -990.22574 
 1920200    945.42698   -1028.7621    37.639457   -991.12268 
 1920400     1044.564   -1025.7268    41.586312   -984.14048 
 1920600     1004.506   -1027.7488    39.991517    -987.7573 
 1920800    914.25536   -1031.6117    36.398448   -995.21328 
 1921000    1018.9578   -1024.7377    40.566874   -984.17084 
 1921200    1048.5329   -1021.7531    41.744322   -980.00879 
 1921400    942.33511   -1030.1645    37.516363   -992.64812 
 1921600    1000.2538   -1030.5084    39.822228   -990.68619 
 1921800     1049.338   -1023.2982    41.776376   -981.52181 
 1922000     952.2115   -1026.7398    37.909563   -988.83029 
 1922200    917.49924   -1028.0578    36.527594   -991.53022 
 1922400     1016.195   -1023.8808    40.456883   -983.42395 
 1922600    980.39503   -1025.2236    39.031609   -986.19201 
 1922800    918.89407   -1028.4218    36.583125   -991.83865 
 1923000    959.17944   -1027.2307    38.186971   -989.04374 
 1923200     1000.243    -1024.719    39.821797   -984.89721 
 1923400    994.66082   -1027.8656    39.599561   -988.26605 
 1923600     1002.329   -1029.0598    39.904848   -989.15492 
 1923800     960.2174   -1024.0355    38.228295    -985.8072 
 1924000    939.92109   -1026.5333    37.420255   -989.11308 
 1924200    931.60248   -1025.9461    37.089074   -988.85706 
 1924400    1073.2713    -1029.991    42.729209   -987.26175 
 1924600     1053.154   -1027.5234    41.928298   -985.59515 
 1924800    918.70615   -1023.0508    36.575644    -986.4752 
 1925000    862.71806   -1025.5342    34.346639   -991.18754 
 1925200    983.04361   -1029.3514    39.137055   -990.21435 
 1925400    1025.0772   -1028.0667      40.8105   -987.25624 
 1925600    885.32975   -1025.2499    35.246858     -990.003 
 1925800    1017.8158   -1029.0411     40.52141   -988.51972 
 1926000    923.74911    -1028.385    36.776415   -991.60854 
 1926200    968.86751    -1026.911    38.572674   -988.33829 
 1926400    1003.8246   -1028.2824    39.964391   -988.31804 
 1926600    899.47042   -1025.0766    35.809828   -989.26673 
 1926800    1019.2047    -1027.295    40.576703   -986.71829 
 1927000    964.45245   -1029.5095    38.396901    -991.1126 
 1927200    986.64471   -1028.5274    39.280422   -989.24694 
 1927400    985.43218   -1026.2055    39.232149   -986.97333 
 1927600    929.02056   -1027.2272    36.986282   -990.24091 
 1927800    989.76658   -1026.4471     39.40471   -987.04241 
 1928000    964.57921   -1025.6102    38.401948   -987.20824 
 1928200    1049.1532   -1027.6167    41.769016   -985.84767 
 1928400    974.99577   -1030.5139    38.816653   -991.69723 
 1928600    952.54981   -1027.5327    37.923032   -989.60966 
 1928800    1050.4313   -1025.3483    41.819901   -983.52835 
 1929000    914.36622   -1026.9999    36.402862   -990.59699 
 1929200     970.4734   -1026.8355    38.636608    -988.1989 
 1929400    903.71445   -1024.4422    35.978792   -988.46338 
 1929600    971.14036   -1028.7991    38.663161   -990.13593 
 1929800    956.47777   -1028.6507    38.079412   -990.57128 
 1930000    1005.8022   -1025.5243    40.043124   -985.48114 
 1930200     1008.668    -1026.646    40.157218   -986.48879 
 1930400    893.84251   -1031.3707    35.585769   -995.78497 
 1930600    1032.0462   -1023.3131    41.087953   -982.22516 
 1930800    978.89761   -1022.3126    38.971994   -983.34056 
 1931000    888.62471   -1026.9925    35.378038   -991.61442 
 1931200    1046.2642   -1027.5765    41.654003   -985.92252 
 1931400    1046.1355   -1024.4488    41.648877   -982.79995 
 1931600    977.86961    -1029.109    38.931067   -990.17795 
 1931800    920.29124   -1027.8194     36.63875    -991.1807 
 1932000    1034.1233   -1021.7199    41.170644   -980.54929 
 1932200    988.04377   -1026.7096    39.336122   -987.37349 
 1932400    922.44848    -1031.287    36.724634   -994.56238 
 1932600    975.15718   -1023.8486    38.823079   -985.02555 
 1932800    936.30837   -1018.9924    37.276425   -981.71593 
 1933000    898.97444   -1026.4321    35.790082   -990.64199 
 1933200    968.15833   -1029.4738     38.54444   -990.92933 
 1933400    982.84894   -1024.3352    39.129304   -985.20585 
 1933600    986.80628   -1028.6024    39.286854   -989.31553 
 1933800      935.188    -1029.723    37.231821   -992.49119 
 1934000    992.86173   -1024.4192    39.527935   -984.89124 
 1934200    986.74241   -1025.4173    39.284312   -986.13301 
 1934400    938.86314   -1028.5742    37.378137   -991.19604 
 1934600    982.55066   -1028.5076    39.117429   -989.39015 
 1934800    1022.1009   -1025.6657    40.692008   -984.97374 
 1935000    985.59466   -1025.7893    39.238618   -986.55068 
 1935200    922.87684   -1029.4601    36.741688   -992.71839 
 1935400     1021.234   -1026.8413    40.657495   -986.18379 
 1935600    1004.6257   -1023.6114    39.996282   -983.61511 
 1935800    964.31726   -1024.6175    38.391519   -986.22602 
 1936000    972.36738   -1025.3928    38.712011   -986.68079 
 1936200    989.18555   -1022.0022    39.381579   -982.62057 
 1936400     981.5592   -1022.8274    39.077957   -983.74946 
 1936600    983.00343   -1026.8151    39.135455   -987.67969 
 1936800    939.68236   -1021.8816    37.410751   -984.47087 
 1937000    915.73679   -1023.1822    36.457427   -986.72473 
 1937200    997.86087   -1025.3455    39.726961   -985.61857 
 1937400    949.33009   -1024.7205    37.794848   -986.92563 
 1937600    997.45501   -1023.0857    39.710803   -983.37485 
 1937800    941.12145   -1021.8955    37.468044   -984.42748 
 1938000     950.6172   -1027.5428    37.846091   -989.69672 
 1938200    991.51425   -1023.7288    39.474289   -984.25449 
 1938400     1000.337   -1022.2275    39.825543   -982.40196 
 1938600    983.24654   -1028.9073    39.145134    -989.7622 
 1938800    954.62973   -1027.3273    38.005838   -989.32151 
 1939000    1109.5809   -1023.7803    44.174774   -979.60551 
 1939200    981.50162    -1025.017    39.075665   -985.94138 
 1939400    962.19312   -1028.0106    38.306952   -989.70361 
 1939600    985.16161   -1025.6397    39.221377   -986.41831 
 1939800    961.54988    -1024.259    38.281344   -985.97764 
 1940000    1050.6473   -1027.9675    41.828502   -986.13898 
 1940200    877.98773   -1023.1705    34.954557   -988.21599 
 1940400    1018.2997   -1020.9369    40.540675   -980.39618 
 1940600     982.7241   -1023.7282    39.124334   -984.60383 
 1940800    958.17723   -1027.1083    38.147071   -988.96127 
 1941000    1020.9016   -1027.1786    40.644262   -986.53432 
 1941200    927.92706   -1023.5744    36.942748   -986.63167 
 1941400    975.15581   -1026.0169    38.823024   -987.19385 
 1941600    1001.8649   -1026.3063    39.886368   -986.41992 
 1941800    953.40982   -1024.6662    37.957271   -986.70897 
 1942000    1021.8514   -1026.7715    40.682076   -986.08941 
 1942200     918.1125   -1025.1526    36.552009   -988.60059 
 1942400    1003.1548   -1023.8696    39.937724   -983.93184 
 1942600    958.15799   -1020.9141    38.146305   -982.76784 
 1942800    934.70757   -1024.8568    37.212694   -987.64414 
 1943000    961.60767   -1026.0241    38.283644   -987.74046 
 1943200    1072.9317   -1020.5075    42.715689   -977.79185 
 1943400    963.96835   -1022.3814    38.377628   -984.00376 
 1943600    930.00133   -1023.0637    37.025329   -986.03837 
 1943800    961.30823    -1020.396    38.271723   -982.12428 
 1944000    1006.7384    -1023.789    40.080393    -983.7086 
 1944200    909.00729   -1027.0625    36.189512   -990.87299 
 1944400    1004.9359   -1025.0559    40.008633   -985.04725 
 1944600    1033.7181    -1022.689    41.154515   -981.53449 
 1944800    949.67497   -1026.4201    37.808578   -988.61157 
 1945000    986.97169    -1027.306     39.29344   -988.01252 
 1945200    968.03301   -1023.0598    38.539451   -984.52036 
 1945400    992.56296   -1023.4562     39.51604   -983.94012 
 1945600    942.37014   -1024.1806    37.517758   -986.66285 
 1945800    930.81821   -1024.8285     37.05785   -987.77061 
 1946000    973.43628   -1024.2785    38.754567   -985.52389 
 1946200    1039.2336   -1024.3454    41.374097   -982.97135 
 1946400    903.26528   -1023.9523     35.96091   -987.99135 
 1946600    940.96919   -1024.1689    37.461983   -986.70687 
 1946800    1007.0723   -1018.9491    40.093686   -978.85543 
 1947000    979.74639   -1025.3342    39.005786   -986.32842 
 1947200    964.27956   -1028.2098    38.390018   -989.81977 
 1947400    988.08634   -1025.0106    39.337816   -985.67276 
 1947600     1004.178    -1025.396    39.978459   -985.41755 
 1947800    974.61853   -1022.3672    38.801634   -983.56554 
 1948000    964.32387   -1025.2636    38.391782   -986.87182 
 1948200    1013.4536   -1025.6159     40.34774   -985.26812 
 1948400    961.34097   -1024.7901    38.273027   -986.51703 
 1948600    962.46777   -1027.2447    38.317887   -988.92682 
 1948800    980.65202   -1023.6927     39.04184   -984.65088 
 1949000    1011.3716   -1023.6553    40.264851   -983.39042 
 1949200    1052.4151   -1026.7592    41.898883   -984.86031 
 1949400    952.51827   -1025.6947    37.921776   -987.77296 
 1949600    1032.8056   -1024.3382    41.118186   -983.22001 
 1949800    957.17401   -1023.0001    38.107131   -984.89292 
 1950000    1006.1281   -1024.8868    40.056095   -984.83074 
 1950200    1039.4569   -1026.1745    41.382987   -984.79155 
 1950400    950.96408   -1023.0048      37.8599   -985.14492 
 1950600    982.88809   -1024.1929    39.130863   -985.06206 
 1950800    1031.5746   -1027.0304    41.069177   -985.96124 
 1951000    946.55451   -1024.0763    37.684346   -986.39191 
 1951200    1046.9901   -1024.5558    41.682901   -982.87291 
 1951400     949.6802   -1023.6532    37.808787   -985.84444 
 1951600    914.22083   -1025.3288    36.397074   -988.93177 
 1951800    986.51589      -1024.1    39.275294   -984.82467 
 1952000    1055.5388   -1022.0431    42.023241   -980.01982 
 1952200    909.93032   -1025.8733    36.226259   -989.64708 
 1952400    997.90855   -1026.4338    39.728859   -986.70497 
 1952600    1022.9141   -1020.2685    40.724383   -979.54407 
 1952800    987.79762   -1024.8485    39.326322   -985.52216 
 1953000    947.92958   -1027.5836    37.739091   -989.84449 
 1953200    1025.1549   -1023.4957    40.813596   -982.68208 
 1953400    1061.2614   -1023.4774    42.251069   -981.22635 
 1953600    958.99928   -1029.5692    38.179799   -991.38939 
 1953800    971.76367   -1025.4189    38.687976   -986.73092 
 1954000    1100.5439   -1019.8445    43.814991   -976.02947 
 1954200      959.162   -1022.6567    38.186277   -984.47039 
 1954400     927.2184   -1026.4562    36.914535   -989.54163 
 1954600    1018.9202   -1018.4131    40.565378   -977.84777 
 1954800    984.72673   -1019.7289    39.204063   -980.52485 
 1955000    865.04136   -1021.4773    34.439134   -987.03812 
 1955200    983.85745   -1020.0093    39.169456   -980.83982 
 1955400    990.09355   -1017.7488    39.417728   -978.33103 
 1955600    950.14873   -1025.4226     37.82744   -987.59512 
 1955800    928.89687   -1021.7741    36.981358   -984.79277 
 1956000    1017.2511   -1018.6887    40.498927   -978.18981 
 1956200    965.45061   -1022.4649     38.43664   -984.02824 
 1956400    986.89019   -1021.6187    39.290195   -982.32847 
 1956600     977.5172   -1019.5889    38.917037   -980.67183 
 1956800    967.63058    -1021.183    38.523429   -982.65958 
 1957000    1052.3497   -1024.2636    41.896278   -982.36737 
 1957200    964.66924   -1021.7916    38.405532   -983.38602 
 1957400    972.87815   -1022.8649    38.732346   -984.13256 
 1957600    953.57515   -1024.6744    37.963853    -986.7106 
 1957800    960.76714   -1022.1299    38.250181   -983.87969 
 1958000    998.49143   -1022.1811    39.752065   -982.42901 
 1958200    1008.9486   -1024.0556    40.168389   -983.88723 
 1958400    894.00952   -1019.7583    35.592418   -984.16593 
 1958600    1042.1163   -1020.9681    41.488865   -979.47923 
 1958800    913.81058   -1022.0737    36.380741   -985.69293 
 1959000    1014.3125   -1027.6248    40.381936   -987.24285 
 1959200    1017.0108   -1021.8695     40.48936   -981.38013 
 1959400    1060.6073   -1021.5796    42.225029   -979.35455 
 1959600    958.40341   -1021.9967    38.156076   -983.84064 
 1959800    975.96224   -1024.5459     38.85513   -985.69078 
 1960000    1014.1089   -1020.4203    40.373828   -980.04646 
 1960200    1051.7374   -1022.2046      41.8719   -980.33272 
 1960400    877.30997   -1025.5447    34.927574   -990.61717 
 1960600     1000.852   -1024.7104    39.846045   -984.86437 
 1960800    1049.1036    -1022.646    41.767045   -980.87897 
 1961000    956.46017   -1020.5806    38.078712   -982.50191 
 1961200    987.73033    -1022.824    39.323643   -983.50033 
 1961400    1017.4715   -1020.9229    40.507703    -980.4152 
 1961600    1002.5606   -1022.2622    39.914067   -982.34815 
 1961800    964.48213   -1020.5461    38.398083     -982.148 
 1962000    1012.2941   -1022.4537     40.30158   -982.15208 
 1962200    1024.3872   -1020.6972    40.783032    -979.9142 
 1962400    1018.5188   -1021.4239    40.549396   -980.87448 
 1962600    920.72884   -1021.0327    36.656171    -984.3765 
 1962800    997.94891   -1019.8403    39.730466   -980.10982 
 1963000    981.27113   -1022.5356    39.066489   -983.46908 
 1963200    964.52966   -1024.6287    38.399975   -986.22871 
 1963400    967.42404   -1019.3994    38.515206    -980.8842 
 1963600    1047.1783   -1022.0704    41.690391   -980.38006 
 1963800     924.8147   -1024.7711    36.818838   -987.95223 
 1964000    974.70123   -1021.4682    38.804927   -982.66329 
 1964200    1085.6093   -1023.9542    43.220413   -980.73376 
 1964400     951.7298    -1029.074    37.890385   -991.18362 
 1964600    978.88378   -1024.4792    38.971443   -985.50774 
 1964800    986.21333   -1018.0698    39.263248   -978.80659 
 1965000    1080.3225   -1027.9706    43.009936   -984.96065 
 1965200    972.14575   -1032.2092    38.703188   -993.50606 
 1965400    968.92263   -1022.9945    38.574869   -984.41968 
 1965600    1110.8965   -1024.5563     44.22715   -980.32912 
 1965800     889.3424   -1028.5119     35.40661   -993.10526 
 1966000    1005.6318   -1026.7858    40.036337   -986.74946 
 1966200    1038.1271   -1023.5489    41.330046   -982.21883 
 1966400    962.61471   -1026.5752    38.323737   -988.25147 
 1966600    978.30753   -1026.5966    38.948501   -987.64809 
 1966800    995.20447   -1023.9236    39.621205   -984.30235 
 1967000    1048.3857   -1028.1788    41.738461   -986.44034 
 1967200    936.88467   -1026.1812    37.299369   -988.88185 
 1967400    1059.8249   -1026.3515    42.193882   -984.15766 
 1967600    919.68205   -1024.3415    36.614496   -987.72699 
 1967800    950.24278    -1022.609    37.831184   -984.77782 
 1968000    976.14571   -1022.0619    38.862435   -983.19949 
 1968200    999.16793   -1025.9929    39.778998   -986.21389 
 1968400    1092.9726   -1028.8094    43.513561   -985.29581 
 1968600    993.43998   -1028.6281    39.550956   -989.07715 
 1968800    963.09119   -1023.7236    38.342707    -985.3809 
 1969000    1051.3497   -1021.2632    41.856467    -979.4067 
 1969200    1028.2208   -1024.2954    40.935655   -983.35975 
 1969400    941.71063   -1025.7762    37.491501   -988.28471 
 1969600    969.44852   -1022.0013    38.595805   -983.40545 
 1969800    1073.0716   -1023.1322    42.721259   -980.41098 
 1970000    916.17085   -1022.7635    36.474708   -986.28882 
 1970200    987.11958   -1028.6042    39.299328   -989.30489 
 1970400    1005.5828   -1028.8452    40.034387   -988.81083 
 1970600    1017.2193   -1025.0591    40.497662   -984.56141 
 1970800    983.95897   -1026.2285    39.173497   -987.05504 
 1971000    1019.0527   -1027.3867    40.570652   -986.81604 
 1971200    1101.5599   -1027.9932    43.855438   -984.13773 
 1971400    890.56521   -1023.1961    35.455293   -987.74081 
 1971600    980.61625   -1026.0889    39.040416   -987.04853 
 1971800    1003.4209   -1025.5867    39.948319   -985.63834 
 1972000    1052.3703   -1024.8794    41.897097    -982.9823 
 1972200    981.03016   -1024.4846    39.056895   -985.42774 
 1972400    1049.2995   -1026.8023    41.774843   -985.02747 
 1972600    988.41987   -1026.9514    39.351095   -987.60029 
 1972800    1007.4087   -1025.5527    40.107082   -985.44563 
 1973000    955.56593   -1025.1439     38.04311   -987.10074 
 1973200    1017.3224   -1025.1113    40.501766   -984.60949 
 1973400    1072.2562   -1023.4698    42.688796   -980.78105 
 1973600    937.69908   -1028.3654    37.331793   -991.03361 
 1973800    1027.5891   -1025.2668    40.910507   -984.35633 
 1974000    1030.1382   -1020.8099    41.011989   -979.79787 
 1974200    976.28402   -1025.2625    38.867941   -986.39459 
 1974400    980.38682   -1025.7073    39.031282   -986.67599 
 1974600     1120.521   -1022.8949     44.61032   -978.28462 
 1974800    941.07456   -1024.7552    37.466178   -987.28907 
 1975000     1015.368   -1031.5204    40.423959   -991.09641 
 1975200    1084.8478   -1027.8853    43.190096   -984.69519 
 1975400     977.0728   -1023.8185    38.899344   -984.91916 
 1975600    1037.5403   -1031.1399    41.306683   -989.83326 
 1975800     956.9318   -1024.5991    38.097488   -986.50166 
 1976000    1035.0074   -1020.1693    41.205845   -978.96347 
 1976200    993.34734   -1026.0602    39.547268   -986.51296 
 1976400    866.40982   -1027.9344    34.493616   -993.44074 
 1976600    1104.7808   -1026.7211    43.983671   -982.73741 
 1976800    997.08614   -1023.4775    39.696118   -983.78143 
 1977000    1032.0941   -1027.8015    41.089859   -986.71162 
 1977200    949.43427   -1026.1965    37.798995   -988.39752 
 1977400    1035.7578   -1022.3345    41.235718    -981.0988 
 1977600     988.6693   -1025.3451    39.361026   -985.98411 
 1977800     910.4535   -1025.3135    36.247088   -989.06636 
 1978000    1053.1971   -1022.7996    41.930013   -980.86957 
 1978200    1009.7746   -1024.7621    40.201272   -984.56084 
 1978400    937.44417   -1027.4204    37.321644   -990.09874 
 1978600      1018.17   -1025.2401    40.535511   -984.70463 
 1978800     1077.058   -1025.4026    42.879967   -982.52265 
 1979000    968.42298   -1028.8252    38.554976   -990.27018 
 1979200    965.32347   -1027.0569    38.431578   -988.62534 
 1979400    1035.2487   -1024.0254    41.215451   -982.80991 
 1979600    1027.8527   -1023.4983    40.920999   -982.57735 
 1979800    956.49314   -1026.4101    38.080024   -988.33004 
 1980000    947.52121   -1023.1602    37.722832   -985.43735 
 1980200    1003.1557   -1021.5533     39.93776   -981.61558 
 1980400    1000.3449   -1024.2983    39.825857   -984.47242 
 1980600    998.65433   -1028.3118    39.758551   -988.55329 
 1980800    973.24606   -1023.5006    38.746994   -984.75365 
 1981000    985.36172   -1022.6385    39.229343   -983.40911 
 1981200    1022.0768   -1029.6022    40.691049   -988.91118 
 1981400    1002.1983   -1031.1368    39.899642   -991.23713 
 1981600    1073.7211    -1027.132    42.747119   -984.38487 
 1981800    977.24649   -1024.9868    38.906259   -986.08054 
 1982000    887.63713   -1026.1242     35.33872   -990.78547 
 1982200    928.40934    -1027.002    36.961948   -990.04001 
 1982400    1035.7654   -1024.0417    41.236023   -982.80568 
 1982600     1020.527   -1027.5471    40.629348   -986.91776 
 1982800     943.9136   -1028.2896    37.579206   -990.71039 
 1983000    1052.4667    -1024.746    41.900934    -982.8451 
 1983200    984.51212   -1026.6261    39.195519   -987.43061 
 1983400    915.39494   -1026.3541    36.443818   -989.91024 
 1983600    984.23887   -1025.1704    39.184641   -985.98577 
 1983800    974.96433   -1026.6667    38.815401   -987.85126 
 1984000    960.33331   -1028.2189    38.232909   -989.98598 
 1984200    1091.4091   -1028.4738    43.451314   -985.02252 
 1984400    1012.8105   -1024.1085    40.322137   -983.78636 
 1984600     968.4149   -1026.4746    38.554655   -987.91998 
 1984800    986.17837   -1028.4329    39.261856   -989.17108 
 1985000    991.65169   -1022.5126    39.479761    -983.0328 
 1985200    966.55921   -1024.7683    38.480776   -986.28755 
 1985400    990.00189   -1029.1235    39.414078   -989.70945 
 1985600    988.19717   -1025.8914    39.342229   -986.54913 
 1985800    1024.1585   -1023.5432    40.773925   -982.76923 
 1986000    967.65169   -1025.5737     38.52427   -987.04945 
 1986200    960.26964   -1025.7655    38.230375   -987.53512 
 1986400    1054.9387   -1027.4388    41.999352   -985.43941 
 1986600    1019.6872   -1026.4036    40.595913   -985.80766 
 1986800    966.84305   -1028.9021    38.492076   -990.40999 
 1987000    964.48643   -1024.9903    38.398254   -986.59208 
 1987200    1025.2572   -1022.4461    40.817669   -981.62848 
 1987400    994.09103   -1028.4004    39.576876   -988.82355 
 1987600    975.86873   -1028.3401    38.851408   -989.48869 
 1987800     1029.139   -1023.2181    40.972209   -982.24594 
 1988000    934.11651   -1022.1539    37.189163   -984.96474 
 1988200    974.61284      -1028.4    38.801408   -989.59858 
 1988400    1088.9587   -1026.9361     43.35376   -983.58236 
 1988600    1010.9412   -1026.2041    40.247719   -985.95635 
 1988800     947.8113   -1029.2389    37.734381    -991.5045 
 1989000     1005.876   -1024.7533    40.046062   -984.70726 
 1989200    1017.6805   -1025.2025    40.516024   -984.68649 
 1989400    950.23156    -1027.432    37.830737   -989.60128 
 1989600    1015.9397   -1026.5169     40.44672   -986.07019 
 1989800    1089.8321   -1022.6885    43.388531   -979.29997 
 1990000    989.19464   -1025.4609     39.38194   -986.07901 
 1990200    937.24731   -1026.3541    37.313807   -989.04032 
 1990400     1051.043    -1028.692    41.844254   -986.84777 
 1990600    974.16771   -1027.6434    38.783686   -988.85969 
 1990800    1080.8672   -1028.7685    43.031619   -985.73687 
 1991000    966.98011   -1024.2964    38.497533   -985.79885 
 1991200    1032.4678    -1028.749    41.104738   -987.64431 
 1991400    988.69778   -1030.2005    39.362159   -990.83836 
 1991600    969.76729   -1023.7949    38.608496   -985.18642 
 1991800     1006.728   -1027.2467    40.079979   -987.16671 
 1992000    945.43097   -1030.3758    37.639616   -992.73619 
 1992200    1026.7737   -1023.2451    40.878041   -982.36704 
 1992400    961.54224   -1024.9947     38.28104   -986.71368 
 1992600    917.73528   -1027.9324    36.536991   -991.39545 
 1992800    1060.6159   -1027.1738    42.225372   -984.94846 
 1993000    1024.6777   -1027.1178    40.794597   -986.32317 
 1993200    986.19563   -1027.8835    39.262544   -988.62097 
 1993400    968.22253   -1025.9275    38.546996    -987.3805 
 1993600    1062.1193   -1026.1266    42.285225   -983.84139 
 1993800    957.68592   -1027.4181    38.127511   -989.29063 
 1994000    1003.8072   -1028.9603    39.963696   -988.99664 
 1994200     1067.748   -1024.1353    42.509315   -981.62598 
 1994400    950.28409   -1021.7937    37.832829   -983.96085 
 1994600    990.60798    -1024.107    39.438208   -984.66878 
 1994800    1015.8986   -1023.9224    40.445082   -983.47731 
 1995000    923.93839    -1025.348     36.78395   -988.56408 
 1995200    977.54219   -1026.4996    38.918031   -987.58157 
 1995400    1010.7952   -1023.4794    40.241904   -983.23752 
 1995600    1041.7094    -1026.461    41.472663   -984.98835 
 1995800    942.78675   -1025.9706    37.534344   -988.43623 
 1996000     1057.214   -1024.7106    42.089937   -982.62064 
 1996200    979.68306   -1025.7693    39.003264   -986.76599 
 1996400    1036.1893    -1025.572    41.252899   -984.31908 
 1996600     1009.272   -1028.9932    40.181263   -988.81194 
 1996800    1019.7979   -1027.6744    40.600319   -987.07404 
 1997000    1033.5215   -1027.2334    41.146688   -986.08669 
 1997200    979.02116   -1026.9294    38.976912   -987.95249 
 1997400     983.6069   -1023.4419     39.15948   -984.28239 
 1997600    1046.8091    -1026.136    41.675693   -984.46029 
 1997800    927.80161   -1027.7198    36.937753   -990.78204 
 1998000    1053.2606     -1025.84    41.932541   -983.90743 
 1998200    1045.2043   -1025.4779    41.611805   -983.86608 
 1998400    994.34695   -1028.9844    39.587065   -989.39735 
 1998600    948.14531   -1025.7313    37.747679   -987.98365 
 1998800    1044.9564   -1023.8539    41.601935   -982.25195 
 1999000    1016.1453   -1025.5355    40.454905   -985.08055 
 1999200    936.75768   -1023.2404    37.294313   -985.94612 
 1999400    1058.7116   -1024.8805    42.149557   -982.73094 
 1999600    977.19899   -1025.1279    38.904368   -986.22353 
 1999800    991.37996   -1027.5695    39.468942   -988.10055 
 2000000    1016.0047   -1022.2996    40.449306   -981.85034 
Loop time of 1004.97 on 8 procs for 2000000 steps with 309 atoms

Performance: 171.946 ns/day, 0.140 hours/ns, 1990.119 timesteps/s
95.0% CPU use with 8 MPI tasks x 1 OpenMP threads

MPI task timing breakdown:
Section |  min time  |  avg time  |  max time  |%varavg| %total
---------------------------------------------------------------
Pair    | 806.97     | 860.66     | 955.66     | 157.4 | 85.64
Neigh   | 1.1224     | 1.2181     | 1.4547     |  11.6 |  0.12
Comm    | 27.319     | 123.2      | 176.91     | 418.3 | 12.26
Output  | 1.8446     | 1.8526     | 1.8909     |   1.1 |  0.18
Modify  | 12.66      | 13.118     | 13.618     |   8.1 |  1.31
Other   |            | 4.912      |            |       |  0.49

Nlocal:    38.625 ave 50 max 32 min
Histogram: 1 2 1 2 0 0 1 0 0 1
Nghost:    154.625 ave 160 max 148 min
Histogram: 1 0 0 2 1 1 0 1 0 2
Neighs:    664.5 ave 863 max 473 min
Histogram: 1 1 1 0 1 0 2 1 0 1
FullNghs:  1329 ave 1701 max 1117 min
Histogram: 2 1 1 1 1 0 1 0 0 1

Total # of neighbors = 10632
Ave neighs/atom = 34.4078
Neighbor list builds = 11864
Dangerous builds = 0
All done!
Total wall time: 0:16:44
