LAMMPS (22 Aug 2018)
OMP_NUM_THREADS environment is not set. Defaulting to 1 thread. (src/comm.cpp:87)
  using 1 OpenMP thread(s) per MPI task
Reading data file ...
  orthogonal box = (-0 -0 -0) to (100 100 100)
  1 by 1 by 1 MPI processor grid
  reading atoms ...
  561 atoms
WARNING: The pair_style meam command is unsupported. Please use pair_style meam/c instead (src/MEAM/pair_meam.cpp:51)
Reading potential file library.meam with DATE: 2012-06-29
Neighbor list info ...
  update every 1 steps, delay 10 steps, check yes
  max neighbors/atom: 2000, page size: 100000
  master list distance cutoff = 6
  ghost atom cutoff = 6
  binsize = 3, bins = 34 34 34
  2 neighbor lists, perpetual/occasional/extra = 2 0 0
  (1) pair meam, perpetual
      attributes: full, newton on
      pair build: full/bin/atomonly
      stencil: full/bin/3d
      bin: standard
  (2) pair meam, perpetual, half/full from (1)
      attributes: half, newton on
      pair build: halffull/newton
      stencil: none
      bin: none
Setting up Verlet run ...
  Unit style    : metal
  Current step  : 0
  Time step     : 0.0005
Per MPI rank memory allocation (min/avg/max) = 9.723 | 9.723 | 9.723 Mbytes
Step Temp PotEng KinEng TotEng 
       0          600    -1726.413    43.431409   -1682.9816 
     200    1038.4094   -1758.1482    75.165972   -1682.9822 
     400    1182.9786   -1768.6135    85.630714   -1682.9827 
     600     689.6465   -1732.9033    49.920532   -1682.9828 
     800    1141.8255   -1765.6352     82.65182   -1682.9834 
    1000    848.92101   -1744.4322    61.449725   -1682.9825 
    1200    682.62174   -1732.3943    49.412039   -1682.9823 
    1400    981.19855   -1754.0073    71.024725   -1682.9825 
    1600    998.53508   -1755.2628    72.279642   -1682.9831 
    1800     878.9916    -1746.609    63.626405   -1682.9826 
    2000    945.90065   -1751.4523    68.469663   -1682.9826 
    2200    892.70679   -1747.6019    64.619189   -1682.9827 
    2400    756.69775   -1737.7562    54.774082   -1682.9821 
    2600    917.47564   -1749.3945    66.412099   -1682.9824 
    2800    957.87598   -1752.3196    69.336506   -1682.9831 
    3000    871.21442   -1746.0465     63.06345   -1682.9831 
    3200    918.37621   -1749.4606    66.477288   -1682.9833 
    3400    873.22121   -1746.1918    63.208712   -1682.9831 
    3600    823.85368    -1742.618     59.63521   -1682.9828 
    3800    861.11817   -1745.3154    62.332625   -1682.9827 
    4000    881.12018   -1746.7634    63.780485    -1682.983 
    4200    904.08906   -1748.4266    65.443103   -1682.9835 
    4400    865.40712    -1745.626    62.643084   -1682.9829 
    4600    869.08607   -1745.8931    62.909387   -1682.9837 
    4800    825.48203   -1742.7363    59.753079   -1682.9832 
    5000    850.91131   -1744.5763    61.593795   -1682.9825 
    5200    903.32292   -1748.3699    65.387645   -1682.9823 
    5400     883.6781    -1746.947    63.965641   -1682.9814 
    5600    866.37149   -1745.6941     62.71289   -1682.9812 
    5800     881.1252    -1746.762    63.780848   -1682.9812 
    6000    837.08256   -1743.5738    60.592791   -1682.9811 
    6200    823.90983   -1742.6195    59.639274   -1682.9802 
    6400    837.26564   -1743.5864    60.606043   -1682.9803 
    6600    820.29997   -1742.3581    59.377972   -1682.9802 
    6800    868.00135   -1745.8112    62.830869   -1682.9803 
    7000    846.80169   -1744.2762    61.296317   -1682.9799 
    7200     840.4255   -1743.8157    60.834773   -1682.9809 
    7400    808.71759   -1741.5203    58.539574   -1682.9807 
    7600    837.18234   -1743.5801    60.600014   -1682.9801 
    7800     816.3452   -1742.0722    59.091703   -1682.9805 
    8000     808.9647   -1741.5372    58.557461   -1682.9798 
    8200    815.82533   -1742.0345    59.054072   -1682.9805 
    8400    784.41543   -1739.7603    56.780445   -1682.9798 
    8600    829.55993    -1743.028    60.048261   -1682.9797 
    8800    830.07764   -1743.0659    60.085735   -1682.9802 
    9000    835.45997   -1743.4555    60.475339   -1682.9801 
    9200    790.16722   -1740.1762    57.196792   -1682.9794 
    9400    812.24829   -1741.7744    58.795146   -1682.9793 
    9600    813.47359    -1741.863     58.88384   -1682.9792 
    9800    841.15897   -1743.8684    60.887865   -1682.9805 
   10000    832.30726   -1743.2273    60.247128   -1682.9802 
   10200     835.3539   -1743.4479    60.467661   -1682.9802 
   10400    836.70201   -1743.5458    60.565245   -1682.9806 
   10600    797.99476   -1740.7436    57.763395   -1682.9802 
   10800    805.58892   -1741.2932    58.313103   -1682.9801 
   11000    789.89524    -1740.157    57.177105   -1682.9799 
   11200    838.65195   -1743.6857    60.706393   -1682.9793 
   11400    857.08024   -1745.0197    62.040337   -1682.9794 
   11600    802.31428   -1741.0546    58.076066   -1682.9786 
   11800    826.75429   -1742.8236    59.845173   -1682.9784 
   12000     782.5264   -1739.6218    56.643707   -1682.9781 
   12200     840.9415   -1743.8508    60.872123   -1682.9787 
   12400    821.09784   -1742.4138    59.435726   -1682.9781 
   12600    797.53165   -1740.7079    57.729871    -1682.978 
   12800    827.62098   -1742.8858    59.907908   -1682.9779 
   13000    810.48261    -1741.645    58.667336   -1682.9776 
   13200    841.38171   -1743.8821    60.903988   -1682.9781 
   13400    832.62007   -1743.2474    60.269771   -1682.9776 
   13600    790.64998   -1740.2086    57.231738   -1682.9769 
   13800    834.35647   -1743.3731    60.395461   -1682.9776 
   14000    848.28477    -1744.381    61.403671   -1682.9774 
   14200    858.82351   -1745.1444    62.166525   -1682.9779 
   14400    842.75886   -1743.9818    61.003675   -1682.9781 
   14600    814.80313   -1741.9582     58.98008   -1682.9781 
   14800    822.98179   -1742.5506    59.572098   -1682.9785 
   15000    814.16159    -1741.911    58.933641   -1682.9774 
   15200    858.23367   -1745.1013    62.123829   -1682.9774 
   15400    812.61648   -1741.7994    58.821797   -1682.9776 
   15600     831.1176   -1743.1374    60.161014   -1682.9763 
   15800    852.89355   -1744.7143    61.737281    -1682.977 
   16000      841.616   -1743.8984    60.920947   -1682.9775 
   16200    776.36535   -1739.1744    56.197735   -1682.9766 
   16400    845.95243   -1744.2118    61.234843    -1682.977 
   16600    825.39268   -1742.7234    59.746612   -1682.9768 
   16800    807.19355   -1741.4064    58.429255   -1682.9771 
   17000     845.9013   -1744.2078    61.231142   -1682.9766 
   17200    802.82868   -1741.0901    58.113301   -1682.9768 
   17400    845.73666   -1744.1963    61.219224    -1682.977 
   17600    860.68575   -1745.2788    62.301324   -1682.9774 
   17800    762.43085   -1738.1662    55.189076   -1682.9772 
   18000    801.86245   -1741.0203     58.04336   -1682.9769 
   18200    811.72816   -1741.7347    58.757496   -1682.9772 
   18400    820.96905   -1742.4039    59.426404   -1682.9775 
   18600    833.33687   -1743.2987    60.321657   -1682.9771 
   18800    804.22357    -1741.191    58.214271   -1682.9767 
   19000     795.4957   -1740.5592    57.582498   -1682.9767 
   19200     807.5372   -1741.4308     58.45413   -1682.9767 
   19400    852.05387   -1744.6536      61.6765   -1682.9771 
   19600     846.7669   -1744.2711    61.293799   -1682.9773 
   19800    831.25318   -1743.1485    60.170827   -1682.9776 
   20000    818.50162   -1742.2243    59.247798   -1682.9765 
Loop time of 112.298 on 1 procs for 20000 steps with 561 atoms

Performance: 7.694 ns/day, 3.119 hours/ns, 178.097 timesteps/s
99.7% CPU use with 1 MPI tasks x 1 OpenMP threads

MPI task timing breakdown:
Section |  min time  |  avg time  |  max time  |%varavg| %total
---------------------------------------------------------------
Pair    | 111.67     | 111.67     | 111.67     |   0.0 | 99.44
Neigh   | 0.14489    | 0.14489    | 0.14489    |   0.0 |  0.13
Comm    | 0.0060794  | 0.0060794  | 0.0060794  |   0.0 |  0.01
Output  | 0.14761    | 0.14761    | 0.14761    |   0.0 |  0.13
Modify  | 0.27512    | 0.27512    | 0.27512    |   0.0 |  0.24
Other   |            | 0.05391    |            |       |  0.05

Nlocal:    561 ave 561 max 561 min
Histogram: 1 0 0 0 0 0 0 0 0 0
Nghost:    0 ave 0 max 0 min
Histogram: 1 0 0 0 0 0 0 0 0 0
Neighs:    14613 ave 14613 max 14613 min
Histogram: 1 0 0 0 0 0 0 0 0 0
FullNghs:  29226 ave 29226 max 29226 min
Histogram: 1 0 0 0 0 0 0 0 0 0

Total # of neighbors = 29226
Ave neighs/atom = 52.0963
Neighbor list builds = 86
Dangerous builds = 0
All done!
Total wall time: 0:01:52
