LAMMPS (22 Aug 2018)
OMP_NUM_THREADS environment is not set. Defaulting to 1 thread. (src/comm.cpp:87)
  using 1 OpenMP thread(s) per MPI task
Reading data file ...
  orthogonal box = (-0 -0 -0) to (200 200 200)
  1 by 1 by 1 MPI processor grid
  reading atoms ...
  923 atoms
WARNING: The pair_style meam command is unsupported. Please use pair_style meam/c instead (src/MEAM/pair_meam.cpp:51)
Reading potential file library.meam with DATE: 2012-06-29
Neighbor list info ...
  update every 1 steps, delay 10 steps, check yes
  max neighbors/atom: 2000, page size: 100000
  master list distance cutoff = 6
  ghost atom cutoff = 6
  binsize = 3, bins = 67 67 67
  2 neighbor lists, perpetual/occasional/extra = 2 0 0
  (1) pair meam, perpetual
      attributes: full, newton on
      pair build: full/bin/atomonly
      stencil: full/bin/3d
      bin: standard
  (2) pair meam, perpetual, half/full from (1)
      attributes: half, newton on
      pair build: halffull/newton
      stencil: none
      bin: none
Setting up Verlet run ...
  Unit style    : metal
  Current step  : 0
  Time step     : 0.001
Per MPI rank memory allocation (min/avg/max) = 11.15 | 11.15 | 11.15 Mbytes
Step Temp PotEng KinEng TotEng 
       0          300   -3120.0186    35.753356   -3084.2653 
     200     392.5297   -3106.0384    46.780847   -3059.2575 
     400    286.05081   -3116.8138    34.090922   -3082.7229 
     600    212.23314   -3126.3323     25.29349   -3101.0389 
     800    366.13734   -3111.8383    43.635462   -3068.2029 
    1000    311.92993    -3117.561     37.17514   -3080.3858 
    1200    229.99836   -3125.7729    27.410711   -3098.3622 
    1400      358.716   -3114.2891    42.751003   -3071.5381 
    1600    304.16471   -3117.0026    36.249697   -3080.7529 
    1800    255.51808    -3126.164    30.452096   -3095.7119 
    2000    328.55801   -3117.1893    39.156838   -3078.0325 
    2200    294.15763   -3122.4415    35.057075   -3087.3844 
    2400    281.34478    -3133.892    33.530068    -3100.362 
    2600    342.99496   -3147.3604    40.877403    -3106.483 
    2800    261.81756   -3165.0453    31.202854   -3133.8424 
    3000    310.26072   -3176.1403    36.976207   -3139.1641 
    3200    294.19654   -3181.0933    35.061712   -3146.0316 
    3400    272.58421   -3182.5965    32.486001   -3150.1105 
    3600    330.04132    -3175.957    39.333616   -3136.6234 
    3800    298.45734   -3176.1514    35.569505   -3140.5819 
    4000    297.82842   -3180.8211    35.494552   -3145.3266 
    4200    301.04448    -3179.221    35.877835   -3143.3431 
    4400    300.40168   -3181.0036    35.801228   -3145.2024 
    4600    288.88184   -3178.7279    34.428318   -3144.2996 
    4800    308.37558   -3176.9096     36.75154   -3140.1581 
    5000    289.67943   -3180.8631    34.523372   -3146.3397 
    5200    304.44495   -3182.8148    36.283095   -3146.5317 
    5400    306.08614   -3178.4017    36.478689   -3141.9231 
    5600    302.77881   -3179.5637    36.084528   -3143.4792 
    5800    309.56625   -3180.5793    36.893442   -3143.6859 
    6000    301.48858   -3181.2786    35.930761   -3145.3478 
    6200    286.33341   -3180.3754    34.124601   -3146.2508 
    6400    317.90024   -3177.7153    37.886669   -3139.8287 
    6600    302.91159   -3180.7334    36.100353    -3144.633 
    6800    288.28666   -3181.1267    34.357386   -3146.7693 
    7000    310.25172   -3178.4833    36.975135   -3141.5082 
    7200    296.84077   -3178.5386    35.376846   -3143.1617 
    7400    297.17178   -3180.4823    35.416295    -3145.066 
    7600    302.76401   -3180.1275    36.082765   -3144.0447 
    7800    304.67567    -3179.522    36.310593   -3143.2114 
    8000    308.18002   -3178.7454    36.728234   -3142.0171 
    8200     316.3098   -3179.7223    37.697123   -3142.0251 
    8400    297.29696   -3180.5669    35.431213   -3145.1357 
    8600     304.6893   -3178.8997    36.312217   -3142.5875 
    8800    299.97899   -3177.3593    35.750852   -3141.6084 
    9000    303.42069   -3180.6796    36.161026   -3144.5186 
    9200    301.46779   -3179.8214    35.928285   -3143.8931 
    9400    308.87508   -3178.6101    36.811069   -3141.7991 
    9600    305.18731   -3179.4993    36.371569   -3143.1277 
    9800     301.1104   -3179.2979    35.885691   -3143.4122 
   10000    309.79157   -3179.7683    36.920294    -3142.848 
   10200    300.27398   -3179.5051    35.786009   -3143.7191 
   10400    305.41306   -3179.0659    36.398473   -3142.6674 
   10600     309.9189   -3179.0914    36.935469    -3142.156 
   10800    291.20424   -3178.9213    34.705096   -3144.2162 
   11000    310.93958   -3178.7022    37.057112   -3141.6451 
   11200    301.38114   -3177.6727    35.917958   -3141.7548 
   11400    296.11676   -3179.1161     35.29056   -3143.8256 
   11600    305.94966   -3178.8801    36.462424   -3142.4177 
   11800    306.35367   -3179.1498    36.510573   -3142.6392 
   12000    309.25348   -3179.6982    36.856166    -3142.842 
   12200    302.14766   -3178.4359     36.00931   -3142.4266 
   12400    294.74437   -3179.6207    35.127001   -3144.4937 
   12600    303.29365   -3179.9905    36.145886   -3143.8446 
   12800    323.48854   -3178.8684     38.55267   -3140.3157 
   13000    297.66138   -3179.4846    35.474645     -3144.01 
   13200    299.87238   -3180.4846    35.738146   -3144.7464 
   13400    318.74579   -3178.7089    37.987439   -3140.7215 
   13600    310.46154   -3178.5146     37.00014   -3141.5145 
   13800    301.86528   -3179.4458    35.975657   -3143.4701 
   14000    317.46896   -3179.5239    37.835269   -3141.6886 
   14200    303.98854   -3179.2806    36.228702   -3143.0519 
   14400    315.89117   -3178.9569    37.647232   -3141.3097 
   14600    319.71718     -3180.43    38.103207   -3142.3268 
   14800     287.3507   -3180.0457     34.24584   -3145.7998 
   15000    308.71515   -3176.6824    36.792009   -3139.8904 
   15200    307.70065   -3176.7683    36.671103   -3140.0972 
   15400    289.64135   -3178.6481    34.518835   -3144.1293 
   15600    307.55425   -3179.5422    36.653656   -3142.8885 
   15800    313.09658   -3180.0646    37.314178   -3142.7504 
   16000    311.22118   -3177.7574    37.090672   -3140.6668 
   16200    317.11669   -3179.2409    37.793286   -3141.4476 
   16400     291.1589   -3179.7375    34.699693   -3145.0378 
   16600    313.98869   -3179.2168    37.420499   -3141.7963 
   16800    302.84951    -3176.717    36.092955    -3140.624 
   17000    300.87265   -3178.2462    35.857357   -3142.3888 
   17200    293.21781    -3178.554    34.945069   -3143.6089 
   17400    298.41249   -3178.3447    35.564161   -3142.7805 
   17600    310.87486   -3177.0336    37.049399   -3139.9842 
   17800    319.30582   -3178.3412    38.054183    -3140.287 
   18000    299.56372   -3179.6117    35.701361   -3143.9104 
   18200    300.34582   -3177.8394     35.79457   -3142.0448 
   18400    311.69998   -3177.5319    37.147735   -3140.3842 
   18600    296.39919   -3177.2186     35.32422   -3141.8943 
   18800    298.33176   -3178.4836    35.554538    -3142.929 
   19000    302.31902   -3179.3133    36.029732   -3143.2836 
   19200    306.61757   -3177.8269    36.542024   -3141.2849 
   19400    310.23641   -3177.0767    36.973309   -3140.1034 
   19600     302.2155   -3178.1709    36.017394   -3142.1536 
   19800    301.83198   -3180.7684    35.971688   -3144.7967 
   20000    313.75922   -3177.8099    37.393151   -3140.4168 
   20200    322.26362   -3177.3389    38.406687   -3138.9322 
   20400    307.08378    -3181.254    36.597586   -3144.6564 
   20600    306.38161   -3180.5033    36.513903   -3143.9894 
   20800     313.2985   -3176.2023    37.338243    -3138.864 
   21000    295.85931   -3176.2697    35.259877   -3141.0098 
   21200    308.55637    -3178.159    36.773086   -3141.3859 
   21400    315.56814   -3179.7119    37.608733   -3142.1031 
   21600    296.40328   -3178.3962    35.324707   -3143.0715 
   21800    311.92903     -3177.41    37.175033    -3140.235 
   22000    300.90461   -3177.6429    35.861166   -3141.7817 
   22200    297.08866   -3178.8172    35.406388   -3143.4108 
   22400    307.25727   -3176.7919    36.618262   -3140.1737 
   22600    302.51909   -3176.5568    36.053576   -3140.5033 
   22800    305.42439   -3179.1083    36.399823   -3142.7085 
   23000    318.31858    -3179.048    37.936525   -3141.1115 
   23200    309.26122   -3177.5127    36.857088   -3140.6556 
   23400    307.04855   -3177.7513    36.593387   -3141.1579 
   23600    310.34986   -3177.4113     36.98683   -3140.4245 
   23800    302.87502     -3178.84    36.095994    -3142.744 
   24000    313.94283   -3179.5877    37.415032   -3142.1727 
   24200    320.81955   -3177.8531    38.234585   -3139.6185 
   24400    305.88963   -3177.9472     36.45527    -3141.492 
   24600    290.32753    -3178.089    34.600612   -3143.4884 
   24800    307.22936   -3176.8711    36.614936   -3140.2562 
   25000     323.5636   -3178.6425    38.561616   -3140.0809 
   25200    299.14628   -3178.3033    35.651611   -3142.6517 
   25400    314.85585   -3177.9495    37.523845   -3140.4257 
   25600    296.72113    -3177.119    35.362587   -3141.7564 
   25800    305.53485   -3178.7017    36.412988   -3142.2887 
   26000    312.17671   -3177.8089    37.204551   -3140.6044 
   26200    300.67388   -3176.7587    35.833667    -3140.925 
   26400    300.04474   -3177.9901    35.758688   -3142.2314 
   26600    318.16515   -3178.8399     37.91824   -3140.9217 
   26800    310.35875   -3178.0927     36.98789   -3141.1049 
   27000    308.87228   -3178.0914    36.810735   -3141.2807 
   27200    318.55907   -3178.6332    37.965187    -3140.668 
   27400    307.63433   -3177.9562      36.6632    -3141.293 
   27600     305.9303   -3177.0532    36.460116   -3140.5931 
   27800    314.70052    -3179.687    37.505333   -3142.1816 
   28000    300.46202   -3178.1969    35.808418   -3142.3885 
   28200    320.38546    -3176.271    38.182851   -3138.0881 
   28400    299.62899   -3177.9442     35.70914   -3142.2351 
   28600    297.52852   -3177.1728     35.45881   -3141.7139 
   28800    326.54964   -3176.6932    38.917485   -3137.7757 
   29000    309.57188   -3177.8362    36.894112   -3140.9421 
   29200    308.12552   -3177.3551    36.721738   -3140.6334 
   29400    311.83594   -3176.2873    37.163938   -3139.1234 
   29600    295.83366   -3175.4806    35.256821   -3140.2238 
   29800    308.00599    -3175.458    36.707492   -3138.7505 
   30000    305.43471   -3178.0552    36.401053   -3141.6542 
   30200    301.67117   -3177.0468    35.952523   -3141.0943 
   30400     327.6289   -3176.7936    39.046109   -3137.7475 
   30600    312.10331   -3177.9398    37.195802    -3140.744 
   30800    305.17899   -3177.1544    36.370577   -3140.7838 
   31000    314.88015   -3175.2372     37.52674   -3137.7105 
   31200    300.24604   -3176.3449    35.782678   -3140.5622 
   31400    300.66527   -3178.2424    35.832642   -3142.4098 
   31600    324.60438   -3177.2395    38.685653   -3138.5539 
   31800    316.12522   -3176.7568    37.675125   -3139.0817 
   32000    303.63283   -3178.3825    36.186309   -3142.1962 
   32200     313.7338   -3177.8305    37.390121   -3140.4404 
   32400    307.07343   -3176.1869    36.596352   -3139.5906 
   32600    296.44546   -3175.2283    35.329734   -3139.8985 
   32800    317.09557   -3176.9204     37.79077   -3139.1296 
   33000    318.90698   -3178.8205    38.006649   -3140.8139 
   33200    312.95143   -3178.1222     37.29688   -3140.8253 
   33400     317.4059   -3175.9698    37.827754    -3138.142 
   33600    311.57075   -3177.4882    37.132333   -3140.3558 
   33800     315.7596   -3179.2695    37.631551   -3141.6379 
   34000    317.81587   -3176.8039    37.876614   -3138.9273 
   34200    317.77127   -3177.3075    37.871298   -3139.4362 
   34400    318.31515   -3178.5523    37.936116   -3140.6162 
   34600    312.41254   -3177.4198    37.232656   -3140.1871 
   34800    310.88855   -3177.5306     37.05103   -3140.4795 
   35000    308.28327   -3176.3746    36.740538   -3139.6341 
   35200    308.92122   -3176.4236    36.816568    -3139.607 
   35400    313.86304   -3177.4671    37.405524   -3140.0616 
   35600     319.5856   -3177.4601    38.087526   -3139.3726 
   35800    321.63647   -3177.3837    38.331944   -3139.0518 
   36000    295.71662   -3175.4309    35.242872   -3140.1881 
   36200    310.38138   -3176.3676    36.990587    -3139.377 
   36400    309.98935   -3177.6292    36.943866   -3140.6853 
   36600    313.38682   -3178.6093    37.348769   -3141.2605 
   36800    323.66306   -3177.1022    38.573469   -3138.5287 
   37000    324.85675   -3177.0604     38.71573   -3138.3446 
   37200    305.15323   -3177.5268    36.367507   -3141.1593 
   37400    311.43007   -3176.5615    37.115567   -3139.4459 
   37600    310.50098    -3176.506     37.00484   -3139.5011 
   37800    313.19549   -3175.6535    37.325967   -3138.3275 
   38000    311.79491   -3176.9945    37.159048   -3139.8354 
   38200     300.2875   -3177.7214     35.78762   -3141.9338 
   38400    329.30662   -3175.4419    39.246056   -3136.1958 
   38600    314.25275   -3175.5932    37.451968   -3138.1412 
   38800    296.78294   -3178.9584    35.369954   -3143.5885 
   39000    329.92381   -3176.9319    39.319611   -3137.6123 
   39200    314.15888   -3175.8638    37.440782    -3138.423 
   39400    303.09333   -3177.7407    36.122012   -3141.6187 
   39600    326.55201   -3177.6447    38.917768   -3138.7269 
   39800    309.98452   -3175.3463     36.94329    -3138.403 
   40000     311.0512   -3175.6857    37.070414   -3138.6153 
   40200    318.97753   -3178.1733    38.015058   -3140.1583 
   40400    305.83151   -3176.3699    36.448342   -3139.9215 
   40600    328.06234   -3176.4524    39.097766   -3137.3547 
   40800    306.07273   -3176.3171    36.477091     -3139.84 
   41000    307.09891   -3176.2761    36.599389   -3139.6767 
   41200    324.10773   -3176.8905    38.626464    -3138.264 
   41400    316.24979    -3177.065    37.689972    -3139.375 
   41600    316.59293   -3177.4537    37.730866   -3139.7228 
   41800    313.67795   -3175.0563    37.383465   -3137.6728 
   42000    302.45085   -3175.7043    36.045444   -3139.6588 
   42200     311.5764   -3177.3303    37.133007   -3140.1973 
   42400    310.10954   -3175.0134     36.95819   -3138.0552 
   42600    314.74538   -3176.7667    37.510679    -3139.256 
   42800    305.28008   -3175.5568    36.382625   -3139.1741 
   43000    318.09661   -3176.5131    37.910072    -3138.603 
   43200    308.66567   -3176.8851    36.786112    -3140.099 
   43400    325.99143   -3176.6445    38.850958   -3137.7935 
   43600    308.49409   -3174.8196    36.765664   -3138.0539 
   43800    310.54596   -3178.5193      37.0102   -3141.5091 
   44000    319.76451   -3176.3204    38.108847   -3138.2116 
   44200    324.48565   -3175.3555    38.671504    -3136.684 
   44400    302.76709   -3177.2862    36.083132   -3141.2031 
   44600    310.70621   -3174.5918    37.029299   -3137.5625 
   44800    325.04118   -3175.4119     38.73771   -3136.6742 
   45000    303.09802   -3177.3046    36.122572    -3141.182 
   45200    316.52706   -3176.5326    37.723016   -3138.8096 
   45400    320.60561   -3176.1461    38.209088    -3137.937 
   45600    307.98494   -3176.3152    36.704985   -3139.6102 
   45800    320.18714    -3176.414    38.159217   -3138.2548 
   46000    313.08809   -3177.3361    37.313167   -3140.0229 
   46200     298.8007   -3175.1082    35.610426   -3139.4978 
   46400    326.60436   -3176.3997    38.924007   -3137.4757 
   46600    296.33413   -3174.9959    35.316466   -3139.6795 
   46800    314.18072   -3176.3717    37.443384   -3138.9284 
   47000    322.30609   -3175.1459    38.411747   -3136.7342 
   47200    296.46321   -3175.6722     35.33185   -3140.3403 
   47400     313.5318   -3177.2773    37.366047   -3139.9112 
   47600    318.72596   -3174.8179    37.985076   -3136.8328 
   47800    309.34843   -3175.4008    36.867482   -3138.5333 
   48000    324.65593   -3177.8158    38.691797    -3139.124 
   48200    315.88632   -3176.3877    37.646653    -3138.741 
   48400    308.69129   -3176.4259    36.789165   -3139.6367 
   48600    324.17259   -3176.4153    38.634193   -3137.7811 
   48800    316.64075   -3175.7252    37.736565   -3137.9887 
   49000    305.46736   -3175.9382    36.404944   -3139.5332 
   49200    311.21113    -3174.985    37.089475   -3137.8955 
   49400    315.75196   -3175.5741    37.630641   -3137.9435 
   49600    313.90939   -3177.6227    37.411048   -3140.2116 
   49800    316.88607   -3176.7276    37.765801   -3138.9618 
   50000    321.81107    -3174.999    38.352752   -3136.6462 
   50200    312.50561   -3176.1814    37.243748   -3138.9377 
   50400    316.98986   -3177.0613    37.778171   -3139.2831 
   50600     328.0848   -3175.9864    39.100442    -3136.886 
   50800    325.99219   -3176.0723     38.85105   -3137.2212 
   51000    314.63344    -3178.132    37.497338   -3140.6346 
   51200    311.28874   -3175.7948    37.098724    -3138.696 
   51400    334.39381   -3174.9333    39.852336   -3135.0809 
   51600    317.58937   -3176.1626     37.84962   -3138.3129 
   51800    307.50813    -3176.781    36.648159   -3140.1328 
   52000     319.1034   -3175.5874    38.030059   -3137.5574 
   52200    326.85407    -3176.674    38.953766   -3137.7203 
   52400    320.46868   -3176.4492     38.19277   -3138.2565 
   52600    328.68747   -3177.0416    39.172268   -3137.8693 
   52800    314.41509   -3175.7256    37.471316   -3138.2543 
   53000    332.45532     -3175.92    39.621311   -3136.2987 
   53200     318.3011   -3176.5215    37.934442   -3138.5871 
   53400    311.10766   -3175.9927    37.077144   -3138.9156 
   53600    321.61341   -3175.2695    38.329195   -3136.9403 
   53800    319.31119   -3176.8074    38.054823   -3138.7526 
   54000    305.16608    -3174.276    36.369039    -3137.907 
   54200    321.07459   -3175.5136     38.26498   -3137.2486 
   54400    308.06504   -3176.6566    36.714531   -3139.9421 
   54600    327.45974   -3176.5854    39.025949   -3137.5595 
   54800    324.94978   -3175.6461    38.726817   -3136.9193 
   55000    315.10528   -3176.6042     37.55357   -3139.0507 
   55200    329.44638   -3177.6171    39.262713   -3138.3544 
   55400    326.31182   -3176.1719    38.889142   -3137.2827 
   55600     320.6162   -3175.9433    38.210351   -3137.7329 
   55800     315.0124   -3175.1028    37.542502   -3137.5603 
   56000    326.79424   -3176.5088    38.946637   -3137.5622 
   56200    317.68487    -3176.707    37.861001    -3138.846 
   56400     320.0268   -3175.7813    38.140107   -3137.6412 
   56600    318.63642   -3175.6763    37.974404   -3137.7019 
   56800    328.66714   -3176.6104    39.169844   -3137.4405 
   57000    325.75706   -3176.6133    38.823027   -3137.7902 
   57200    331.07148   -3177.1165    39.456389   -3137.6601 
   57400    318.02464    -3176.456    37.901494   -3138.5545 
   57600     313.0028   -3175.2655    37.303002   -3137.9625 
   57800    319.94232   -3175.3279    38.130039   -3137.1979 
   58000    317.75061   -3176.2918    37.868835    -3138.423 
   58200    325.58528   -3176.8732    38.802555   -3138.0707 
   58400    321.87351   -3175.4459    38.360194   -3137.0857 
   58600    302.58505   -3174.5699    36.061436   -3138.5084 
   58800    331.71515   -3176.3949      39.5331   -3136.8618 
   59000    316.44553   -3174.6981    37.713299   -3136.9848 
   59200    313.75447   -3176.3903    37.392585   -3138.9977 
   59400    324.84493   -3176.3146    38.714322   -3137.6003 
   59600    322.10229   -3175.6111    38.387459   -3137.2237 
   59800    308.54839   -3175.9725    36.772135   -3139.2003 
   60000    321.71152   -3176.5776    38.340888   -3138.2367 
   60200     326.0254    -3175.222    38.855008    -3136.367 
   60400    325.72865   -3175.9773    38.819641   -3137.1577 
   60600     322.0005   -3176.2582    38.375328   -3137.8829 
   60800    322.67533   -3175.7653    38.455753   -3137.3095 
   61000     309.9508   -3175.9716    36.939272   -3139.0323 
   61200    329.86262    -3177.299    39.312319   -3137.9866 
   61400    318.48043   -3175.7256    37.955814   -3137.7698 
   61600    322.21258   -3175.5556    38.400604    -3137.155 
   61800    323.50382   -3175.9073    38.554491   -3137.3528 
   62000    313.66028   -3174.1801    37.381359   -3136.7988 
   62200    319.03167   -3173.6205     38.02151    -3135.599 
   62400    316.19668   -3176.0876    37.683641    -3138.404 
   62600    311.65424   -3176.8611    37.142284   -3139.7188 
   62800    338.40714   -3174.8775    40.330637   -3134.5468 
   63000    322.69533   -3174.9833    38.458137   -3136.5252 
   63200    316.34718   -3177.3395    37.701578   -3139.6379 
   63400    319.93671   -3174.5612     38.12937   -3136.4318 
   63600      329.452   -3174.9748    39.263382   -3135.7114 
   63800    313.50058   -3176.5212    37.362327   -3139.1588 
   64000    324.36968   -3176.9341    38.657683   -3138.2764 
   64200    316.78863   -3175.8592    37.754189    -3138.105 
   64400    329.72853   -3173.7067    39.296338   -3134.4104 
   64600    336.94488   -3177.1998    40.156368   -3137.0434 
   64800    290.38583   -3177.9114     34.60756   -3143.3038 
   65000    336.51227   -3174.5709     40.10481   -3134.4661 
   65200     328.6422   -3174.2585    39.166872   -3135.0916 
   65400     311.6638   -3177.5695    37.143423   -3140.4261 
   65600    330.23339   -3176.8287    39.356507   -3137.4722 
   65800     321.4069   -3174.3274    38.304584   -3136.0229 
   66000    330.99571   -3175.6427    39.447359   -3136.1953 
   66200    326.02114    -3177.334      38.8545   -3138.4795 
   66400    324.06044   -3176.7221    38.620828   -3138.1013 
   66600    327.45541   -3173.4283    39.025433   -3134.4029 
   66800    321.65619   -3174.7987    38.334294   -3136.4644 
   67000    314.25989   -3176.4202     37.45282   -3138.9674 
   67200      328.013   -3175.6126    39.091885   -3136.5208 
   67400    311.90763   -3174.0866    37.172482   -3136.9141 
   67600    323.42127   -3175.8077    38.544652   -3137.2631 
   67800    332.29291   -3176.1158    39.601956   -3136.5139 
   68000      325.581   -3176.6757    38.802045   -3137.8737 
   68200    322.60859   -3175.1074    38.447799   -3136.6596 
   68400    312.11696   -3173.8605    37.197429   -3136.6631 
   68600    317.50907   -3175.6156     37.84005   -3137.7756 
   68800    325.79403   -3175.8936    38.827433   -3137.0662 
   69000    325.48525   -3174.7219    38.790633   -3135.9313 
   69200    328.13949   -3177.0316     39.10696   -3137.9247 
   69400    322.51866   -3176.0197    38.437081   -3137.5826 
   69600    339.22777   -3176.5092    40.428437   -3136.0808 
   69800     320.1974   -3174.8709    38.160439   -3136.7105 
   70000    327.77259   -3174.4423    39.063234    -3135.379 
   70200    326.22012   -3176.2743    38.878214   -3137.3961 
   70400    316.88837   -3176.9621    37.766076    -3139.196 
   70600    335.86699   -3174.4223    40.027907   -3134.3944 
   70800    336.14294   -3173.8076    40.060794   -3133.7468 
   71000    303.20365   -3175.7991    36.135161    -3139.664 
   71200    320.36508   -3174.1362    38.180422   -3135.9558 
   71400    345.97037   -3174.9768    41.232007   -3133.7448 
   71600    313.91267   -3176.2946    37.411438   -3138.8831 
   71800    330.42333   -3177.0892    39.379144   -3137.7101 
   72000    325.26602   -3174.1057    38.764506   -3135.3412 
   72200    314.87655   -3173.0236    37.526312   -3135.4973 
   72400    338.72537   -3176.3249    40.368562   -3135.9563 
   72600    323.05859   -3176.2647     38.50143   -3137.7633 
   72800    327.89892    -3175.961     39.07829   -3136.8827 
   73000     309.1088    -3172.906    36.838924    -3136.067 
   73200    327.99412   -3175.7099    39.089635   -3136.6202 
   73400    318.63402   -3174.3154    37.974119   -3136.3413 
   73600     332.4621   -3177.3714     39.62212   -3137.7493 
   73800     308.4771    -3174.202    36.763638   -3137.4384 
   74000    325.44911   -3172.5708    38.786326   -3133.7845 
   74200    317.67132   -3174.7774    37.859386    -3136.918 
   74400    311.54593    -3175.864    37.129376   -3138.7347 
   74600    352.68235   -3175.9046    42.031926   -3133.8727 
   74800    330.43808   -3174.9418    39.380902   -3135.5609 
   75000    326.92255    -3178.206    38.961927    -3139.244 
   75200    323.27548   -3175.0538    38.527278   -3136.5265 
   75400     320.5825   -3172.3776    38.206334   -3134.1713 
   75600    323.93278   -3174.4501    38.605614   -3135.8445 
   75800    333.62704   -3178.0411    39.760954   -3138.2801 
   76000    332.37016   -3175.6245    39.611162   -3136.0133 
   76200    326.25258   -3172.6714    38.882083   -3133.7893 
   76400      325.014    -3175.632     38.73447   -3136.8975 
   76600    316.79189   -3174.9817    37.754577   -3137.2271 
   76800    335.84777   -3173.3706    40.025616    -3133.345 
   77000     329.4301   -3175.8594    39.260773   -3136.5986 
   77200    318.15353   -3175.8368    37.916855   -3137.9199 
   77400    344.87894   -3176.2676    41.101932   -3135.1657 
   77600    330.44161   -3175.7385    39.381322   -3136.3571 
   77800    323.95301   -3174.8701    38.608024   -3136.2621 
   78000     331.2329   -3175.1156    39.475626     -3135.64 
   78200    326.82566   -3176.1689    38.950381   -3137.2185 
   78400    332.67985   -3174.7143    39.648071   -3135.0662 
   78600    336.72187   -3174.0403     40.12979   -3133.9105 
   78800    318.35842   -3176.7976    37.941273   -3138.8564 
   79000    327.31034   -3175.7841    39.008143   -3136.7759 
   79200    322.65683   -3173.8656    38.453549   -3135.4121 
   79400    328.09813   -3175.2684    39.102031   -3136.1664 
   79600    326.04037   -3174.4153    38.856791   -3135.5585 
   79800    327.99462   -3177.1756    39.089695   -3138.0859 
   80000    324.23768   -3175.9477    38.641951   -3137.3057 
   80200    334.72604   -3172.3569    39.891932    -3132.465 
   80400    325.16567   -3174.3561    38.752547   -3135.6036 
   80600    303.97872   -3175.8986    36.227531    -3139.671 
   80800    350.39141   -3175.4149    41.758896    -3133.656 
   81000    333.25094   -3174.7526    39.716131   -3135.0364 
   81200     326.5064   -3176.2837    38.912332   -3137.3714 
   81400    319.13172   -3174.6534    38.033434     -3136.62 
   81600    342.60358   -3175.8761    40.830759   -3135.0454 
   81800     324.8292   -3174.1576    38.712446   -3135.4452 
   82000    340.64428   -3175.5988    40.597255   -3135.0016 
   82200    323.18958   -3175.1589    38.517041   -3136.6419 
   82400    327.35244   -3174.7446    39.013161   -3135.7314 
   82600    325.17449   -3172.6314    38.753598   -3133.8778 
   82800    335.02853   -3175.7222    39.927981   -3135.7942 
   83000    316.60759   -3175.2687    37.732613   -3137.5361 
   83200    335.84689   -3174.5805    40.025511    -3134.555 
   83400    341.59887   -3175.6265     40.71102   -3134.9154 
   83600    317.53753    -3175.539    37.843441   -3137.6956 
   83800    322.76217    -3173.906    38.466103   -3135.4399 
   84000    327.54151   -3175.2315    39.035694   -3136.1958 
   84200    320.28918   -3175.7504    38.171377    -3137.579 
   84400    340.36022   -3173.6729      40.5634   -3133.1095 
   84600    311.88922   -3174.5672    37.170288   -3137.3969 
   84800     316.1863   -3175.2598    37.682405   -3137.5774 
   85000    339.67416   -3173.2166    40.481637   -3132.7349 
   85200    310.30617   -3175.7829    36.981623   -3138.8013 
   85400    329.60381   -3175.6109    39.281474   -3136.3295 
   85600     337.4012   -3173.5333    40.210751   -3133.3225 
   85800    320.13801   -3175.6348    38.153361   -3137.4815 
   86000     322.1021   -3174.8364    38.387436   -3136.4489 
   86200    342.12575   -3175.2968    40.773812    -3134.523 
   86400    324.55033   -3175.0273    38.679212   -3136.3481 
   86600     350.8794   -3176.4988    41.817054   -3134.6817 
   86800    325.01059   -3173.6513    38.734064   -3134.9172 
   87000    330.49513   -3175.8951    39.387701   -3136.5074 
   87200    321.67964   -3174.7567    38.337089   -3136.4196 
   87400    328.83808    -3173.782    39.190216   -3134.5918 
   87600    322.04336   -3174.6081    38.380437   -3136.2276 
   87800    329.10176     -3174.38    39.221641   -3135.1583 
   88000    328.28251   -3173.1422    39.124005   -3134.0182 
   88200    323.54618   -3174.9793    38.559539   -3136.4198 
   88400    328.68901   -3174.7797     39.17245   -3135.6073 
   88600    340.78606   -3174.5483    40.614151   -3133.9342 
   88800    323.22894   -3174.9545    38.521731   -3136.4328 
   89000    324.74409    -3173.968    38.702303   -3135.2657 
   89200    334.52244   -3174.1954    39.867667   -3134.3277 
   89400    311.88953   -3174.5751    37.170325   -3137.4047 
   89600    341.33095   -3175.2134    40.679091   -3134.5343 
   89800    326.48814    -3172.736    38.910156   -3133.8258 
   90000    326.06084   -3175.5191    38.859231   -3136.6599 
   90200    330.30989   -3173.0309    39.365624   -3133.6653 
   90400    338.32758   -3175.7194    40.321155   -3135.3983 
   90600      328.571   -3175.9034    39.158387    -3136.745 
   90800    345.78636   -3174.3368    41.210076   -3133.1268 
   91000    323.33583    -3174.755     38.53447   -3136.2205 
   91200    323.37386   -3175.3655    38.539003   -3136.8265 
   91400    351.72019   -3174.0105    41.917257   -3132.0932 
   91600    330.69278    -3176.108    39.411256   -3136.6967 
   91800    321.57473   -3174.2954    38.324587   -3135.9708 
   92000    349.38739   -3173.6078    41.639239   -3131.9686 
   92200    323.33546   -3176.0242    38.534426   -3137.4898 
   92400    326.23373    -3174.795    38.879836   -3135.9151 
   92600    349.35317   -3173.9577    41.635161   -3132.3226 
   92800    313.41852   -3174.1733    37.352546   -3136.8207 
   93000    329.69392   -3173.9573    39.292214   -3134.6651 
   93200    355.12643   -3176.8155    42.323206   -3134.4923 
   93400    330.21972   -3176.1787    39.354877   -3136.8239 
   93600     330.3123   -3172.5977    39.365911   -3133.2318 
   93800    343.66092    -3175.059    40.956771   -3134.1022 
   94000    319.12697   -3175.5171    38.032867   -3137.4842 
   94200    347.90181   -3174.3269    41.462191   -3132.8647 
   94400    345.50402   -3174.4676    41.176427   -3133.2912 
   94600     329.9996   -3175.7035    39.328644   -3136.3748 
   94800    338.29557   -3175.3708     40.31734   -3135.0535 
   95000    326.66337    -3172.931    38.931039   -3133.9999 
   95200    338.52888   -3173.1306    40.345146   -3132.7855 
   95400    329.63131    -3175.511    39.284752   -3136.2263 
   95600    334.18273   -3175.9079     39.82718   -3136.0807 
   95800    331.86906   -3172.4687    39.551442   -3132.9173 
   96000    344.28998   -3175.2917    41.031741     -3134.26 
   96200    331.94053     -3175.84     39.55996     -3136.28 
   96400    332.35175   -3174.7274    39.608968   -3135.1185 
   96600    337.49298   -3173.5709    40.221689   -3133.3492 
   96800    336.74059   -3172.7941    40.132021   -3132.6621 
   97000    329.85846   -3174.3117    39.311823   -3134.9999 
   97200    329.93431   -3173.9044    39.320863   -3134.5836 
   97400    332.61089   -3173.8118    39.639852   -3134.1719 
   97600       337.22   -3174.2385    40.189156   -3134.0493 
   97800    338.40207   -3174.5372    40.330033   -3134.2072 
   98000     341.6547     -3175.61    40.717674   -3134.8923 
   98200    338.53584   -3174.7464    40.345975   -3134.4004 
   98400    347.99012   -3174.0224    41.472716   -3132.5496 
   98600    314.92172    -3173.524    37.531695   -3135.9923 
   98800    340.14816   -3174.8072    40.538128   -3134.2691 
   99000    338.13156   -3173.3616    40.297794   -3133.0638 
   99200    321.82119   -3175.1316    38.353959   -3136.7776 
   99400    339.24369   -3174.4612    40.430334   -3134.0308 
   99600    344.40591   -3174.9798    41.045557   -3133.9342 
   99800    332.27005   -3174.1275    39.599231   -3134.5283 
  100000    332.90829   -3172.5349    39.675295   -3132.8596 
  100200    320.06569    -3172.983    38.144743   -3134.8382 
  100400    338.49174   -3174.7117     40.34072    -3134.371 
  100600    339.31751    -3173.256    40.439133   -3132.8168 
  100800    332.42866   -3173.0614    39.618135   -3133.4432 
  101000    334.79392   -3174.5026    39.900021   -3134.6026 
  101200      338.226    -3175.201    40.309049   -3134.8919 
  101400    339.89942   -3173.0816    40.508483   -3132.5732 
  101600    337.96668   -3173.5394    40.278143   -3133.2613 
  101800    326.82687   -3174.8025    38.950525    -3135.852 
  102000    344.92092   -3174.8317    41.106935   -3133.7247 
  102200    330.38448   -3173.0875    39.374513    -3133.713 
  102400    327.19389   -3173.3722    38.994266   -3134.3779 
  102600    343.79147   -3173.8191     40.97233   -3132.8468 
  102800    328.69432   -3173.0906    39.173084   -3133.9175 
  103000    346.74229   -3176.0093    41.324002   -3134.6853 
  103200    342.05907   -3174.5361    40.765866   -3133.7702 
  103400     334.3441   -3173.8374    39.846412    -3133.991 
  103600    341.17848   -3173.8505    40.660919   -3133.1896 
  103800    329.62168   -3174.7446    39.283605   -3135.4609 
  104000    343.87839   -3175.1267    40.982688    -3134.144 
  104200    341.53474   -3172.9922    40.703378   -3132.2888 
  104400    323.83331   -3172.8514    38.593759   -3134.2576 
  104600    327.31735   -3174.5631    39.008979   -3135.5541 
  104800    339.04547   -3174.2433    40.406711   -3133.8366 
  105000    335.31984   -3171.5173    39.962698   -3131.5546 
  105200    331.64108   -3174.2273    39.524272    -3134.703 
  105400    319.82698   -3172.8772    38.116293   -3134.7609 
  105600    352.39248   -3172.4712    41.997379   -3130.4739 
  105800    323.60223   -3174.2287    38.566219   -3135.6625 
  106000    326.20057   -3175.1863    38.875884   -3136.3104 
  106200    338.76866   -3172.3488    40.373722   -3131.9751 
  106400    341.40803   -3174.9255    40.688276   -3134.2372 
  106600    335.81989   -3174.6718    40.022293   -3134.6495 
  106800    343.37574    -3173.404    40.922783   -3132.4812 
  107000    329.77406   -3173.0385    39.301764   -3133.7367 
  107200    341.96828   -3175.3945    40.755045   -3134.6395 
  107400    340.56713   -3175.5463     40.58806   -3134.9583 
  107600    347.38458   -3173.8497    41.400549   -3132.4491 
  107800     351.7608   -3174.6742    41.922097   -3132.7521 
  108000    317.35444   -3175.0542    37.821621   -3137.2326 
  108200    361.02732   -3175.2168    43.026461   -3132.1904 
  108400    344.61213   -3173.2749    41.070134   -3132.2048 
  108600    331.84229   -3174.2021    39.548251   -3134.6538 
  108800    333.48951   -3173.5192    39.744564   -3133.7746 
  109000     337.0807   -3173.7913    40.172554   -3133.6187 
  109200    341.15304   -3173.3264    40.657887   -3132.6685 
  109400    340.04388   -3174.0665      40.5257   -3133.5408 
  109600     344.6198   -3175.1337    41.071048   -3134.0627 
  109800    338.64231   -3174.9075    40.358664   -3134.5488 
  110000    336.34251   -3172.8785    40.084578   -3132.7939 
  110200    336.31572   -3173.0476    40.081385   -3132.9662 
  110400    328.26906   -3174.3334    39.122403    -3135.211 
  110600    340.29773   -3173.2536    40.555953   -3132.6976 
  110800    349.66008   -3172.6516    41.671738   -3130.9798 
  111000    328.51159   -3173.8581    39.151306   -3134.7068 
  111200    340.41201   -3173.0042    40.569572   -3132.4346 
  111400    349.65312   -3175.4284    41.670909   -3133.7575 
  111600     331.1411   -3173.4717    39.464685    -3134.007 
  111800    350.32551   -3172.6115    41.751043   -3130.8605 
  112000    338.31245   -3174.2079    40.319352   -3133.8885 
  112200    333.36922   -3173.7801    39.730228   -3134.0499 
  112400     362.6531   -3172.8295    43.220219   -3129.6093 
  112600    329.81625   -3173.6571    39.306793   -3134.3503 
  112800    335.47738   -3174.6681    39.981474   -3134.6866 
  113000    349.39167   -3173.5668     41.63975   -3131.9271 
  113200    328.66759   -3172.4773    39.169898   -3133.3074 
  113400    344.70067   -3174.0461    41.080686   -3132.9655 
  113600    336.04108   -3172.7366    40.048655   -3132.6879 
  113800    346.79368   -3174.6622    41.330127   -3133.3321 
  114000    342.99299   -3172.9189    40.877168   -3132.0417 
  114200    341.50371   -3173.8674    40.699679   -3133.1678 
  114400    335.89359   -3174.8815    40.031077   -3134.8504 
  114600    337.67623   -3171.2728    40.243528   -3131.0293 
  114800    334.40507   -3172.4356    39.853678   -3132.5819 
  115000     338.4178   -3174.1252    40.331908   -3133.7933 
  115200    348.37755   -3172.6344    41.518889   -3131.1155 
  115400    335.03431    -3173.331     39.92867   -3133.4023 
  115600    343.47913   -3175.3711    40.935106    -3134.436 
  115800    330.08105   -3172.8646    39.338351   -3133.5263 
  116000    331.80587   -3172.5787    39.543911   -3133.0348 
  116200     337.4208   -3171.7634    40.213086   -3131.5503 
  116400    342.39964   -3172.2047    40.806455   -3131.3982 
  116600    330.47424   -3173.8756     39.38521   -3134.4904 
  116800    354.49552   -3174.0748    42.248015   -3131.8267 
  117000    358.12979   -3173.5352     42.68114   -3130.8541 
  117200    329.05331   -3175.1517    39.215867   -3135.9358 
  117400    347.84098   -3174.8091    41.454941   -3133.3542 
  117600    354.41043   -3172.7321    42.237874   -3130.4942 
  117800    324.82932   -3171.8502    38.712461   -3133.1378 
  118000    353.68498   -3174.2582    42.151416   -3132.1067 
  118200    331.61972   -3173.2764    39.521727   -3133.7547 
  118400    341.77075   -3172.8257    40.731505   -3132.0942 
  118600    344.71433   -3172.8859    41.082314   -3131.8035 
  118800    324.20265   -3173.3006    38.637776   -3134.6628 
  119000    353.69164   -3173.5404    42.152211   -3131.3882 
  119200    341.40458   -3173.5856    40.687865   -3132.8978 
  119400    344.28089   -3174.5867    41.030657    -3133.556 
  119600    348.53938   -3172.1854    41.538176   -3130.6472 
  119800    338.15781   -3172.8912    40.300922   -3132.5903 
  120000     321.5894   -3173.0316    38.326335   -3134.7053 
  120200    347.97763   -3171.2225    41.471226   -3129.7513 
  120400    346.62453   -3173.5555    41.309967   -3132.2456 
  120600     334.6905   -3174.8988    39.887695   -3135.0111 
  120800     354.7919   -3173.1024    42.283338    -3130.819 
  121000    333.65188   -3170.1776    39.763915   -3130.4137 
  121200    337.00494   -3172.7952    40.163525   -3132.6317 
  121400    326.36451   -3173.2154    38.895421     -3134.32 
  121600    343.18158   -3173.2657    40.899645   -3132.3661 
  121800    343.31826   -3173.0416    40.915933   -3132.1257 
  122000    354.66156   -3173.2912    42.267804   -3131.0234 
  122200    331.46847   -3173.7718    39.503701   -3134.2681 
  122400    336.98825   -3172.5355    40.161536    -3132.374 
  122600    360.30347   -3172.2557    42.940194   -3129.3155 
  122800    340.48352   -3175.4854    40.578096   -3134.9073 
  123000    343.48754   -3173.9382    40.936108   -3133.0021 
  123200    349.71375   -3170.9668    41.678134   -3129.2887 
  123400    350.53384    -3175.793    41.775871   -3134.0172 
  123600    325.11492   -3172.4453    38.746498   -3133.6988 
  123800    352.96265   -3171.7465    42.065331   -3129.6812 
  124000    330.36622   -3173.6071    39.372337   -3134.2347 
  124200    334.18316   -3173.4575    39.827231   -3133.6303 
  124400    356.49787   -3172.4519     42.48665   -3129.9652 
  124600    330.22067   -3172.4382     39.35499   -3133.0832 
  124800    356.76116   -3174.7431     42.51803   -3132.2251 
  125000    329.61575     -3172.07    39.282897   -3132.7871 
  125200    346.20812   -3173.8608     41.26034   -3132.6004 
  125400    333.98276   -3171.5669    39.803349   -3131.7635 
  125600    337.53616   -3172.5052    40.226835   -3132.2783 
  125800     348.3459   -3174.1247    41.515117   -3132.6096 
  126000    355.44428   -3173.7914    42.361086   -3131.4303 
  126200      346.979   -3173.9092    41.352213    -3132.557 
  126400    343.88716   -3173.9794    40.983733   -3132.9957 
  126600    352.34793    -3172.333     41.99207    -3130.341 
  126800    339.95264   -3171.3474    40.514825   -3130.8326 
  127000    342.44968   -3172.7891    40.812418   -3131.9767 
  127200    333.53389   -3173.0933    39.749853   -3133.3435 
  127400    332.44157   -3173.1816    39.619673    -3133.562 
  127600    367.40953   -3171.4771    43.787079     -3127.69 
  127800    340.73843   -3172.6598    40.608475   -3132.0514 
  128000    327.84408   -3173.9308    39.071753    -3134.859 
  128200    351.41588   -3171.4355     41.88099   -3129.5545 
  128400    342.27279   -3171.1755    40.791336   -3130.3842 
  128600    331.13429   -3173.6223    39.463874   -3134.1585 
  128800    349.80283   -3173.2045     41.68875   -3131.5158 
  129000    341.07426   -3170.9078    40.648499   -3130.2593 
  129200    347.67438   -3172.2771    41.435086    -3130.842 
  129400    345.59209   -3173.9221    41.186923   -3132.7352 
  129600    343.17757   -3173.6907    40.899167   -3132.7915 
  129800    365.33983   -3173.2505    43.540416   -3129.7101 
  130000    334.71572   -3172.3423    39.890701   -3132.4516 
  130200    331.79416   -3174.9067    39.542516   -3135.3641 
  130400    352.31547   -3171.5305    41.988202   -3129.5423 
  130600    361.96473    -3172.269    43.138179   -3129.1308 
  130800    324.53351   -3173.9929    38.677207   -3135.3157 
  131000    357.42508   -3172.0415    42.597154   -3129.4444 
  131200    344.78876    -3169.884    41.091184   -3128.7928 
  131400    325.22586   -3173.3654    38.759719   -3134.6057 
  131600    355.10305   -3172.3425    42.320419   -3130.0221 
  131800    365.50694   -3172.7676    43.560333   -3129.2073 
  132000    337.10116   -3174.0611    40.174992   -3133.8861 
  132200    353.95545    -3173.197     42.18365   -3131.0133 
  132400     359.7308   -3172.6709    42.871944   -3129.7989 
  132600    342.16988   -3173.2189    40.779072   -3132.4398 
  132800    355.37192   -3172.5151    42.352463   -3130.1626 
  133000    356.97103   -3174.0377    42.543041   -3131.4946 
  133200    348.74796   -3172.9647    41.563033   -3131.4017 
  133400    356.87763   -3172.0136    42.531911   -3129.4817 
  133600    338.61667   -3172.8083    40.355608   -3132.4527 
  133800    345.90942   -3171.1906    41.224742   -3129.9659 
  134000    352.02921   -3173.2662    41.954086   -3131.3121 
  134200    334.29184   -3173.4202    39.840185     -3133.58 
  134400    373.41453   -3171.4727    44.502742     -3126.97 
  134600    350.47471     -3172.29    41.768824   -3130.5211 
  134800    345.07363   -3173.9878    41.125134   -3132.8627 
  135000    370.39708   -3173.4266    44.143129   -3129.2835 
  135200    343.47209   -3173.3863    40.934266   -3132.4521 
  135400     327.6175   -3171.3659     39.04475   -3132.3212 
  135600     349.2089   -3171.4887    41.617968   -3129.8707 
  135800    347.28719   -3172.4337    41.388942   -3131.0448 
  136000    342.99483   -3172.9657    40.877387   -3132.0883 
  136200    349.86843   -3171.7879    41.696569   -3130.0913 
  136400    342.05062   -3171.5887    40.764859   -3130.8238 
  136600    348.69106    -3173.418    41.556252   -3131.8618 
  136800    352.18698   -3173.6284    41.972889   -3131.6555 
  137000     345.2738   -3171.2118     41.14899   -3130.0628 
  137200    350.48011   -3171.7836    41.769468   -3130.0142 
  137400    330.81087   -3172.7609     39.42533   -3133.3356 
  137600    354.75904   -3172.6287    42.279422   -3130.3493 
  137800    351.41359   -3170.4418    41.880717   -3128.5611 
  138000    348.28959   -3173.1994    41.508405    -3131.691 
  138200    326.82009   -3171.7557    38.949717    -3132.806 
  138400       356.14   -3172.6675    42.444001   -3130.2235 
  138600    357.40327   -3171.9957    42.594554   -3129.4011 
  138800    346.71934    -3172.259    41.321267   -3130.9378 
  139000    343.66556   -3173.8574    40.957324   -3132.9001 
  139200    344.69791   -3172.7607    41.080357   -3131.6803 
  139400    365.99836   -3170.5204      43.6189   -3126.9015 
  139600    342.12271   -3171.0337    40.773451   -3130.2603 
  139800    346.92321   -3174.5022    41.345564   -3133.1566 
  140000    343.99867   -3171.1591    40.997023    -3130.162 
  140200    342.05764    -3170.285    40.765695   -3129.5193 
  140400    342.34293   -3171.8438    40.799696   -3131.0441 
  140600    348.73849   -3172.7252    41.561905   -3131.1633 
  140800    344.61088   -3172.4819    41.069985   -3131.4119 
  141000    349.91323    -3171.302    41.701907   -3129.6001 
  141200    347.03219   -3171.9966    41.358552    -3130.638 
  141400    338.13687   -3173.4555    40.298426   -3133.1571 
  141600    348.31596   -3171.2412    41.511548   -3129.7297 
  141800    345.65952   -3169.8672     41.19496   -3128.6723 
  142000    333.84851   -3170.3544    39.787349    -3130.567 
  142200    337.69676   -3171.7744    40.245975   -3131.5285 
  142400    337.02384   -3170.5793    40.165778   -3130.4135 
  142600    365.95062   -3173.3429     43.61321   -3129.7297 
  142800    352.85783   -3171.6744    42.052839   -3129.6215 
  143000    344.95128   -3171.7913    41.110553   -3130.6808 
  143200     350.6471   -3172.6386    41.789369   -3130.8492 
  143400     351.9897   -3171.3296    41.949377   -3129.3802 
  143600    355.40457   -3171.2054    42.356354   -3128.8491 
  143800    346.57411   -3172.6881    41.303958   -3131.3841 
  144000    357.94574    -3174.192    42.659205   -3131.5328 
  144200     347.5663   -3170.1019    41.422206   -3128.6797 
  144400    355.06957   -3171.6111     42.31643   -3129.2947 
  144600    342.31066   -3173.0355    40.795849   -3132.2396 
  144800    353.72458   -3171.3768    42.156136   -3129.2207 
  145000    354.98109   -3171.6087    42.305884   -3129.3028 
  145200    344.86706   -3174.0846    41.100516   -3132.9841 
  145400    348.17226   -3171.9163    41.494422   -3130.4218 
  145600    357.15653    -3170.251    42.565149   -3127.6859 
  145800    348.90441   -3172.1289    41.581678   -3130.5472 
  146000    344.99775   -3173.5458    41.116092   -3132.4297 
  146200    359.23391   -3171.9201    42.812726   -3129.1074 
  146400    343.44507   -3170.8332    40.931046   -3129.9021 
  146600    345.93002   -3172.9544    41.227197   -3131.7272 
  146800    346.09525   -3172.3067    41.246888   -3131.0598 
  147000    361.94025   -3172.0727    43.135262   -3128.9375 
  147200    350.96388   -3171.8828    41.827122   -3130.0557 
  147400    338.02808   -3170.2467    40.285462   -3129.9612 
  147600    370.12574   -3172.3492    44.110792   -3128.2384 
  147800    330.31704   -3171.5785    39.366476    -3132.212 
  148000    334.83567   -3172.3829    39.904997   -3132.4779 
  148200    348.20773   -3169.4787     41.49865   -3127.9801 
  148400    355.72728   -3170.5565    42.394814   -3128.1617 
  148600    334.19163   -3172.0126    39.828241   -3132.1843 
  148800    342.17697   -3171.6838    40.779917   -3130.9039 
  149000    347.25987   -3169.4598    41.385686   -3128.0741 
  149200    346.95632   -3169.4855    41.349509    -3128.136 
  149400    344.99712   -3171.7108    41.116016   -3130.5948 
  149600    341.64405   -3171.5191    40.716405   -3130.8027 
  149800    357.62713   -3170.5476    42.621233   -3127.9264 
  150000    367.83503   -3172.1831    43.837789   -3128.3453 
  150200    332.58987   -3172.5904    39.637347    -3132.953 
  150400    346.60879   -3170.2786    41.308091   -3128.9705 
  150600    375.42525   -3169.5076    44.742376   -3124.7652 
  150800    342.12487   -3172.0771    40.773708   -3131.3034 
  151000    345.64233   -3173.0766    41.192911   -3131.8837 
  151200    349.81678   -3169.1584    41.690413    -3127.468 
  151400    353.54428   -3169.8333    42.134648   -3127.6987 
  151600    354.42196   -3172.2939    42.239248   -3130.0547 
  151800    353.66139   -3171.8417    42.148605   -3129.6931 
  152000    345.60522   -3170.7079    41.188488   -3129.5194 
  152200    345.68546   -3170.1755    41.198051   -3128.9775 
  152400    356.78825   -3172.4581    42.521258   -3129.9368 
  152600    342.33569   -3173.1252    40.798833   -3132.3264 
  152800    347.16686   -3169.4656    41.374601    -3128.091 
  153000    356.51795   -3169.6839    42.489044   -3127.1948 
  153200    344.41528   -3172.3411    41.046673   -3131.2945 
  153400     348.0801   -3172.0165     41.48344    -3130.533 
  153600    363.59525    -3171.176    43.332502   -3127.8435 
  153800    343.96088   -3170.9337     40.99252   -3129.9411 
  154000    361.73096   -3172.5743    43.110319   -3129.4639 
  154200    357.42351   -3171.6776    42.596966   -3129.0806 
  154400    338.39613   -3171.3154    40.329325    -3130.986 
  154600    362.90476   -3170.5866    43.250211   -3127.3364 
  154800    357.23041   -3171.4276    42.573954   -3128.8537 
  155000    359.22721   -3173.3453    42.811928   -3130.5334 
  155200    347.75772   -3170.2838    41.445019   -3128.8388 
  155400    355.65566   -3172.5002    42.386278   -3130.1139 
  155600    351.32428   -3171.9314    41.870074   -3130.0613 
  155800    364.52164   -3171.0605    43.442907   -3127.6176 
  156000    360.83899   -3172.2982    43.004016   -3129.2942 
  156200    353.14458   -3172.7919    42.087013   -3130.7049 
  156400    363.01068   -3170.3619    43.262834   -3127.0991 
  156600    363.84119   -3171.3364    43.361812   -3127.9746 
  156800    340.85283   -3173.6672    40.622109   -3133.0451 
  157000    361.65012   -3172.0304    43.100685   -3128.9297 
  157200    359.09076   -3170.0192    42.795667   -3127.2235 
  157400    339.99389   -3172.3003    40.519742   -3131.7806 
  157600    365.61133   -3172.3571    43.572773   -3128.7844 
  157800     356.0016   -3171.1168    42.427507   -3128.6893 
  158000    334.82081   -3171.2178    39.903225   -3131.3146 
  158200    370.08783   -3171.8657    44.106274   -3127.7594 
  158400    348.32304   -3170.9376    41.512393   -3129.4252 
  158600    347.46863   -3172.0139    41.410566   -3130.6033 
  158800    362.72044   -3170.6789    43.228243   -3127.4507 
  159000    367.49933   -3171.8799    43.797781   -3128.0822 
  159200    352.27747   -3173.2292    41.983672   -3131.2456 
  159400    352.68213   -3170.5899      42.0319    -3128.558 
  159600    355.76057   -3169.4407    42.398781   -3127.0419 
  159800    337.47021   -3169.9204    40.218975   -3129.7014 
  160000    351.81917   -3170.7624    41.929054   -3128.8334 
  160200    362.90651   -3170.6855    43.250419    -3127.435 
  160400     366.8439   -3172.0744    43.719669   -3128.3547 
  160600    369.00603   -3171.5326    43.977347   -3127.5553 
  160800    345.56579   -3170.9242     41.18379   -3129.7404 
  161000    360.63761   -3171.8927    42.980017   -3128.9126 
  161200    373.38632   -3171.4116    44.499381   -3126.9122 
  161400     342.6101     -3170.86    40.831536   -3130.0284 
  161600    356.57875   -3171.7226     42.49629   -3129.2263 
  161800    360.76258   -3168.9933     42.99491   -3125.9984 
  162000    359.30238   -3170.6291    42.820886   -3127.8082 
  162200    345.48074    -3170.948    41.173653   -3129.7743 
  162400    363.60406   -3171.1598    43.333551   -3127.8262 
  162600    365.78054   -3172.4498     43.59294   -3128.8569 
  162800     349.1072   -3170.5875    41.605846   -3128.9817 
  163000    346.85342   -3169.6152    41.337246   -3128.2779 
  163200    357.24548    -3171.555     42.57575   -3128.9793 
  163400    370.26833   -3170.7719    44.127785   -3126.6441 
  163600    351.89826    -3171.295     41.93848   -3129.3565 
  163800    346.44474   -3173.4483    41.288541   -3132.1598 
  164000    372.45667   -3170.1449    44.388586   -3125.7563 
  164200    358.60549    -3171.425    42.737833   -3128.6872 
  164400    353.18906   -3172.2971    42.092315   -3130.2048 
  164600    375.64437   -3171.4862     44.76849   -3126.7177 
  164800    348.54728   -3171.4793    41.539117   -3129.9402 
  165000    365.64584   -3172.5106    43.576887   -3128.9337 
  165200    379.95752    -3171.644    45.282521   -3126.3615 
  165400    352.25944   -3172.6297    41.981524   -3130.6481 
  165600    358.36248   -3170.7549    42.708871   -3128.0461 
  165800    360.86492   -3169.0679    43.007107   -3126.0608 
  166000    356.11668   -3171.8725    42.441222   -3129.4313 
  166200    364.22053   -3170.4865    43.407021   -3127.0794 
  166400    361.38068   -3170.8438    43.068574   -3127.7752 
  166600    339.86452   -3170.9425    40.504325   -3130.4382 
  166800    365.12497   -3169.3304     43.51481   -3125.8156 
  167000    370.32931   -3170.8321    44.135053    -3126.697 
  167200    347.82194   -3171.9001    41.452672   -3130.4475 
  167400    366.89919   -3170.0479    43.726258   -3126.3217 
  167600    370.10144   -3171.0781    44.107895   -3126.9702 
  167800    326.98462   -3169.6216    38.969326   -3130.6523 
  168000    377.39068   -3170.4497    44.976612   -3125.4731 
  168200    353.96799   -3168.6978    42.185145   -3126.5127 
  168400    345.53986   -3171.1463    41.180698   -3129.9656 
  168600    359.77182   -3168.3923    42.876833   -3125.5154 
  168800     356.4001   -3169.4568    42.474999   -3126.9818 
  169000    362.52566   -3172.2261     43.20503   -3129.0211 
  169200    352.26671   -3169.0632    41.982391   -3127.0808 
  169400    354.86206   -3169.0447    42.291698    -3126.753 
  169600    358.85202   -3168.4807    42.767214   -3125.7135 
  169800    352.15746   -3171.0023     41.96937   -3129.0329 
  170000    351.25837   -3169.7423    41.862219   -3127.8801 
  170200    374.12804   -3170.8818    44.587777    -3126.294 
  170400    349.59825   -3172.6991     41.66437   -3131.0348 
  170600    372.76721   -3170.8413    44.425596   -3126.4157 
  170800    367.48904   -3170.6205    43.796555   -3126.8239 
  171000    339.57251   -3171.7375    40.469523    -3131.268 
  171200    379.28905   -3169.5984    45.202855   -3124.3956 
  171400     359.7239   -3169.3592    42.871123   -3126.4881 
  171600    336.87708   -3169.6162    40.148287   -3129.4679 
  171800    371.22456    -3171.323    44.241746   -3127.0812 
  172000     349.1955   -3171.3418     41.61637   -3129.7255 
  172200    363.12249   -3169.1467    43.276159   -3125.8705 
  172400    366.75653    -3168.541    43.709257   -3124.8317 
  172600    348.65729   -3173.5005    41.552228   -3131.9483 
  172800    369.54945   -3171.5568    44.042111   -3127.5147 
  173000    387.56781   -3169.0478      46.1895   -3122.8583 
  173200    349.09967   -3172.4587     41.60495   -3130.8537 
  173400     363.3888   -3172.8582    43.307897   -3129.5503 
  173600    381.91884   -3170.7466    45.516268   -3125.2304 
  173800    357.04072   -3170.5936    42.551347   -3128.0423 
  174000    356.36769   -3170.1559    42.471136   -3127.6848 
  174200    366.49081   -3170.3554    43.677588   -3126.6779 
  174400    347.71292   -3169.5297    41.439679     -3128.09 
  174600    364.46915   -3170.1166    43.436651   -3126.6799 
  174800    356.24414   -3171.2932    42.456412   -3128.8368 
  175000    357.68723   -3170.4276    42.628396   -3127.7992 
  175200    374.28774   -3170.0869    44.606809   -3125.4801 
  175400    350.16281   -3172.0718    41.731652   -3130.3401 
  175600    365.34732   -3171.5713    43.541309     -3128.03 
  175800    352.81782   -3168.8357    42.048071   -3126.7876 
  176000    358.77216   -3171.1694    42.757696   -3128.4117 
  176200    364.76294   -3171.1464    43.471664   -3127.6747 
  176400    354.02979   -3172.2607     42.19251   -3130.0682 
  176600    342.65963    -3169.244    40.837439   -3128.4066 
  176800    379.55641   -3170.2049    45.234718   -3124.9701 
  177000    367.50137   -3172.5672    43.798025   -3128.7692 
  177200    352.00433    -3170.717     41.95112   -3128.7658 
  177400    368.50464   -3170.8114    43.917593   -3126.8938 
  177600     351.4451   -3169.4009    41.884472   -3127.5164 
  177800    363.85119   -3171.0783    43.363004   -3127.7153 
  178000    357.17928    -3171.446     42.56786   -3128.8781 
  178200    358.27407   -3171.8463    42.698334    -3129.148 
  178400    361.60629   -3169.3078    43.095462   -3126.2123 
  178600    368.49259   -3173.1093    43.916156   -3129.1931 
  178800    356.57636   -3172.6558    42.496005   -3130.1598 
  179000    363.21417   -3170.2117    43.287085   -3126.9247 
  179200     360.7561   -3169.7934    42.994137   -3126.7993 
  179400    358.43817   -3172.1184    42.717892   -3129.4005 
  179600    372.21984   -3172.1109    44.360362   -3127.7505 
  179800    364.19621   -3170.0925    43.404123   -3126.6883 
  180000    351.82268   -3169.7944    41.929472   -3127.8649 
  180200    375.69742   -3170.8283    44.774813   -3126.0535 
  180400    360.43945   -3171.5839      42.9564   -3128.6275 
  180600    366.49297   -3170.7664    43.677845   -3127.0886 
  180800    358.95197   -3168.3874    42.779126   -3125.6083 
  181000    339.78677    -3170.427    40.495058   -3129.9319 
  181200    365.45546   -3169.5038    43.554198   -3125.9496 
  181400    381.39444   -3170.8951    45.453771   -3125.4413 
  181600    360.75967   -3174.1852    42.994563   -3131.1907 
  181800    372.02316   -3171.3627    44.336921   -3127.0257 
  182000     361.1637   -3169.4307    43.042714    -3126.388 
  182200     351.5056   -3171.5861    41.891684   -3129.6945 
  182400    378.38497   -3170.8774    45.095109   -3125.7823 
  182600    363.22888   -3170.4618    43.288838    -3127.173 
  182800    365.01647   -3172.2327    43.501879   -3128.7309 
  183000    377.65044   -3169.9107    45.007569   -3124.9031 
  183200    363.88015   -3171.3482    43.366455   -3127.9817 
  183400    354.89923   -3170.5596    42.296129   -3128.2634 
  183600    369.41048   -3169.3736    44.025549   -3125.3481 
  183800    363.44945   -3171.0375    43.315126   -3127.7224 
  184000    370.38512   -3172.1531    44.141704   -3128.0114 
  184200    354.38716   -3169.3601    42.235101    -3127.125 
  184400    374.19213   -3170.8141    44.595415   -3126.2187 
  184600    356.65161   -3170.1665    42.504973   -3127.6615 
  184800    374.84863   -3171.2608    44.673655   -3126.5872 
  185000    369.52846   -3169.2279    44.039609   -3125.1882 
  185200     361.4711   -3170.2599     43.07935   -3127.1805 
  185400    350.01027   -3169.2261    41.713473   -3127.5126 
  185600    383.14488   -3169.1807    45.662384   -3123.5184 
  185800    362.05869    -3171.565    43.149378   -3128.4156 
  186000    340.14094   -3170.4459    40.537267   -3129.9086 
  186200    391.54775   -3168.5547    46.663821   -3121.8909 
  186400    359.45311   -3169.5822    42.838851   -3126.7433 
  186600    356.25184   -3171.0521    42.457329   -3128.5948 
  186800    379.60413   -3168.6561    45.240405   -3123.4157 
  187000    366.28408   -3169.4979     43.65295   -3125.8449 
  187200     375.7212   -3171.2762    44.777647   -3126.4985 
  187400    380.41789   -3171.5971    45.337388   -3126.2597 
  187600    355.73229   -3169.5088    42.395411   -3127.1134 
  187800    375.35417   -3171.1014    44.733904   -3126.3675 
  188000    369.31762    -3169.234    44.014481   -3125.2195 
  188200    348.27781   -3169.7474    41.507002   -3128.2404 
  188400    361.40385   -3170.3219    43.071335   -3127.2506 
  188600    380.00237   -3165.9567    45.287867   -3120.6689 
  188800    353.76188   -3170.9135    42.160581   -3128.7529 
  189000    355.72856   -3173.0327    42.394966   -3130.6378 
  189200    385.26789   -3166.9177      45.9154   -3121.0023 
  189400    362.27013   -3169.7351    43.174577   -3126.5605 
  189600    342.96085   -3170.2316    40.873338   -3129.3583 
  189800    371.44804   -3168.2853     44.26838   -3124.0169 
  190000    356.82262   -3168.9062    42.525354   -3126.3808 
  190200    370.23217   -3169.2678    44.123475   -3125.1443 
  190400    381.51799   -3171.4438    45.468495   -3125.9753 
  190600    344.78836   -3171.7083    41.091137   -3130.6171 
  190800    374.68057   -3168.1496    44.653626    -3123.496 
  191000    373.47226   -3169.6477    44.509622   -3125.1381 
  191200    360.68736   -3172.4714    42.985945   -3129.4854 
  191400    371.36582   -3170.5954    44.258582   -3126.3368 
  191600    367.41409   -3170.0665    43.787623   -3126.2789 
  191800    371.39288   -3171.3437    44.261806   -3127.0819 
  192000    368.40629   -3169.2631    43.905871   -3125.3572 
  192200    373.98038   -3171.1152    44.570179    -3126.545 
  192400    360.39241   -3170.6691    42.950794   -3127.7183 
  192600    364.61824   -3168.8882     43.45442   -3125.4337 
  192800    361.81666   -3169.0659    43.120533   -3125.9454 
  193000    347.61909   -3170.2712    41.428497   -3128.8427 
  193200    366.59587   -3169.3837    43.690109   -3125.6936 
  193400    359.59818   -3166.8432    42.856139   -3123.9871 
  193600    353.16169   -3170.2015    42.089052   -3128.1124 
  193800    357.39358   -3169.9674      42.5934    -3127.374 
  194000    367.62834    -3167.982    43.813157   -3124.1689 
  194200    372.03791   -3169.3832    44.338679   -3125.0445 
  194400    365.39604   -3171.2155    43.547115   -3127.6684 
  194600    373.04152   -3170.7076    44.458288   -3126.2493 
  194800    369.51944    -3168.438    44.038534   -3124.3995 
  195000    361.75053   -3170.7971    43.112652   -3127.6845 
  195200    357.59578   -3169.9465    42.617498    -3127.329 
  195400    365.85322   -3168.8014    43.601602   -3125.1998 
  195600    379.19833   -3171.1867    45.192043   -3125.9946 
  195800    361.40005   -3168.6213    43.070882   -3125.5504 
  196000    340.40379     -3167.38    40.568593   -3126.8114 
  196200    371.91195   -3169.9798    44.323668   -3125.6561 
  196400    362.13915   -3166.9041    43.158967   -3123.7452 
  196600    367.23855   -3170.7124    43.766702   -3126.9457 
  196800    364.74933    -3170.712    43.470042   -3127.2419 
  197000    361.94409   -3167.5023     43.13572   -3124.3665 
  197200    358.77844   -3169.3707    42.758444   -3126.6123 
  197400    369.72221   -3170.0924      44.0627   -3126.0297 
  197600    378.15172   -3170.3301     45.06731   -3125.2628 
  197800    375.41439   -3171.1116    44.741081   -3126.3705 
  198000    368.36816   -3171.2285    43.901327   -3127.3271 
  198200    371.17013   -3169.6509    44.235259   -3125.4156 
  198400    370.69331   -3170.7785    44.178433   -3126.6001 
  198600     361.2272   -3171.3132    43.050283   -3128.2629 
  198800    374.97065   -3168.9156    44.688198   -3124.2274 
  199000    375.72806   -3169.4691    44.778464   -3124.6907 
  199200    361.55118   -3170.3067    43.088894   -3127.2179 
  199400    366.35464   -3169.5942     43.66136   -3125.9328 
  199600    377.66353   -3169.4538    45.009128   -3124.4447 
  199800    360.33311   -3168.1346    42.943726   -3125.1909 
  200000    373.92078   -3169.0562    44.563076   -3124.4932 
  200200    364.10768    -3171.603    43.393571   -3128.2094 
  200400    350.53877   -3168.1948    41.776458   -3126.4184 
  200600    392.28008   -3167.7635    46.751098   -3121.0124 
  200800    350.19431    -3170.572    41.735407   -3128.8366 
  201000    355.43088   -3171.1545    42.359489   -3128.7951 
  201200    386.57628   -3168.4361    46.071331   -3122.3648 
  201400    380.18725   -3170.4387    45.309901   -3125.1288 
  201600    362.59087   -3169.7626    43.212802   -3126.5498 
  201800    368.02152   -3168.6453    43.860015   -3124.7853 
  202000    366.91991   -3168.9497    43.728727   -3125.2209 
  202200    376.53293   -3169.3811    44.874386   -3124.5067 
  202400    370.93807   -3171.1539    44.207603   -3126.9463 
  202600     370.3031   -3170.5637    44.131929   -3126.4318 
  202800     376.6688   -3168.9112    44.890579   -3124.0206 
  203000    388.99902   -3171.8557    46.360068   -3125.4957 
  203200    369.18054   -3170.5232    43.998144   -3126.5251 
  203400    366.78088   -3170.5285    43.712157   -3126.8163 
  203600    368.64761   -3169.0406    43.934631    -3125.106 
  203800    384.82597   -3169.6463    45.862733   -3123.7836 
  204000     354.0534   -3169.1942    42.195325   -3126.9989 
  204200    370.16481   -3169.0657    44.115447   -3124.9502 
  204400    365.46057   -3168.0296    43.554806   -3124.4748 
  204600    364.34026   -3170.9527    43.421291   -3127.5314 
  204800    357.83585   -3169.1764    42.646108   -3126.5303 
  205000    388.96301   -3168.8458    46.355776     -3122.49 
  205200    375.30458   -3171.2509    44.727995   -3126.5229 
  205400    386.16618   -3172.6613    46.022456   -3126.6388 
  205600     364.8408   -3169.1461    43.480944   -3125.6651 
  205800     364.2206   -3169.0285     43.40703   -3125.6215 
  206000    382.72082    -3169.852    45.611846   -3124.2401 
  206200    379.12474   -3170.4203    45.183273    -3125.237 
  206400    385.38868    -3171.287    45.929795   -3125.3572 
  206600    376.93993   -3169.5638    44.922892    -3124.641 
  206800    376.32367    -3170.936    44.849448   -3126.0866 
  207000    377.06173   -3171.6455    44.937408   -3126.7081 
  207200    395.84737   -3170.8976     47.17624   -3123.7213 
  207400    372.23003   -3169.9076    44.361576   -3125.5461 
  207600    370.67682   -3170.4014    44.176468   -3126.2249 
  207800    377.63719   -3168.5831    45.005989   -3123.5771 
  208000    354.40875   -3168.1961    42.237674   -3125.9584 
  208200    373.09298   -3169.3112    44.464421   -3124.8468 
  208400    387.17226   -3168.7066    46.142359   -3122.5643 
  208600     364.2144   -3170.1484    43.406291   -3126.7421 
  208800    366.32995   -3169.5458    43.658417   -3125.8874 
  209000    375.75558    -3169.202    44.781744   -3124.4202 
  209200     371.8688   -3170.5304    44.318525   -3126.2119 
  209400     371.3877   -3169.4181    44.261189   -3125.1569 
  209600    370.66664   -3170.2888    44.175254   -3126.1136 
  209800    376.59365   -3170.9206    44.881623    -3126.039 
  210000    365.39837   -3167.4022    43.547393   -3123.8548 
  210200    373.28306   -3169.4979    44.487074   -3125.0108 
  210400    373.18419   -3169.8261    44.475291   -3125.3509 
  210600    389.69239    -3170.589    46.442703   -3124.1463 
  210800    356.08265   -3168.8711    42.437166   -3126.4339 
  211000    371.44153    -3167.577    44.267604   -3123.3094 
  211200    373.39152   -3168.4892         44.5   -3123.9892 
  211400    359.04298   -3169.0718    42.789971   -3126.2819 
  211600    382.43343   -3169.2759    45.577595   -3123.6983 
  211800    372.44487   -3170.0614     44.38718   -3125.6742 
  212000    365.19809   -3169.6884    43.523524   -3126.1649 
  212200    366.88065   -3166.3519    43.724048   -3122.6278 
  212400    372.97286   -3169.2274    44.450105   -3124.7773 
  212600    372.39878   -3170.1217    44.381687     -3125.74 
  212800    387.41743   -3168.8833    46.171578   -3122.7117 
  213000    385.52813   -3170.8222    45.946415   -3124.8758 
  213200    376.23542   -3171.1776    44.838929   -3126.3386 
  213400    378.65811   -3169.9046    45.127661    -3124.777 
  213600    381.76096   -3168.0032    45.497452   -3122.5057 
  213800    375.84277   -3168.2587    44.792135   -3123.4666 
  214000    371.56262   -3170.7501    44.282036    -3126.468 
  214200    376.27074   -3168.6879    44.843139   -3123.8448 
  214400    384.08979   -3168.1162    45.774997   -3122.3412 
  214600    361.95406   -3170.2541    43.136908   -3127.1172 
  214800    383.64496   -3169.7969    45.721983   -3124.0749 
  215000    379.08381   -3167.9713    45.178395   -3122.7929 
  215200     362.1171   -3168.6402    43.156339   -3125.4838 
  215400    378.10703   -3167.8084    45.061985   -3122.7464 
  215600    369.65565     -3168.69    44.054767   -3124.6352 
  215800    378.15935    -3170.072     45.06822   -3125.0038 
  216000    378.91073   -3167.4045    45.157768   -3122.2468 
  216200     369.8143   -3169.5426    44.073674   -3125.4689 
  216400    361.28872   -3169.2098    43.057614   -3126.1522 
  216600    379.69279   -3168.4022    45.250972   -3123.1512 
  216800     370.9758   -3168.8786    44.212099   -3124.6665 
  217000    378.80314   -3170.8255    45.144945   -3125.6805 
  217200    389.84084   -3169.5902    46.460395   -3123.1298 
  217400    368.31061   -3167.5112    43.894469   -3123.6168 
  217600    374.97766   -3167.9884    44.689033   -3123.2994 
  217800     376.4926   -3170.0747     44.86958   -3125.2051 
  218000     395.7164   -3170.7282    47.160631   -3123.5676 
  218200     381.8728   -3168.0552    45.510781   -3122.5444 
  218400    351.19713   -3168.3598    41.854921   -3126.5048 
  218600    394.88479   -3169.3233    47.061521   -3122.2618 
  218800    368.71073   -3168.2493    43.942153   -3124.3072 
  219000    371.17606   -3170.2776    44.235966   -3126.0416 
  219200    384.15661   -3170.3106    45.782961   -3124.5276 
  219400    370.21233   -3167.7456    44.121111   -3123.6245 
  219600    381.47554   -3169.3098    45.463436   -3123.8464 
  219800    378.52736   -3170.6284    45.112079   -3125.5163 
  220000     385.6604   -3168.3477    45.962178   -3122.3856 
  220200    373.98592   -3168.5415    44.570839   -3123.9706 
  220400    364.00658   -3171.4982    43.381523   -3128.1167 
  220600    387.77392   -3168.5094    46.214063   -3122.2954 
  220800     392.5219   -3166.9825    46.779918   -3120.2026 
  221000    364.84655   -3169.9269    43.481629   -3126.4453 
  221200    379.88423   -3167.9144    45.273787   -3122.6406 
  221400    374.75002    -3166.163    44.661903   -3121.5011 
  221600    357.00609   -3168.0293    42.547219   -3125.4821 
  221800    388.97257   -3168.8177    46.356916   -3122.4608 
  222000    364.25717    -3167.884    43.411388   -3124.4726 
  222200    370.59422   -3167.2719    44.166624   -3123.1053 
  222400    386.70697   -3167.1467    46.086907   -3121.0598 
  222600     368.2813   -3171.0492    43.890974   -3127.1582 
  222800    367.86967   -3169.3602    43.841918   -3125.5183 
  223000    386.82646   -3166.3563    46.101147   -3120.2552 
  223200    364.54334   -3167.9358    43.445492   -3124.4903 
  223400     388.2548   -3170.6309    46.271374   -3124.3595 
  223600    383.60564   -3168.8808    45.717297   -3123.1635 
  223800    374.18565   -3167.2884    44.594642   -3122.6938 
  224000     392.1959    -3168.259    46.741066    -3121.518 
  224200    363.66705    -3167.979    43.341059    -3124.638 
  224400    365.26787   -3168.9197    43.531841   -3125.3879 
  224600    384.20187    -3167.136    45.788354   -3121.3476 
  224800    367.83382   -3167.8034    43.837645   -3123.9658 
  225000    367.79682   -3169.4447    43.833236   -3125.6115 
  225200    392.22261   -3167.6517    46.744248   -3120.9075 
  225400    370.85989   -3166.9937    44.198286   -3122.7954 
  225600     361.3642   -3167.7954     43.06661   -3124.7288 
  225800     392.3337   -3167.4569    46.757488   -3120.6994 
  226000    370.22675   -3168.1177     44.12283   -3123.9949 
  226200    374.14486    -3167.945    44.589782   -3123.3552 
  226400    394.04165   -3167.9205    46.961038   -3120.9595 
  226600    347.73855   -3168.3507    41.442734    -3126.908 
  226800    378.65942   -3166.0779    45.127816   -3120.9501 
  227000    369.61859   -3166.1845     44.05035   -3122.1341 
  227200     360.0899   -3168.8092    42.914741   -3125.8945 
  227400    382.07237    -3167.147    45.534565   -3121.6124 
  227600    367.73898   -3167.1329    43.826342   -3123.3066 
  227800    369.28611   -3168.8004    44.010726   -3124.7896 
  228000    408.09594   -3170.8379    48.635998   -3122.2019 
  228200    388.79567   -3170.7412    46.335834   -3124.4054 
  228400    367.01594   -3167.4659    43.740172   -3123.7257 
  228600    384.66708   -3167.4009    45.843796   -3121.5571 
  228800    369.36631   -3168.0516    44.020284   -3124.0313 
  229000    382.62458   -3167.8109    45.600377   -3122.2106 
  229200      380.155   -3167.5416    45.306057   -3122.2355 
  229400    378.51492   -3168.4443    45.110595   -3123.3337 
  229600    372.79729   -3168.8269    44.429181   -3124.3977 
  229800    368.10452   -3168.7989    43.869907    -3124.929 
  230000    387.55333   -3165.3756    46.187774   -3119.1878 
  230200    379.45923   -3167.5512    45.223137    -3122.328 
  230400    359.02059   -3171.3429    42.787304   -3128.5556 
  230600    386.81378   -3167.4266    46.099636   -3121.3269 
  230800    386.09862   -3167.2931    46.014404   -3121.2787 
  231000    356.68057   -3168.7069    42.508425   -3126.1985 
  231200    382.54763   -3167.2629    45.591205   -3121.6717 
  231400    385.40409   -3167.6805    45.931632   -3121.7489 
  231600    380.63582   -3168.8887    45.363361   -3123.5253 
  231800    395.94463   -3169.4391    47.187831   -3122.2513 
  232000    373.58871   -3170.9886    44.523501   -3126.4651 
  232200    375.95766   -3168.5811    44.805827   -3123.7753 
  232400    392.54736   -3165.7713    46.782952   -3118.9884 
  232600     385.7518   -3170.9407    45.973072   -3124.9676 
  232800    387.92909   -3171.9952    46.232556   -3125.7627 
  233000    389.64202     -3165.77    46.436699   -3119.3333 
  233200    380.76984   -3167.9871    45.379332   -3122.6077 
  233400    379.01222   -3168.4877    45.169863   -3123.3178 
  233600    385.28332   -3170.2553     45.91724   -3124.3381 
  233800    374.42398   -3167.5704    44.623046   -3122.9473 
  234000    400.54144   -3167.4215    47.735669   -3119.6858 
  234200    372.58535   -3168.9007    44.403923   -3124.4967 
  234400    377.14043   -3168.0004    44.946787   -3123.0536 
  234600    399.74585   -3167.1824    47.640853   -3119.5416 
  234800     376.1699   -3169.1698    44.831122   -3124.3387 
  235000    376.99913   -3168.9676    44.929948   -3124.0376 
  235200    374.85812   -3166.3796    44.674786   -3121.7048 
  235400    380.56505   -3167.9353    45.354925   -3122.5804 
  235600    395.05973   -3167.7656    47.082371   -3120.6833 
  235800    384.57695   -3168.7606    45.833056   -3122.9275 
  236000    365.67749   -3168.4887    43.580659    -3124.908 
  236200     390.0891   -3166.9976    46.489982   -3120.5076 
  236400    378.63368   -3167.1409     45.12475   -3122.0162 
  236600    372.74591   -3168.8142    44.423057   -3124.3912 
  236800    386.72024    -3167.635    46.088488   -3121.5466 
  237000    370.74958   -3168.2822    44.185139    -3124.097 
  237200    368.42404   -3167.9215    43.907986   -3124.0135 
  237400    397.86377   -3167.8496    47.416551    -3120.433 
  237600    372.74653   -3169.6247    44.423132   -3125.2016 
  237800    385.62102   -3169.5678    45.957485   -3123.6103 
  238000    409.26462   -3169.2319    48.775279   -3120.4566 
  238200    386.73346   -3169.0396    46.090064   -3122.9495 
  238400    383.52654   -3166.8039     45.70787    -3121.096 
  238600    385.22943   -3170.4329    45.910816    -3124.522 
  238800    376.50193   -3169.5894    44.870692   -3124.7187 
  239000    386.50967   -3166.2846    46.063392   -3120.2212 
  239200    363.26961   -3166.8475    43.293693   -3123.5538 
  239400     371.0785   -3167.9998     44.22434   -3123.7755 
  239600    387.09064   -3166.5276    46.132631    -3120.395 
  239800     392.9518   -3167.2203    46.831152   -3120.3891 
  240000     371.1239   -3169.1587     44.22975   -3124.9289 
  240200    397.06463   -3170.5009     47.32131   -3123.1796 
  240400    404.78767   -3166.8281    48.241725   -3118.5864 
  240600    380.89716   -3169.0858    45.394506   -3123.6913 
  240800    376.13551   -3168.6422    44.827023   -3123.8151 
  241000    400.00176   -3169.4832    47.671351   -3121.8119 
  241200    368.29345   -3167.4862    43.892423   -3123.5938 
  241400    387.02773   -3167.8174    46.125134   -3121.6923 
  241600    392.13414   -3168.9725    46.733705   -3122.2388 
  241800    377.95859   -3168.0342    45.044294     -3122.99 
  242000    398.59208   -3167.8656    47.503349   -3120.3622 
  242200    367.37189   -3166.9318    43.782593   -3123.1492 
  242400    380.04524   -3168.5891    45.292976   -3123.2961 
  242600    382.99657   -3167.2411    45.644709   -3121.5964 
  242800    364.86209   -3166.0302    43.483481   -3122.5467 
  243000    382.72298   -3168.5523    45.612103   -3122.9402 
  243200    378.64573   -3168.4783    45.126186   -3123.3521 
  243400    381.98634   -3166.9799    45.524312   -3121.4556 
  243600    382.50344   -3167.9507     45.58594   -3122.3648 
  243800    376.16576   -3170.0307    44.830628   -3125.2001 
  244000    392.05854    -3166.756    46.724695   -3120.0313 
  244200    386.96163   -3165.7346    46.117256   -3119.6174 
  244400    389.17422   -3168.6002    46.380948   -3122.2193 
  244600    386.82792   -3168.2135    46.101322   -3122.1122 
  244800    384.29065   -3168.5908    45.798935   -3122.7919 
  245000    394.74832    -3168.701    47.045258   -3121.6557 
  245200    394.76792   -3169.1628    47.047594   -3122.1152 
  245400    378.35397   -3168.2683    45.091414   -3123.1769 
  245600    402.22591   -3168.7759    47.936421   -3120.8395 
  245800    380.15014   -3169.0149    45.305478   -3123.7094 
  246000    386.99169    -3170.203    46.120839   -3124.0821 
  246200    394.72986   -3166.8283    47.043057   -3119.7853 
  246400    379.37221   -3168.0283    45.212765   -3122.8155 
  246600    384.94293   -3168.0513    45.876672   -3122.1746 
  246800    390.44102   -3167.4178    46.531922   -3120.8858 
  247000    387.93001   -3170.4372    46.232666   -3124.2046 
  247200    382.82416   -3167.2203    45.624162   -3121.5961 
  247400     378.5724   -3166.4706    45.117446   -3121.3531 
  247600    387.98262   -3169.5917    46.238936   -3123.3528 
  247800    397.69059   -3169.6357    47.395911   -3122.2397 
  248000    383.25204   -3167.5736    45.675156   -3121.8985 
  248200    386.64427   -3167.4373    46.079434   -3121.3579 
  248400    393.36135   -3168.4228    46.879961   -3121.5428 
  248600    372.03958   -3166.4795    44.338878   -3122.1406 
  248800    397.32859    -3169.779    47.352769   -3122.4263 
  249000    394.58777   -3169.0337    47.026124   -3122.0076 
  249200     379.6947   -3167.5719    45.251199   -3122.3207 
  249400    384.57473   -3168.2619    45.832791   -3122.4291 
  249600    381.41114   -3167.0713    45.455761   -3121.6155 
  249800    380.03536   -3170.0547    45.291798   -3124.7629 
  250000    385.20108   -3167.8316    45.907438   -3121.9242 
  250200    386.23661   -3166.4078     46.03085    -3120.377 
  250400    377.45146   -3169.7062    44.983855   -3124.7223 
  250600    378.97768   -3167.7441    45.165747   -3122.5784 
  250800    389.78844   -3166.1408    46.454149   -3119.6867 
  251000    385.51491   -3168.8162    45.944839   -3122.8713 
  251200    383.23805   -3170.3745    45.673488    -3124.701 
  251400    402.57741   -3169.1775    47.978311   -3121.1992 
  251600    393.14834   -3165.2835    46.854575   -3118.4289 
  251800    384.94907   -3169.1008    45.877404   -3123.2234 
  252000    373.80364   -3168.9561    44.549115   -3124.4069 
  252200     393.8284   -3166.8095    46.935623   -3119.8739 
  252400    391.62541   -3167.2606    46.673076   -3120.5875 
  252600    390.36948   -3168.6022    46.523397   -3122.0788 
  252800    386.47096   -3167.6181    46.058779   -3121.5593 
  253000    386.71058   -3168.5484    46.087337    -3122.461 
  253200    395.13972   -3168.1702    47.091904   -3121.0783 
  253400    392.16404   -3167.7975    46.737269   -3121.0602 
  253600     386.4923   -3170.0247    46.061323   -3123.9634 
  253800    392.08377    -3167.425    46.727702   -3120.6973 
  254000    393.94861   -3167.0195     46.94995   -3120.0696 
  254200    375.63435   -3168.2736    44.767295   -3123.5064 
  254400    390.71761   -3168.6005    46.564886   -3122.0356 
  254600    396.94522   -3167.6529     47.30708   -3120.3458 
  254800    369.74055   -3166.4176    44.064885   -3122.3527 
  255000    404.13576   -3169.3618    48.164033   -3121.1977 
  255200    382.86303   -3166.7216    45.628794   -3121.0928 
  255400    379.22217   -3166.6857    45.194884   -3121.4908 
  255600    389.15523   -3167.0013    46.378685   -3120.6226 
  255800    386.71949   -3168.3266    46.088399   -3122.2382 
  256000    379.48967   -3166.7479    45.226764   -3121.5211 
  256200     381.7644   -3166.8044    45.497862   -3121.3065 
  256400    389.16941   -3167.1298    46.380374   -3120.7494 
  256600    365.40347   -3166.2023    43.548001   -3122.6543 
  256800     385.8313   -3167.8681    45.982546   -3121.8856 
  257000    401.40456   -3168.5781    47.838533   -3120.7396 
  257200    379.61943   -3168.0842    45.242229    -3122.842 
  257400    394.36584    -3166.382    46.999674   -3119.3823 
  257600    396.90654   -3165.8335     47.30247    -3118.531 
  257800    381.86165   -3168.9816    45.509452   -3123.4722 
  258000    374.90938    -3167.625    44.680895   -3122.9441 
  258200    401.27228   -3165.7277    47.822769    -3117.905 
  258400    398.24318   -3169.2409    47.461767   -3121.7792 
  258600    378.36666   -3168.2143    45.092926   -3123.1214 
  258800    406.45422   -3169.5719    48.440341   -3121.1315 
  259000    380.30369   -3166.2704    45.323778   -3120.9466 
  259200     383.4219   -3167.0029    45.695399   -3121.3075 
  259400    393.55955   -3167.8143    46.903582   -3120.9108 
  259600    390.76006   -3168.5008    46.569946   -3121.9308 
  259800    384.00923   -3168.3011    45.765396   -3122.5357 
  260000     396.7439   -3166.5628    47.283086   -3119.2797 
  260200    378.74353   -3166.4169    45.137841   -3121.2791 
  260400    381.15105   -3166.1608    45.424764    -3120.736 
  260600    383.27683   -3165.4316     45.67811   -3119.7535 
  260800    386.29569   -3167.3993    46.037891   -3121.3614 
  261000    389.18066   -3167.8949    46.381716   -3121.5131 
  261200    391.03178   -3167.5307    46.602328   -3120.9284 
  261400    405.81255   -3169.1913    48.363869   -3120.8274 
  261600    396.31036    -3167.606    47.231419   -3120.3746 
  261800    386.40963   -3167.3016    46.051471   -3121.2502 
  262000    379.71713   -3167.9583    45.253872   -3122.7044 
  262200    391.02045   -3167.2624    46.600977   -3120.6614 
  262400    396.43464   -3167.5348    47.246229   -3120.2886 
  262600    390.34378   -3167.9405    46.520334   -3121.4202 
  262800    392.29261   -3168.9555    46.752592   -3122.2029 
  263000    381.00676   -3166.0348    45.407568   -3120.6272 
  263200    400.87045   -3167.3697     47.77488   -3119.5948 
  263400    384.18496   -3168.0926    45.786339   -3122.3062 
  263600     385.6019   -3166.2402    45.955207    -3120.285 
  263800     395.4073   -3165.2723    47.123793   -3118.1485 
  264000    389.10384   -3167.6899    46.372561   -3121.3173 
  264200    392.34996   -3169.3674    46.759426    -3122.608 
  264400    400.72859   -3167.6746    47.757973   -3119.9166 
  264600    395.94078    -3166.725    47.187373   -3119.5376 
  264800     393.0608   -3168.4097    46.844142   -3121.5655 
  265000    395.09885   -3167.7325    47.087033   -3120.6455 
  265200    391.22088   -3164.7682    46.624865   -3118.1434 
  265400    381.41107   -3165.0967    45.455753   -3119.6409 
  265600    385.31263   -3167.3996    45.920732   -3121.4789 
  265800    399.60232   -3167.3079    47.623747   -3119.6842 
  266000    385.51047   -3165.4153     45.94431    -3119.471 
  266200    387.30454   -3167.1149    46.158124   -3120.9568 
  266400    384.99514   -3167.8382    45.882895   -3121.9553 
  266600    399.83552   -3168.1861    47.651539   -3120.5346 
  266800    407.45897    -3166.511    48.560086   -3117.9509 
  267000    396.38546   -3168.5143    47.240368    -3121.274 
  267200    394.56688    -3169.638    47.023634   -3122.6144 
  267400    410.29588   -3166.4558    48.898182   -3117.5576 
  267600    403.54889   -3167.6781    48.094091    -3119.584 
  267800    387.66138   -3167.9004    46.200651   -3121.6998 
  268000    397.12596   -3167.2043     47.32862   -3119.8757 
  268200    399.15194   -3166.5981    47.570072    -3119.028 
  268400    398.16913   -3167.3006    47.452942   -3119.8476 
  268600    395.27838   -3168.0656    47.108429   -3120.9572 
  268800    381.76791   -3166.5639     45.49828   -3121.0657 
  269000    405.71538   -3167.0684    48.352288   -3118.7161 
  269200    392.09457   -3165.0519    46.728989   -3118.3229 
  269400    396.33097   -3169.3591    47.233875   -3122.1252 
  269600    385.90722     -3167.38    45.991594   -3121.3884 
  269800    398.83808   -3165.3996    47.532666    -3117.867 
  270000    398.72377   -3167.4625    47.519043   -3119.9435 
  270200    384.80454   -3167.3259    45.860179   -3121.4657 
  270400    390.35292   -3165.8321    46.521423   -3119.3107 
  270600     390.2558   -3166.2594    46.509848   -3119.7495 
  270800    406.38477   -3168.7059    48.432065   -3120.2738 
  271000    405.19131   -3166.6249    48.289831    -3118.335 
  271200    380.61239   -3167.5479    45.360568   -3122.1873 
  271400    375.55045    -3166.493    44.757296   -3121.7357 
  271600    403.06812   -3164.9857    48.036794   -3116.9489 
  271800     390.3112    -3165.582    46.516451   -3119.0655 
  272000    385.41867   -3168.4111     45.93337   -3122.4777 
  272200    399.93699   -3166.8695    47.663632   -3119.2058 
  272400    392.18595   -3166.4164    46.739879   -3119.6765 
  272600    396.80889   -3167.5004    47.290832   -3120.2096 
  272800    398.74778   -3166.6388    47.521904   -3119.1169 
  273000     394.8969   -3166.2041    47.062965   -3119.1412 
  273200    408.41026   -3166.8159    48.673459   -3118.1425 
  273400    393.94888   -3167.0792    46.949982   -3120.1292 
  273600    385.82068   -3165.5602     45.98128   -3119.5789 
  273800    404.76618   -3167.1183    48.239165   -3118.8791 
  274000    384.32854   -3166.4757    45.803451   -3120.6722 
  274200    392.21757   -3165.0853    46.743648   -3118.3417 
  274400     416.0417     -3167.08    49.582957    -3117.497 
  274600    393.37637   -3168.7795    46.881752   -3121.8978 
  274800    406.19056   -3167.7332     48.40892   -3119.3242 
  275000     420.4686   -3168.2094    50.110545   -3118.0989 
  275200    382.20884   -3167.1585    45.550829   -3121.6076 
  275400    397.67792   -3166.0858    47.394401   -3118.6914 
  275600    403.67847   -3165.9548    48.109534   -3117.8453 
  275800    384.39319   -3167.8707    45.811155   -3122.0595 
  276000    397.68113   -3165.5394    47.394784   -3118.1446 
  276200    392.00357   -3165.5927    46.718144   -3118.8746 
  276400    378.58557   -3168.5844    45.119016   -3123.4654 
  276600    404.38853   -3166.2242    48.194156   -3118.0301 
  276800    413.52032   -3167.5935    49.282464    -3118.311 
  277000    376.81879   -3168.3648    44.908455   -3123.4563 
  277200    430.22697    -3167.877    51.273527   -3116.6035 
  277400     392.2011   -3166.7258    46.741686   -3119.9841 
  277600     393.1777   -3169.3031    46.858075    -3122.445 
  277800     425.9139   -3166.7811    50.759505   -3116.0216 
  278000    386.68912   -3163.9878    46.084779    -3117.903 
  278200    397.13421   -3167.5261    47.329602   -3120.1965 
  278400    416.40927   -3167.3786    49.626763   -3117.7518 
  278600    405.09058   -3168.3349    48.277826   -3120.0571 
  278800    404.60853   -3167.2711    48.220376   -3119.0507 
  279000    395.75093   -3165.6071    47.164747   -3118.4424 
  279200    386.89293   -3165.9878     46.10907   -3119.8787 
  279400    391.46383   -3166.7541    46.653819   -3120.1003 
  279600    394.46688   -3167.8902    47.011716   -3120.8785 
  279800     413.6553   -3167.8019    49.298551   -3118.5034 
  280000    408.67999   -3167.5411    48.705604   -3118.8355 
  280200    386.25626   -3167.9279    46.033193   -3121.8947 
  280400    412.16107   -3167.1581    49.120472   -3118.0377 
  280600    395.41968   -3164.5708    47.125268   -3117.4455 
  280800    386.10797   -3166.6603    46.015519   -3120.6448 
  281000    405.55436   -3167.5138    48.333099   -3119.1807 
  281200    409.30924      -3166.9    48.780597   -3118.1195 
  281400    385.11815   -3166.0882    45.897554   -3120.1906 
  281600    410.85586   -3166.0855    48.964919   -3117.1205 
  281800    404.85631   -3167.7361    48.249906   -3119.4862 
  282000    377.81079   -3166.6312    45.026679   -3121.6045 
  282200    403.13778   -3164.1704    48.045096   -3116.1253 
  282400    421.50665   -3166.1374    50.234258   -3115.9032 
  282600    375.83558   -3167.6505    44.791278   -3122.8592 
  282800     402.5278    -3166.541    47.972399   -3118.5686 
  283000    391.65012   -3163.6678     46.67602   -3116.9918 
  283200    395.05063   -3167.4767    47.081286   -3120.3954 
  283400    400.05735   -3167.3006    47.677976   -3119.6227 
  283600    403.93747   -3166.3748      48.1404   -3118.2344 
  283800     391.2004   -3165.2927    46.622425   -3118.6703 
  284000     425.1321   -3167.3403    50.666331   -3116.6739 
  284200    392.63602   -3168.4839    46.793519   -3121.6904 
  284400    381.20728   -3164.8452    45.431465   -3119.4137 
  284600    440.41962   -3163.9563    52.488265    -3111.468 
  284800    373.64606   -3166.8371    44.530336   -3122.3068 
  285000    380.76046   -3166.1694    45.378214   -3120.7912 
  285200    431.32463   -3164.4972    51.404344   -3113.0929 
  285400    395.05371    -3167.957    47.081653   -3120.8754 
  285600    396.65245   -3166.6056    47.272187   -3119.3334 
  285800    425.83849   -3168.4935    50.750517   -3117.7429 
  286000    381.25767   -3166.6701     45.43747   -3121.2326 
  286200    401.88177   -3163.1449    47.895406   -3115.2495 
  286400    407.30018   -3164.8138    48.541162   -3116.2726 
  286600    375.11584   -3166.4659    44.705501   -3121.7604 
  286800    402.26599   -3164.8251    47.941197   -3116.8839 
  287000    394.81703   -3165.0956    47.053446   -3118.0422 
  287200    387.14998   -3166.6474    46.139703   -3120.5077 
  287400    403.41997   -3165.6195    48.078726   -3117.5408 
  287600     398.9042   -3166.8369    47.540546   -3119.2964 
  287800    410.28457    -3167.207    48.896835   -3118.3101 
  288000    405.31155   -3164.4406    48.304161   -3116.1365 
  288200    396.00894   -3168.3854    47.195495   -3121.1899 
  288400    402.68697   -3165.4985    47.991369   -3117.5071 
  288600     407.5342   -3163.3583    48.569052   -3114.7892 
  288800    393.10855   -3166.8678    46.849833    -3120.018 
  289000    383.63191   -3164.2693    45.720427   -3118.5488 
  289200    409.12587   -3164.2646    48.758743   -3115.5059 
  289400    389.93813   -3165.8249    46.471989   -3119.3529 
  289600    400.16127   -3165.6536    47.690361   -3117.9633 
  289800    400.79181   -3165.9081    47.765507   -3118.1425 
  290000    403.79324   -3165.9947    48.123211   -3117.8715 
  290200     422.4253   -3167.0538     50.34374   -3116.7101 
  290400    400.50466   -3168.0517    47.731286   -3120.3204 
  290600    407.94648    -3166.815    48.618186   -3118.1969 
  290800    402.46009   -3164.2842    47.964329   -3116.3198 
  291000    388.24666   -3163.9335    46.270403   -3117.6631 
  291200    394.91988   -3165.3244    47.065704   -3118.2587 
  291400    400.30739   -3165.3778    47.707775     -3117.67 
  291600    417.97988    -3166.509    49.813945   -3116.6951 
  291800    393.07427   -3164.9982    46.845748   -3118.1524 
  292000    399.10348   -3165.3838    47.564296   -3117.8195 
  292200     395.8282   -3165.3329    47.173956    -3118.159 
  292400    397.19385   -3164.1954     47.33671   -3116.8587 
  292600    380.42996   -3163.6142    45.338826   -3118.2754 
  292800    389.00636    -3165.183    46.360943    -3118.822 
  293000    410.34763   -3165.3127     48.90435   -3116.4084 
  293200    403.50448    -3165.743    48.088798   -3117.6542 
  293400    412.58473   -3166.0777    49.170962   -3116.9067 
  293600     413.5588   -3167.1041    49.287051    -3117.817 
  293800    394.61061   -3165.7915    47.028846   -3118.7627 
  294000    412.24724   -3164.8414    49.130742   -3115.7106 
  294200    411.18444   -3167.6004    49.004079   -3118.5963 
  294400    388.99833   -3164.9894    46.359986   -3118.6294 
  294600    419.45525   -3165.1764    49.989776   -3115.1866 
  294800    382.67157   -3165.9425    45.605976   -3120.3365 
  295000    407.25061    -3165.566    48.535253   -3117.0307 
  295200    432.12697   -3165.9175    51.499965   -3114.4176 
  295400    397.75684   -3166.1534    47.403806   -3118.7496 
  295600    406.77285   -3168.5351    48.478316   -3120.0568 
  295800    406.68966    -3164.198    48.468401   -3115.7296 
  296000    417.90534   -3165.5861    49.805061    -3115.781 
  296200    390.23612   -3163.8724    46.507504   -3117.3648 
  296400    391.76259   -3164.1895    46.689424   -3117.5001 
  296600    413.19095    -3165.596    49.243211   -3116.3528 
  296800    409.28724   -3165.5072    48.777975   -3116.7292 
  297000    401.71905   -3165.3557    47.876014   -3117.4796 
  297200    401.64087    -3164.962    47.866696   -3117.0953 
  297400    398.92463   -3163.2919    47.542981    -3115.749 
  297600     399.6931    -3165.295    47.634566   -3117.6605 
  297800    391.66635   -3164.5038    46.677954   -3117.8259 
  298000    402.04052   -3164.5862    47.914326   -3116.6718 
  298200    413.37063   -3166.9955    49.264624   -3117.7308 
  298400    398.88482   -3165.0583    47.538237   -3117.5201 
  298600    408.91811   -3163.2386    48.733982   -3114.5047 
  298800    401.34115   -3164.2119    47.830976   -3116.3809 
  299000    388.99793   -3166.4912    46.359938   -3120.1313 
  299200     414.1172   -3166.6864    49.353599   -3117.3328 
  299400    416.95927   -3163.5945    49.692311   -3113.9021 
  299600    418.90551   -3165.0165     49.92426   -3115.0922 
  299800    393.02973   -3167.4772     46.84044   -3120.6368 
  300000    410.17598   -3165.9119    48.883893    -3117.028 
  300200    421.03943   -3162.5187    50.178576   -3112.3401 
  300400    387.12894   -3166.1119    46.137196   -3119.9747 
  300600    416.26069   -3168.8844    49.609056   -3119.2753 
  300800     418.8282   -3166.1145    49.915046   -3116.1994 
  301000    395.55691    -3164.252    47.141624   -3117.1104 
  301200     412.8597   -3164.8652    49.203733   -3115.6615 
  301400    404.24075   -3165.7164    48.176544   -3117.5398 
  301600    389.55124   -3164.8733     46.42588   -3118.4475 
  301800    398.83179   -3164.0793    47.531917   -3116.5474 
  302000    411.79566   -3164.8148    49.076923   -3115.7379 
  302200    408.12727   -3165.8208    48.639732   -3117.1811 
  302400    392.46952   -3165.1985    46.773675   -3118.4248 
  302600    412.59488   -3162.5193    49.172173   -3113.3471 
  302800       414.48   -3165.0216    49.396837   -3115.6248 
  303000    376.70199   -3164.6337    44.894535   -3119.7391 
  303200    417.29443   -3162.9871    49.732254   -3113.2549 
  303400    411.56471   -3163.0744    49.049398    -3114.025 
  303600    395.91611   -3167.6387    47.184432   -3120.4543 
  303800    399.93679   -3163.9182    47.663608   -3116.2546 
  304000    409.10333   -3164.2673    48.756057   -3115.5112 
  304200    386.12143   -3165.5536    46.017124   -3119.5364 
  304400    425.76197   -3165.3672    50.741397   -3114.6258 
  304600    392.62212   -3166.1354    46.791861   -3119.3435 
  304800    390.40453   -3163.8922    46.527574   -3117.3646 
  305000    436.55833   -3162.4712    52.028085   -3110.4432 
  305200    398.15868   -3166.4325    47.451697   -3118.9808 
  305400    392.59052   -3166.6013    46.788095   -3119.8132 
  305600    432.29433   -3161.0572     51.51991   -3109.5372 
  305800    392.05088   -3161.6026    46.723782   -3114.8788 
  306000    396.69314   -3166.0592    47.277037   -3118.7822 
  306200    417.82523   -3167.0414    49.795514   -3117.2459 
  306400    403.39543   -3166.3133    48.075801   -3118.2375 
  306600    419.93564   -3163.3384    50.047028   -3113.2914 
  306800    412.41162   -3165.0155    49.150332   -3115.8652 
  307000    387.89551   -3166.4199    46.228554   -3120.1913 
  307200    439.08389   -3165.3884    52.329075   -3113.0593 
  307400    404.48223   -3163.7675    48.205325   -3115.5622 
  307600     389.5782   -3166.3228    46.429094   -3119.8937 
  307800    425.58532   -3164.9319    50.720345   -3114.2115 
  308000    399.83725    -3164.456    47.651746   -3116.8042 
  308200    394.79125   -3164.3337    47.050373   -3117.2833 
  308400    417.27063   -3163.2893    49.729418   -3113.5599 
  308600    404.83196   -3166.9785    48.247005   -3118.7315 
  308800    407.32853    -3165.066     48.54454   -3116.5215 
  309000    420.61261   -3165.5435    50.127709   -3115.4158 
  309200    401.86774   -3164.9554    47.893735   -3117.0617 
  309400     420.0769   -3164.4828    50.063864    -3114.419 
  309600    403.17525   -3164.3688    48.049561   -3116.3193 
  309800    401.91423   -3166.2684    47.899276   -3118.3691 
  310000    406.20011   -3163.8006    48.410057   -3115.3905 
  310200    403.14721   -3164.4166    48.046219   -3116.3704 
  310400    404.88831    -3164.019     48.25372   -3115.7653 
  310600    414.25324   -3164.6678    49.369812    -3115.298 
  310800    397.41193   -3166.1435      47.3627   -3118.7808 
  311000    416.06226    -3165.171    49.585408   -3115.5856 
  311200    418.35102    -3165.247    49.858177   -3115.3889 
  311400    400.76396    -3164.941    47.762188   -3117.1788 
  311600    412.84981   -3162.9436    49.202554   -3113.7411 
  311800    400.07317   -3166.1739    47.679862    -3118.494 
  312000    396.79155   -3166.1406    47.288765   -3118.8519 
  312200    426.41274   -3163.6841    50.818956   -3112.8651 
  312400    405.23176   -3165.4029    48.294652   -3117.1083 
  312600    395.06313   -3165.8041    47.082776   -3118.7213 
  312800    405.33507    -3162.849    48.306964   -3114.5421 
  313000    415.72171   -3164.9046    49.544822   -3115.3598 
  313200    397.57723   -3165.4408    47.382401   -3118.0584 
  313400     415.0893   -3165.1373    49.469451   -3115.6679 
  313600    410.11493   -3166.5391    48.876617   -3117.6625 
  313800    401.30269   -3164.6831    47.826394   -3116.8567 
  314000    408.78205   -3161.3488    48.717768    -3112.631 
  314200      402.552   -3164.7225    47.975283   -3116.7472 
  314400    391.72823   -3167.2481     46.68533   -3120.5627 
  314600    432.66829   -3163.9125    51.564478    -3112.348 
  314800    403.35232   -3163.3682    48.070664   -3115.2976 
  315000    401.79743   -3166.0131    47.885356   -3118.1278 
  315200    412.33795    -3164.293    49.141551   -3115.1515 
  315400    414.46876   -3164.5337    49.395497   -3115.1382 
  315600    402.17071   -3164.3533    47.929842   -3116.4234 
  315800    416.31837   -3167.3788     49.61593   -3117.7629 
  316000    404.94421    -3165.321    48.260382   -3117.0606 
  316200    425.64643   -3165.0698    50.727628   -3114.3422 
  316400     408.3665   -3163.3847    48.668243   -3114.7164 
  316600    399.28263   -3164.6339    47.585646   -3117.0483 
  316800    409.41325   -3166.2903    48.792992   -3117.4973 
  317000    422.48446   -3164.4992    50.350792   -3114.1484 
  317200    403.56879   -3164.1164    48.096463     -3116.02 
  317400    398.98677   -3164.7264    47.550387   -3117.1761 
  317600    413.92523   -3162.8183     49.33072   -3113.4875 
  317800    410.84134   -3164.4885     48.96319   -3115.5253 
  318000    408.86491   -3164.9401    48.727642   -3116.2125 
  318200     434.9478   -3166.6391    51.836145    -3114.803 
  318400    416.67492   -3165.8961    49.658423   -3116.2377 
  318600    404.32889   -3162.9186    48.187049   -3114.7315 
  318800    418.91363   -3162.6221    49.925228   -3112.6969 
  319000      405.005   -3166.7639    48.267627   -3118.4963 
  319200    411.95459   -3166.9271    49.095864   -3117.8312 
  319400    425.58889   -3163.3717    50.720771    -3112.651 
  319600    403.16313   -3164.1457    48.048116   -3116.0976 
  319800    401.61266   -3165.9594    47.863334   -3118.0961 
  320000    413.10763   -3163.9193     49.23328    -3114.686 
  320200    411.89968   -3162.6497    49.089319   -3113.5604 
  320400    413.51941    -3166.647    49.282355   -3117.3646 
  320600    396.30665   -3165.1976    47.230976   -3117.9666 
  320800    422.88836   -3163.0989    50.398927      -3112.7 
  321000    401.46931   -3164.2045     47.84625   -3116.3583 
  321200    403.79041   -3163.8968    48.122874   -3115.7739 
  321400    433.02672   -3163.0933    51.607195   -3111.4861 
  321600    393.16093   -3165.3005    46.856075   -3118.4444 
  321800    411.22884   -3165.7793    49.009371     -3116.77 
  322000    419.99181   -3163.2067    50.053723    -3113.153 
  322200     398.5531   -3165.1063    47.498704   -3117.6076 
  322400    407.16871   -3163.1591    48.525492   -3114.6336 
  322600    428.49194   -3164.1399     51.06675   -3113.0732 
  322800     399.6294   -3164.5984    47.626975   -3116.9714 
  323000    422.70876     -3163.86    50.377523   -3113.4824 
  323200    418.30184   -3165.1859    49.852316   -3115.3336 
  323400     411.2328   -3166.0176    49.009843   -3117.0078 
  323600     424.5439   -3165.2264    50.596231   -3114.6302 
  323800    414.76541   -3167.2934    49.430851   -3117.8625 
  324000     423.6934   -3165.8679     50.49487    -3115.373 
  324200     434.9199   -3162.0225     51.83282   -3110.1896 
  324400     385.7983   -3164.9603    45.978613   -3118.9817 
  324600     407.5958   -3165.1066    48.576393   -3116.5302 
  324800    428.73624   -3165.1921    51.095865   -3114.0962 
  325000    403.24548   -3165.4099    48.057931   -3117.3519 
  325200    437.70912   -3164.1124    52.165234   -3111.9472 
  325400    412.47865   -3165.4701     49.15832   -3116.3117 
  325600    391.98672   -3165.1339    46.716136   -3118.4178 
  325800    434.99686   -3161.5169    51.841992   -3109.6749 
  326000    407.46082    -3165.184    48.560306   -3116.6237 
  326200    416.03461   -3167.1976    49.582112   -3117.6155 
  326400    430.65795   -3162.5442     51.32489   -3111.2193 
  326600    409.21846   -3165.4009    48.769778   -3116.6312 
  326800    406.30766   -3163.5533    48.422875   -3115.1304 
  327000    415.16016    -3163.088    49.477897   -3113.6101 
  327200     415.1445   -3166.8714     49.47603   -3117.3953 
  327400    405.77329    -3163.102     48.35919   -3114.7428 
  327600    427.81983   -3165.3279    50.986649   -3114.3412 
  327800    399.40037   -3164.6204    47.599679   -3117.0207 
  328000    425.86737   -3164.0079    50.753959   -3113.2539 
  328200    396.80428   -3160.3938    47.290283   -3113.1035 
  328400    409.46508   -3164.4634    48.799169   -3115.6643 
  328600     406.0214   -3166.1673    48.388759   -3117.7785 
  328800    402.05247   -3163.5594     47.91575   -3115.6437 
  329000    442.26358   -3164.2498    52.708024   -3111.5418 
  329200    414.90468    -3166.169     49.44745   -3116.7216 
  329400    404.07277   -3165.1716    48.156525   -3117.0151 
  329600    430.75625   -3161.8465    51.336605   -3110.5099 
  329800    423.23796   -3165.5483    50.440592   -3115.1077 
  330000    391.02483   -3166.1958      46.6015   -3119.5943 
  330200    428.72817   -3162.9787    51.094903   -3111.8838 
  330400    429.56662   -3162.1758    51.194828    -3110.981 
  330600    405.78732   -3166.1502    48.360862   -3117.7894 
  330800    424.87841   -3166.1822    50.636098   -3115.5461 
  331000    410.78576   -3161.4656    48.956565   -3112.5091 
  331200      406.953   -3162.5739    48.499785   -3114.0742 
  331400    415.21059   -3163.5179    49.483907    -3114.034 
  331600    415.96369   -3164.9748     49.57366   -3115.4012 
  331800    414.57547   -3162.9104    49.408214   -3113.5022 
  332000    438.05311   -3163.8009    52.206229   -3111.5947 
  332200    421.85346   -3167.7264     50.27559   -3117.4508 
  332400    414.56009    -3167.345    49.406381   -3117.9386 
  332600    431.18816   -3162.9635     51.38808   -3111.5754 
  332800    405.13254   -3162.3704    48.282827   -3114.0876 
  333000    408.99995   -3165.5699    48.743736   -3116.8262 
  333200    417.50947    -3165.099    49.757882   -3115.3411 
  333400    417.76692   -3163.5515    49.788565   -3113.7629 
  333600    416.43207   -3163.0092     49.62948   -3113.3797 
  333800    421.64389   -3165.0713    50.250614   -3114.8207 
  334000    422.70453   -3166.4975    50.377019   -3116.1205 
  334200    408.50073    -3164.937    48.684241   -3116.2528 
  334400    422.20628    -3163.263    50.317638   -3112.9454 
  334600    420.94411   -3165.6177    50.167215   -3115.4505 
  334800    415.08891   -3165.7545    49.469405   -3116.2851 
  335000    418.97072   -3163.1201    49.932031   -3113.1881 
  335200    423.45074   -3164.7281    50.465951   -3114.2621 
  335400    427.79351   -3165.0952    50.983512   -3114.1117 
  335600    420.06054   -3164.0227    50.061913   -3113.9608 
  335800    407.05989   -3163.8807    48.512524   -3115.3682 
  336000    427.47187   -3165.5738     50.94518   -3114.6286 
  336200    425.03392   -3166.4487    50.654631    -3115.794 
  336400    422.48193   -3164.7106     50.35049   -3114.3601 
  336600    430.87921   -3164.0352    51.351259   -3112.6839 
  336800    408.79578   -3163.0119    48.719404   -3114.2925 
  337000    416.40761   -3162.7323    49.626565   -3113.1057 
  337200    397.13951   -3162.2656    47.330234   -3114.9354 
  337400    410.51819    -3162.521    48.924677   -3113.5963 
  337600    416.37355   -3163.3091    49.622506   -3113.6866 
  337800    409.48833   -3165.2732     48.80194   -3116.4713 
  338000    414.87236    -3163.009    49.443597   -3113.5654 
  338200    415.98995   -3163.6063    49.576789   -3114.0295 
  338400    414.09572   -3164.0605    49.351039   -3114.7095 
  338600    419.34529   -3165.3224    49.976671   -3115.3457 
  338800    404.93792    -3163.347    48.259632   -3115.0874 
  339000    422.71908   -3162.7709    50.378753   -3112.3922 
  339200    435.46267   -3165.7817    51.897506   -3113.8841 
  339400    409.74667    -3164.268    48.832729   -3115.4353 
  339600    405.77949   -3161.9594    48.359928   -3113.5995 
  339800    427.07442    -3164.341    50.897813   -3113.4432 
  340000    417.27085   -3164.9196    49.729444   -3115.1902 
  340200    420.70047    -3162.247    50.138179   -3112.1089 
  340400    414.21497   -3163.6824    49.365251   -3114.3172 
  340600     406.7507   -3164.3169    48.475675   -3115.8412 
  340800    444.86013   -3165.1043    53.017475   -3112.0868 
  341000    419.26157   -3164.8561    49.966694   -3114.8894 
  341200    420.31328   -3165.8992    50.092035   -3115.8072 
  341400    419.80491   -3161.2113    50.031448   -3111.1798 
  341600    416.57389   -3163.2751    49.646382   -3113.6287 
  341800    419.59096   -3164.6313     50.00595   -3114.6253 
  342000    416.05133   -3163.4932    49.584104   -3113.9091 
  342200    415.31984   -3163.9759    49.496927    -3114.479 
  342400    438.79293    -3165.778      52.2944   -3113.4836 
  342600    419.47866   -3165.2709    49.992566   -3115.2783 
  342800    403.56361   -3163.9926    48.095844   -3115.8968 
  343000    432.59558   -3162.5004    51.555812   -3110.9446 
  343200    408.12871   -3162.0863    48.639903   -3113.4464 
  343400    414.17791   -3164.8267    49.360835   -3115.4659 
  343600    430.01516   -3162.3911    51.248284   -3111.1428 
  343800    418.65643   -3164.7011    49.894574   -3114.8065 
  344000     414.8905   -3164.0112    49.445759   -3114.5655 
  344200     438.1691   -3163.3818    52.220053   -3111.1617 
  344400    401.87935   -3163.1812    47.895119   -3115.2861 
  344600    417.93276   -3163.9296    49.808329   -3114.1213 
  344800    421.18246   -3161.2256    50.195622     -3111.03 
  345000     434.5009   -3164.7106    51.782884   -3112.9277 
  345200    413.21715   -3165.5921    49.246333   -3116.3458 
  345400    420.09795   -3164.3256    50.066372   -3114.2592 
  345600    434.79043    -3164.844    51.817391   -3113.0266 
  345800    431.77108   -3165.6336     51.45755   -3114.1761 
  346000    435.99335   -3165.6954    51.960752   -3113.7346 
  346200    403.27406   -3163.3522    48.061336   -3115.2908 
  346400    429.76576   -3163.2282     51.21856   -3112.0097 
  346600    428.68654   -3163.9011    51.089941   -3112.8112 
  346800    428.01807   -3165.9419    51.010275   -3114.9317 
  347000    415.42522   -3162.8022    49.509487   -3113.2927 
  347200    426.73698   -3163.3479    50.857597   -3112.4904 
  347400    414.09778   -3164.0529    49.351285   -3114.7016 
  347600     417.4191   -3161.8621    49.747112    -3112.115 
  347800    433.30353   -3164.4662    51.640185    -3112.826 
  348000    413.77349   -3163.8929    49.312636   -3114.5803 
  348200     426.0718   -3161.7068    50.778323   -3110.9285 
  348400     424.0224   -3162.1606    50.534079   -3111.6265 
  348600    424.95189   -3166.3207    50.644854   -3115.6758 
  348800    403.09049   -3163.2476    48.039459   -3115.2082 
  349000    439.79069   -3163.1616    52.413311   -3110.7483 
  349200     436.8873   -3165.1514    52.067291   -3113.0841 
  349400    409.15876    -3165.822    48.762663   -3117.0593 
  349600    433.54943   -3163.6148    51.669491   -3111.9453 
  349800    429.00027   -3160.2477    51.127331   -3109.1204 
  350000    420.37858   -3163.5644    50.099817   -3113.4646 
  350200    419.68383   -3168.0328    50.017018   -3118.0158 
  350400     430.9655    -3162.945    51.361544   -3111.5834 
  350600    413.96536   -3159.6932    49.335503   -3110.3577 
  350800    426.49959   -3164.8074    50.829306   -3113.9781 
  351000    412.29703   -3161.8269    49.136676   -3112.6902 
  351200    439.33402   -3165.8175    52.358886   -3113.4586 
  351400    410.50047   -3163.8633    48.922565   -3114.9407 
  351600     431.0026   -3163.3261    51.365965   -3111.9602 
  351800    418.52816   -3163.3384    49.879288   -3113.4591 
  352000    424.91681   -3163.8239    50.640673   -3113.1833 
  352200    445.00042   -3164.1462    53.034195    -3111.112 
  352400    426.10125   -3164.7445    50.781832   -3113.9627 
  352600    417.61708   -3164.0816    49.770707   -3114.3109 
  352800    439.57426   -3164.9653    52.387517   -3112.5778 
  353000    427.57397    -3164.107    50.957348   -3113.1497 
  353200     409.3836   -3162.4457    48.789459   -3113.6563 
  353400     422.6713   -3162.8155    50.373059   -3112.4424 
  353600    423.06363   -3163.1313    50.419815   -3112.7115 
  353800    436.09914   -3164.6779    51.973359   -3112.7045 
  354000    410.39432   -3163.2423    48.909914   -3114.3324 
  354200    421.99037   -3162.6184    50.291907   -3112.3265 
  354400    422.13181   -3160.9956    50.308763   -3110.6868 
  354600    426.51906   -3164.3042    50.831627   -3113.4726 
  354800    419.37734   -3163.4074    49.980492   -3113.4269 
  355000    430.22918   -3162.8124     51.27379   -3111.5386 
  355200    413.88815   -3162.7221    49.326302   -3113.3958 
  355400    414.99273   -3162.4718    49.457943   -3113.0138 
  355600    426.86113   -3160.9852    50.872393   -3110.1128 
  355800    434.26289   -3162.7369    51.754519   -3110.9824 
  356000    411.96333   -3163.8338    49.096906   -3114.7369 
  356200    442.73843   -3164.5308    52.764616   -3111.7661 
  356400    420.86487   -3162.4363    50.157772   -3112.2785 
  356600    408.35693   -3162.7274    48.667102   -3114.0603 
  356800    443.73771   -3163.6289    52.883708   -3110.7452 
  357000     435.6029   -3165.7201    51.914219   -3113.8058 
  357200    410.67549   -3164.3881    48.943423   -3115.4446 
  357400    425.18571   -3160.3915     50.67272   -3109.7188 
  357600    426.22458   -3161.5941     50.79653   -3110.7976 
  357800    402.60736   -3162.5793    47.981881   -3114.5975 
  358000    457.94544   -3163.9148    54.576955   -3109.3378 
  358200     422.2531   -3162.7227    50.323218   -3112.3995 
  358400    428.28901    -3164.759    51.042565   -3113.7164 
  358600    421.42654   -3162.3127     50.22471    -3112.088 
  358800    421.07548   -3162.8625    50.182871   -3112.6797 
  359000    423.02601    -3161.138    50.415332   -3110.7227 
  359200    418.16228   -3162.2456    49.835683   -3112.4099 
  359400     419.1365   -3164.4138    49.951789    -3114.462 
  359600    429.76919   -3163.7295     51.21897   -3112.5106 
  359800    433.45565   -3162.5886    51.658314   -3110.9303 
  360000    434.05323   -3162.4762    51.729533   -3110.7467 
  360200    408.94762   -3161.9429    48.737499   -3113.2054 
  360400    428.88129   -3162.4539    51.113152   -3111.3407 
  360600    439.48778   -3163.4427     52.37721   -3111.0655 
  360800    420.73595   -3162.9981    50.142407   -3112.8557 
  361000    435.62466   -3163.6514    51.916811   -3111.7346 
  361200    424.91113   -3162.5515    50.639997   -3111.9115 
  361400    408.58912   -3160.0823    48.694774   -3111.3875 
  361600    426.12617   -3162.4342    50.784802   -3111.6494 
  361800    427.00581   -3162.8374    50.889636   -3111.9478 
  362000    443.61493   -3165.4427    52.869075   -3112.5736 
  362200    419.04973   -3163.0115    49.941447     -3113.07 
  362400    433.49438   -3161.7002     51.66293   -3110.0373 
  362600    438.55965   -3161.8512    52.266598   -3109.5846 
  362800     410.3244   -3162.1916    48.901581   -3113.2901 
  363000    424.15903    -3162.625    50.550363   -3112.0747 
  363200    440.44722   -3163.8223    52.491554   -3111.3308 
  363400    413.73139   -3162.3853    49.307619   -3113.0776 
  363600    435.60346   -3161.5924    51.914285   -3109.6781 
  363800    409.37991   -3162.8578    48.789019   -3114.0688 
  364000    431.78097   -3164.4802    51.458729   -3113.0214 
  364200    433.43384   -3161.3365    51.655714   -3109.6808 
  364400    430.84138   -3161.5648    51.346751   -3110.2181 
  364600    443.20985   -3165.9627    52.820799   -3113.1419 
  364800     440.8811   -3166.3868    52.543263   -3113.8435 
  365000    427.09255   -3161.4736    50.899974   -3110.5737 
  365200     435.8729   -3160.5889    51.946397   -3108.6425 
  365400    420.16684   -3162.7857    50.074582   -3112.7111 
  365600    418.21566   -3163.8856    49.842045   -3114.0435 
  365800    446.93731   -3163.1574    53.265029   -3109.8924 
  366000    433.02722   -3162.9731    51.607255   -3111.3658 
  366200      420.934   -3162.7945     50.16601   -3112.6285 
  366400    438.01693   -3162.3115    52.201917   -3110.1096 
  366600    411.17729    -3161.484    49.003227   -3112.4808 
  366800    424.31972   -3164.0067    50.569514   -3113.4372 
  367000    424.24799   -3161.6021    50.560965   -3111.0411 
  367200    433.54721   -3160.2845    51.669226   -3108.6152 
  367400    415.49224   -3163.8972    49.517473   -3114.3797 
  367600    427.27569   -3163.5449      50.9218   -3112.6231 
  367800    443.28565   -3161.5334    52.829833   -3108.7036 
  368000    424.25136   -3163.2885    50.561366   -3112.7272 
  368200    443.48193   -3163.8858    52.853225   -3111.0326 
  368400    426.53726   -3164.0069    50.833795   -3113.1731 
  368600    417.48329   -3162.9795    49.754763   -3113.2247 
  368800     448.6035   -3160.1696    53.463603    -3106.706 
  369000    424.91416   -3163.3253    50.640357   -3112.6849 
  369200    413.58332   -3163.3903    49.289973   -3114.1003 
  369400    443.67523   -3161.9068    52.876261   -3109.0305 
  369600    413.15536   -3160.0599    49.238969    -3110.821 
  369800    429.66735   -3161.5547    51.206833   -3110.3479 
  370000    433.86614   -3161.4813    51.707235   -3109.7741 
  370200    431.06094   -3161.3629    51.372917     -3109.99 
  370400    426.11349   -3161.5005    50.783292   -3110.7172 
  370600    434.22788   -3162.3745    51.750347   -3110.6241 
  370800    438.79097   -3162.3469    52.294166   -3110.0528 
  371000    431.51133   -3162.2358    51.426595   -3110.8092 
  371200    432.20873    -3163.608    51.509709   -3112.0983 
  371400    440.94533   -3162.2504    52.550918   -3109.6995 
  371600    428.19959   -3161.7322    51.031908   -3110.7003 
  371800    413.83956   -3160.5578     49.32051   -3111.2373 
  372000    448.10716   -3161.9339    53.404449   -3108.5294 
  372200    420.98231   -3162.6604    50.171768   -3112.4886 
  372400    418.87332   -3161.9983    49.920423   -3112.0779 
  372600    424.04821   -3158.4288    50.537155   -3107.8917 
  372800    427.49537   -3161.8169     50.94798   -3110.8689 
  373000     418.5253   -3163.4672    49.878947   -3113.5882 
  373200    441.70113   -3162.9838    52.640993   -3110.3429 
  373400    425.34662   -3158.9174    50.691897   -3108.2255 
  373600    419.44428    -3160.275    49.988469   -3110.2865 
  373800    424.11619   -3163.8019    50.545257   -3113.2566 
  374000    429.36233   -3163.9809    51.170481   -3112.8104 
  374200    447.65785   -3162.4028    53.350901   -3109.0519 
  374400    438.64819   -3162.2998     52.27715   -3110.0226 
  374600     420.6327   -3163.5219    50.130103   -3113.3918 
  374800    442.08561   -3164.2176    52.686814   -3111.5308 
  375000    430.59415   -3162.4716    51.317287   -3111.1543 
  375200    427.10068   -3162.3517    50.900942   -3111.4508 
  375400    432.57625   -3162.6129    51.553509   -3111.0594 
  375600    421.48903   -3160.7881    50.232158   -3110.5559 
  375800    433.69616   -3160.6123    51.686978   -3108.9254 
  376000    434.69999   -3162.5146    51.806612    -3110.708 
  376200    409.56134   -3163.2547    48.810641   -3114.4441 
  376400     434.7214   -3160.7242    51.809163   -3108.9151 
  376600    440.69176   -3160.8755    52.520698   -3108.3548 
  376800    407.64891   -3161.5264    48.582722   -3112.9437 
  377000    439.73167   -3161.9432    52.406277   -3109.5369 
  377200    442.18858   -3159.5367    52.699086   -3106.8376 
  377400    429.70789   -3162.8824    51.211664   -3111.6707 
  377600     432.5942   -3163.6942    51.555648   -3112.1386 
  377800    424.50178   -3160.7721    50.591211   -3110.1809 
  378000    451.75023   -3162.4224    53.838623   -3108.5838 
  378200    414.64716   -3162.1485    49.416758   -3112.7317 
  378400    448.74536   -3165.1177    53.480508   -3111.6372 
  378600    432.35138   -3161.8074    51.526709   -3110.2806 
  378800     420.5967   -3162.6823    50.125812   -3112.5564 
  379000    432.76521   -3161.9937    51.576029   -3110.4177 
  379200    421.95928    -3161.176    50.288202   -3110.8878 
  379400    423.91557   -3161.4198    50.521348   -3110.8984 
  379600    439.31736   -3162.1513      52.3569   -3109.7944 
  379800    435.90506   -3161.4821     51.95023   -3109.5319 
  380000    430.48342   -3160.6766    51.304089   -3109.3725 
  380200    431.86889    -3161.435    51.469207   -3109.9658 
  380400    433.66925   -3162.1421     51.68377   -3110.4583 
  380600    441.12902   -3162.5818     52.57281   -3110.0089 
  380800    441.98538   -3161.3473    52.674869   -3108.6724 
  381000     451.1442   -3163.9899    53.766398   -3110.2235 
  381200      432.787   -3163.0523    51.578626   -3111.4736 
  381400    445.49191   -3161.5299     53.09277   -3108.4371 
  381600    434.82304   -3162.2962    51.821277   -3110.4749 
  381800    421.86167   -3162.1843    50.276568   -3111.9077 
  382000    433.02496   -3160.2663    51.606985   -3108.6593 
  382200    434.71203   -3161.8801    51.808047   -3110.0721 
  382400    435.46381   -3159.6806    51.897643   -3107.7829 
  382600    432.74583   -3160.4788    51.573719   -3108.9051 
  382800    430.31049   -3164.6313    51.283481   -3113.3478 
  383000    447.51971   -3161.9965    53.334438   -3108.6621 
  383200    450.47132   -3160.1993    53.686205   -3106.5131 
  383400    425.67114   -3163.1881    50.730573   -3112.4575 
  383600    436.24432   -3162.6685    51.990661   -3110.6779 
  383800    438.32187    -3158.868    52.238259   -3106.6297 
  384000    437.41461   -3162.2824    52.130134   -3110.1522 
  384200    436.54786   -3162.7727    52.026837   -3110.7458 
  384400    436.85894   -3159.4363    52.063911   -3107.3724 
  384600    439.31548   -3161.0448    52.356675   -3108.6881 
  384800    463.67538   -3160.7504    55.259836   -3105.4906 
  385000    423.71306   -3159.7688    50.497214   -3109.2716 
  385200    408.11952   -3159.4921    48.638808   -3110.8533 
  385400    442.58277   -3158.8487    52.746065   -3106.1026 
  385600    425.90594   -3158.8023    50.758556   -3108.0438 
  385800    436.46483   -3162.9944    52.016941   -3110.9774 
  386000    436.50103   -3159.4749    52.021256   -3107.4537 
  386200    448.36247   -3160.7069    53.434877    -3107.272 
  386400    410.68302   -3161.3494    48.944321   -3112.4051 
  386600    449.49524   -3159.3513    53.569878   -3105.7814 
  386800    423.99469   -3158.6044    50.530778   -3108.0737 
  387000     419.4532   -3161.3267    49.989532   -3111.3372 
  387200     439.4578    -3159.051    52.373637   -3106.6774 
  387400    432.97077   -3158.5179    51.600527   -3106.9174 
  387600    439.73307    -3161.356    52.406444   -3108.9495 
  387800    419.74253   -3161.5778    50.024014   -3111.5538 
  388000    430.04602   -3158.7217    51.251961   -3107.4698 
  388200    447.88926   -3159.3103    53.378481   -3105.9318 
  388400    419.84034   -3161.4661     50.03567   -3111.4304 
  388600    446.95193   -3162.5331    53.266772   -3109.2664 
  388800    447.51639   -3159.7739    53.334043   -3106.4399 
  389000    423.40255   -3161.3595    50.460207   -3110.8993 
  389200    436.50938   -3159.8619    52.022251   -3107.8397 
  389400    436.71875   -3160.0603    52.047204   -3108.0131 
  389600    420.83783   -3163.3362    50.154549   -3113.1816 
  389800    456.25063   -3161.0158     54.37497   -3106.6409 
  390000    461.12925   -3160.7356    54.956395   -3105.7792 
  390200    408.12486   -3161.3748    48.639445   -3112.7354 
  390400    434.14152   -3159.6416    51.740055   -3107.9015 
  390600    448.21628   -3160.4713    53.417454   -3107.0539 
  390800    428.41349   -3160.4695    51.057401   -3109.4121 
  391000    444.40319   -3160.1307    52.963019   -3107.1677 
  391200    443.31891   -3162.0799    52.833797   -3109.2461 
  391400    414.41715   -3161.7261    49.389346   -3112.3367 
  391600    447.76707   -3159.2921    53.363918   -3105.9282 
  391800    430.98336   -3158.6179    51.363672   -3107.2542 
  392000    421.34814   -3161.7135    50.215368   -3111.4981 
  392200    424.68707   -3159.8189    50.613294   -3109.2056 
  392400    451.46807   -3160.4457    53.804996   -3106.6407 
  392600    434.89686   -3160.2044    51.830074   -3108.3744 
  392800     443.4903   -3160.9387    52.854223   -3108.0845 
  393000    421.21103    -3159.202    50.199027    -3109.003 
  393200     420.4829   -3158.8308    50.112249   -3108.7186 
  393400    422.59381   -3157.5725    50.363823   -3107.2087 
  393600    428.54536   -3160.7739    51.073116   -3109.7008 
  393800    433.35611   -3160.6201    51.646451   -3108.9737 
  394000     451.0305   -3160.5525    53.752847   -3106.7997 
  394200    433.17501   -3161.3738    51.624868   -3109.7489 
  394400    425.11781   -3159.7632    50.664628   -3109.0985 
  394600    450.12189   -3162.9279    53.644561   -3109.2833 
  394800     427.1405   -3159.9724    50.905688   -3109.0667 
  395000    438.15007   -3158.8967    52.217785   -3106.6789 
  395200    460.43325   -3162.7361    54.873447   -3107.8627 
  395400    427.48241   -3161.3774    50.946436    -3110.431 
  395600    428.19772   -3158.9863    51.031686   -3107.9546 
  395800    440.74527   -3160.6908    52.527075   -3108.1637 
  396000    440.08237   -3161.7417    52.448072   -3109.2936 
  396200    448.84694   -3161.1795    53.492615   -3107.6869 
  396400    427.78025   -3159.8422    50.981932   -3108.8603 
  396600    439.28963   -3160.2862    52.353595   -3107.9326 
  396800    441.95898   -3160.8734    52.671723   -3108.2016 
  397000    458.80528   -3163.3482    54.679429   -3108.6688 
  397200    460.10886   -3162.5677    54.834786    -3107.733 
  397400    426.53858    -3161.233    50.833952    -3110.399 
  397600    442.53144   -3161.0176    52.739947   -3108.2777 
  397800    449.47518   -3161.7916    53.567487   -3108.2242 
  398000    436.66348    -3162.972    52.040616   -3110.9314 
  398200    454.82596   -3160.9531    54.205182   -3106.7479 
  398400     446.1408   -3161.6274    53.170103   -3108.4573 
  398600    438.01781   -3161.9332    52.202023   -3109.7312 
  398800    449.18805   -3160.2823    53.533267    -3106.749 
  399000    434.75844   -3161.3225    51.813578   -3109.5089 
  399200    439.05074   -3161.7485    52.325125   -3109.4234 
  399400    438.09398   -3159.9686      52.2111   -3107.7575 
  399600    436.84686   -3161.0841    52.062471   -3109.0217 
  399800    435.33413   -3160.8241    51.882187   -3108.9419 
  400000    443.23187    -3159.457    52.823423   -3106.6336 
  400200    423.69088   -3160.4627     50.49457   -3109.9681 
  400400    445.31458   -3162.8855    53.071636   -3109.8138 
  400600    449.62738   -3161.0629    53.585626   -3107.4772 
  400800    431.41331   -3162.8899    51.414913    -3111.475 
  401000    449.48605   -3162.5668    53.568782    -3108.998 
  401200    460.13799   -3159.6668    54.838258   -3104.8285 
  401400    422.21636   -3161.9605     50.31884   -3111.6417 
  401600    414.27274   -3160.0532    49.372136   -3110.6811 
  401800    463.42192   -3158.9876     55.22963   -3103.7579 
  402000    433.94773   -3161.1884    51.716959   -3109.4715 
  402200    431.48964   -3163.4268     51.42401   -3112.0028 
  402400    450.64629   -3161.5532    53.707058   -3107.8461 
  402600    433.59975   -3158.7543    51.675487   -3107.0788 
  402800    450.18512   -3159.3572    53.652097   -3105.7051 
  403000    432.44236   -3162.9552    51.537552   -3111.4176 
  403200     444.0296   -3163.2374    52.918495   -3110.3189 
  403400    445.70301   -3158.7996    53.117928   -3105.6817 
  403600    433.81141    -3161.218    51.700713   -3109.5173 
  403800    439.06349   -3161.5864    52.326645   -3109.2598 
  404000    446.35424   -3158.7446     53.19554    -3105.549 
  404200    430.35287   -3160.8882    51.288531   -3109.5997 
  404400    437.98978   -3159.7233    52.198682   -3107.5246 
  404600    443.06629    -3159.138     52.80369   -3106.3343 
  404800    421.75888   -3162.5197    50.264318   -3112.2554 
  405000    451.02532   -3163.1557    53.752229   -3109.4035 
  405200    471.66966   -3159.1254    56.212578   -3102.9128 
  405400    427.02426   -3159.7689    50.891835   -3108.8771 
  405600      435.351   -3161.6308    51.884197   -3109.7466 
  405800    448.84514   -3160.1849      53.4924   -3106.6925 
  406000     432.6309   -3157.7009    51.560022   -3106.1409 
  406200    440.46199   -3160.2809    52.493315   -3107.7876 
  406400     443.5247   -3162.2493    52.858322    -3109.391 
  406600     430.0676   -3161.4083    51.254533   -3110.1537 
  406800    417.27633   -3157.8189    49.730097   -3108.0888 
  407000    449.77738   -3159.2813    53.603503   -3105.6778 
  407200    442.12091   -3162.8236    52.691022   -3110.1325 
  407400    435.68136   -3162.0977     51.92357   -3110.1741 
  407600    454.80514    -3159.555      54.2027   -3105.3523 
  407800    436.67293   -3160.9214    52.041742   -3108.8797 
  408000    442.77376   -3162.5299    52.768826   -3109.7611 
  408200    443.58063   -3162.4612    52.864987   -3109.5963 
  408400    436.36456   -3159.7415    52.004992   -3107.7365 
  408600    444.52418    -3160.361    52.977438   -3107.3835 
  408800    415.42406   -3160.5883    49.509347   -3111.0789 
  409000    455.61638   -3161.2928    54.299382   -3106.9934 
  409200    444.25222   -3159.2138    52.945026   -3106.2688 
  409400    424.47936   -3160.6038    50.588539   -3110.0152 
  409600     435.8154    -3159.886    51.939544   -3107.9464 
  409800    462.88005   -3160.0125    55.165051   -3104.8474 
  410000    415.47265   -3160.1042    49.515139   -3110.5891 
  410200    459.29188    -3162.881     54.73742   -3108.1436 
  410400    431.82826     -3161.26    51.464365   -3109.7956 
  410600    442.54427   -3160.8659    52.741476   -3108.1244 
  410800    442.35285   -3157.5636    52.718663   -3104.8449 
  411000    434.76275   -3160.7019    51.814091   -3108.8878 
  411200    447.84561   -3162.2145    53.373278   -3108.8412 
  411400    449.97505   -3161.3136    53.627061   -3107.6865 
  411600    435.80405   -3161.6776    51.938191   -3109.7394 
  411800    437.15891   -3160.7351    52.099661   -3108.6355 
  412000    456.66979   -3159.3272    54.424926   -3104.9022 
  412200    442.95501   -3162.7278    52.790427   -3109.9373 
  412400    441.15208   -3161.8087    52.575558   -3109.2331 
  412600    451.82122   -3160.3825    53.847083   -3106.5354 
  412800    420.93544   -3158.7073    50.166183   -3108.5411 
  413000    450.43342   -3160.1641    53.681689   -3106.4824 
  413200    453.52407   -3162.2036    54.050025   -3108.1535 
  413400    437.08991   -3159.9849    52.091437   -3107.8934 
  413600    442.86963    -3159.405    52.780252   -3106.6248 
  413800    440.14384   -3163.1368    52.455399   -3110.6814 
  414000    445.56061   -3159.9833    53.100957   -3106.8824 
  414200    459.38909   -3158.8005    54.749006   -3104.0515 
  414400    426.50402    -3160.708    50.829834   -3109.8782 
  414600    452.27469   -3160.7096    53.901127   -3106.8085 
  414800    450.05357   -3160.4308    53.636418   -3106.7944 
  415000    427.61033   -3162.6731    50.961681   -3111.7114 
  415200    470.80183   -3159.9096    56.109151   -3103.8005 
  415400    448.95974   -3159.4803    53.506058   -3105.9743 
  415600    422.14662   -3161.9113    50.310528   -3111.6008 
  415800      435.413   -3158.7812    51.891587   -3106.8896 
  416000    470.47718   -3160.2117     56.07046   -3104.1412 
  416200    446.38344   -3162.1397     53.19902   -3108.9407 
  416400    446.78935   -3160.9383    53.247396   -3107.6909 
  416600    452.83224   -3161.5587    53.967574   -3107.5911 
  416800    441.89697   -3159.3301    52.664332   -3106.6658 
  417000    432.73209   -3157.2287    51.572081   -3105.6566 
  417200     441.9254   -3158.6386     52.66772   -3105.9708 
  417400    436.15455   -3161.1268    51.979963   -3109.1468 
  417600    429.43446   -3159.1811    51.179077   -3108.0021 
  417800    438.28421   -3159.5902    52.233771   -3107.3564 
  418000    439.41749   -3159.0444    52.368833   -3106.6756 
  418200    455.78323    -3161.038    54.319267   -3106.7188 
  418400    456.83208   -3162.1077    54.444267   -3107.6634 
  418600    469.63811   -3163.5711    55.970461   -3107.6006 
  418800    445.63313   -3161.2038      53.1096   -3108.0942 
  419000    457.81058   -3160.4151    54.560882   -3105.8542 
  419200    442.55484   -3160.3519    52.742736   -3107.6092 
  419400    433.40139   -3158.6015    51.651847   -3106.9496 
  419600    460.56431   -3159.3999    54.889066   -3104.5108 
  419800    436.37395    -3159.543    52.006111   -3107.5369 
  420000     428.9168   -3161.2434    51.117384    -3110.126 
  420200    466.97415    -3158.579    55.652977   -3102.9261 
  420400    439.90057    -3159.994    52.426406   -3107.5676 
  420600    429.37144   -3162.5465    51.171567   -3111.3749 
  420800      436.138   -3157.5543    51.977991   -3105.5763 
  421000     424.0329   -3158.0006     50.53533   -3107.4653 
  421200    456.75721   -3161.3216    54.435344   -3106.8862 
  421400    463.59624   -3161.0562    55.250405   -3105.8058 
  421600    439.10247   -3160.3224     52.33129   -3107.9911 
  421800    437.67503   -3160.9563    52.161171   -3108.7951 
  422000    453.35991   -3159.5781    54.030461   -3105.5476 
  422200    458.09248   -3159.1459    54.594478   -3104.5514 
  422400    437.57105   -3162.5846    52.148779   -3110.4358 
  422600    459.09062   -3161.8175    54.713435    -3107.104 
  422800    447.79741   -3156.8553    53.367534   -3103.4878 
  423000    445.42569   -3159.0098    53.084878   -3105.9249 
  423200    442.57418    -3160.611    52.745041   -3107.8659 
  423400    454.10186   -3160.2145    54.118884   -3106.0956 
  423600    451.38123   -3160.0093    53.794646   -3106.2147 
  423800    435.06814    -3157.603    51.850488   -3105.7525 
  424000    445.20931   -3156.4283     53.05909   -3103.3693 
  424200    450.21862   -3158.5438    53.656089   -3104.8877 
  424400    431.58766   -3160.5186    51.435691   -3109.0829 
  424600    459.96748   -3159.7839    54.817937    -3104.966 
  424800    468.86093   -3159.4391    55.877839   -3103.5612 
  425000    434.55293   -3158.5944    51.789085   -3106.8053 
  425200    470.43644   -3162.0133    56.065605   -3105.9477 
  425400    449.61774   -3159.2623    53.584477   -3105.6778 
  425600    451.74577    -3159.036    53.838091   -3105.1979 
  425800    460.57406   -3160.2242    54.890228    -3105.334 
  426000    453.39587   -3159.6088    54.034746    -3105.574 
  426200    439.33997   -3158.6645    52.359595    -3106.305 
  426400    445.00758    -3158.095    53.035048   -3105.0599 
  426600    456.18135   -3159.3399    54.366714   -3104.9732 
  426800    447.42701    -3161.323     53.32339   -3107.9996 
  427000    467.68173   -3160.3359    55.737304   -3104.5986 
  427200     436.7196   -3158.8029    52.047304   -3106.7556 
  427400    448.91849   -3159.5947    53.501142   -3106.0935 
  427600    461.68889   -3159.4612    55.023091   -3104.4382 
  427800    427.51191   -3159.8647    50.949952   -3108.9148 
  428000    455.90352    -3159.869    54.333603   -3105.5354 
  428200    452.76498   -3156.1872    53.959559   -3102.2276 
  428400    445.82209   -3161.6926     53.13212   -3108.5605 
  428600    459.08898   -3162.1239    54.713239   -3107.4107 
  428800    470.14278   -3159.4446    56.030608    -3103.414 
  429000    433.76636   -3156.5149    51.695344   -3104.8196 
  429200    451.88358   -3161.0385    53.854516    -3107.184 
  429400    456.86778   -3159.4882    54.448521   -3105.0396 
  429600    438.62939   -3159.1556    52.274909   -3106.8807 
  429800    436.19807   -3160.2189     51.98515   -3108.2338 
  430000    460.43919   -3159.0866    54.874155   -3104.2124 
  430200     437.9628   -3157.3669    52.195467   -3105.1715 
  430400    447.42713   -3159.7487    53.323405   -3106.4253 
  430600    437.02129   -3157.4069    52.083259   -3105.3237 
  430800     440.8134   -3159.1175    52.535194   -3106.5823 
  431000    436.79987   -3160.4842    52.056871   -3108.4273 
  431200    459.86961   -3159.2996    54.806273   -3104.4933 
  431400    456.20603   -3158.4967    54.369655    -3104.127 
  431600    437.30655   -3159.3206    52.117257   -3107.2033 
  431800    448.77007   -3160.4699    53.483454   -3106.9865 
  432000    441.05811   -3156.9431    52.564358   -3104.3787 
  432200    457.21398   -3158.2046     54.48978   -3103.7149 
  432400    439.75089   -3159.9262    52.408567   -3107.5176 
  432600    456.52945   -3160.9198    54.408199   -3106.5116 
  432800    445.70011   -3156.9684    53.117583   -3103.8508 
  433000     460.8336    -3160.617    54.921159   -3105.6958 
  433200    447.14293   -3162.0037    53.289535   -3108.7141 
  433400    461.34836   -3158.8754    54.982507   -3103.8929 
  433600    450.25102   -3157.4202     53.65995   -3103.7602 
  433800    445.70781   -3161.7508    53.118501   -3108.6323 
  434000    455.01485   -3159.8894    54.227693   -3105.6617 
  434200    460.78429   -3158.5094    54.915282   -3103.5941 
  434400     454.8995   -3158.0659    54.213946    -3103.852 
  434600    434.68781   -3159.2634     51.80516   -3107.4583 
  434800    444.31307   -3161.4415    52.952278   -3108.4892 
  435000    461.59963   -3158.2137    55.012453   -3103.2013 
  435200    458.29857   -3156.6743    54.619039   -3102.0552 
  435400    439.64846    -3158.437     52.39636   -3106.0407 
  435600     431.2292    -3158.645     51.39297    -3107.252 
  435800    444.63455   -3157.0118    52.990592   -3104.0213 
  436000      457.556   -3157.8597    54.530542   -3103.3292 
  436200    442.75393   -3160.0467    52.766463   -3107.2802 
  436400    445.47747   -3159.2468    53.091049   -3106.1558 
  436600    456.32713   -3157.3096    54.384088   -3102.9255 
  436800    458.26451   -3158.6123    54.614981   -3103.9973 
  437000    449.94391   -3159.6621    53.623349   -3106.0387 
  437200    464.29909   -3160.0506    55.334169   -3104.7164 
  437400    451.45382   -3158.2327    53.803298   -3104.4294 
  437600    459.15541   -3157.4945    54.721156   -3102.7734 
  437800    458.72688   -3159.0871    54.670084    -3104.417 
  438000    443.52816   -3157.6084    52.858735   -3104.7497 
  438200    458.39565   -3159.5181     54.63061   -3104.8875 
  438400    440.48104    -3159.137    52.495584   -3106.6414 
  438600    449.73644   -3156.8031    53.598624   -3103.2045 
  438800    451.48681   -3159.1367    53.807229   -3105.3295 
  439000    444.91283   -3159.7849    53.023757   -3106.7611 
  439200    456.60356    -3158.329    54.417032    -3103.912 
  439400    472.24921   -3162.6384    56.281647   -3106.3568 
  439600    461.48246   -3161.7083    54.998489   -3106.7098 
  439800    455.36178   -3158.5716    54.269039   -3104.3026 
  440000    462.42527    -3158.942    55.110851   -3103.8311 
  440200    434.94943   -3157.5914     51.83634   -3105.7551 
  440400    455.44487   -3160.2404    54.278942   -3105.9615 
  440600    466.16223   -3158.0473    55.556214   -3102.4911 
  440800    463.96281   -3161.4745    55.294092   -3106.1804 
  441000     456.2876      -3160.2    54.379377   -3105.8206 
  441200    457.49484   -3158.1742    54.523253    -3103.651 
  441400    456.21989   -3158.8747    54.371307   -3104.5034 
  441600    462.75598    -3159.871    55.150265   -3104.7207 
  441800    456.49914   -3160.7321    54.404587   -3106.3275 
  442000    449.25724   -3160.5134    53.541514   -3106.9719 
  442200    449.89621   -3156.7965    53.617664   -3103.1788 
  442400    457.02458    -3158.434    54.467209   -3103.9668 
  442600    435.79198   -3161.2894    51.936752   -3109.3526 
  442800    462.43985   -3158.5357    55.112588   -3103.4231 
  443000    457.56298   -3157.9768    54.531373   -3103.4454 
  443200    464.67049    -3163.733    55.378432   -3108.3546 
  443400    463.37492    -3159.294    55.224028     -3104.07 
  443600    435.13036   -3156.2182    51.857902   -3104.3603 
  443800    448.40935   -3160.3212    53.440464   -3106.8807 
  444000    463.70849    -3160.174    55.263783   -3104.9102 
  444200    453.35665   -3161.1825    54.030072   -3107.1524 
  444400    458.48219   -3159.5553    54.640923   -3104.9143 
  444600    483.85433   -3159.0927    57.664721   -3101.4279 
  444800    441.47694   -3160.1412    52.614274   -3107.5269 
  445000    465.34743   -3160.0036    55.459108   -3104.5445 
  445200    447.16019   -3155.9683    53.291591   -3102.6767 
  445400    453.68135   -3159.1908     54.06877    -3105.122 
  445600    466.98433   -3160.0872    55.654191    -3104.433 
  445800    451.94146   -3157.3292    53.861413   -3103.4678 
  446000    465.75495   -3160.5076    55.507675   -3104.9999 
  446200    450.35416   -3158.0786    53.672242   -3104.4064 
  446400    465.93478   -3158.3105    55.529107   -3102.7814 
  446600    449.01874   -3158.8845     53.51309   -3105.3714 
  446800     463.8644   -3160.5995    55.282363   -3105.3171 
  447000    442.17484   -3156.9202    52.697448   -3104.2227 
  447200    472.42623   -3156.7689    56.302744   -3100.4662 
  447400    452.54951   -3156.9042     53.93388   -3102.9703 
  447600    452.94864   -3160.1013    53.981447   -3106.1199 
  447800     448.2677   -3156.9661    53.423583   -3103.5425 
  448000    451.76696   -3156.4069    53.840617   -3102.5663 
  448200    433.00133   -3157.5196    51.604169   -3105.9154 
  448400    468.11769   -3161.2333    55.789262    -3105.444 
  448600    448.97703   -3158.6399    53.508119   -3105.1318 
  448800    456.78681   -3158.2302    54.438872   -3103.7913 
  449000    470.02811   -3159.6005    56.016942   -3103.5835 
  449200     452.7418   -3159.1573    53.956796   -3105.2005 
  449400    455.18826   -3158.8853     54.24836    -3104.637 
  449600    483.85432   -3159.0679    57.664719   -3101.4032 
  449800    453.22068   -3160.5191    54.013868   -3106.5052 
  450000     451.6278   -3159.6338    53.824032   -3105.8098 
  450200    477.21956   -3156.6831    56.874003   -3099.8091 
  450400     439.9942   -3159.2051    52.437564   -3106.7675 
  450600    436.57578   -3158.2488    52.030165   -3106.2186 
  450800    482.05622   -3156.6919    57.450425   -3099.2415 
  451000    444.69863   -3159.2158    52.998228   -3106.2176 
  451200    453.61178   -3159.0354    54.060479   -3104.9749 
  451400    473.54768   -3156.0256    56.436396   -3099.5892 
  451600    454.40709   -3160.1891    54.155262   -3106.0338 
  451800    446.53148   -3158.2256    53.216663   -3105.0089 
  452000    466.29841   -3156.2848    55.572444   -3100.7123 
  452200    453.32577   -3158.8912    54.026392   -3104.8648 
  452400    447.50565   -3157.1001    53.332763   -3103.7674 
  452600    447.44991   -3157.0485     53.32612   -3103.7223 
  452800     450.3602   -3157.4435    53.672962   -3103.7705 
  453000    477.81308   -3156.9395    56.944737   -3099.9947 
  453200    438.44093   -3159.4117    52.252449   -3107.1593 
  453400    437.27888   -3158.7128    52.113958   -3106.5988 
  453600    493.60801   -3158.3216    58.827143   -3099.4944 
  453800    452.21445   -3158.9157    53.893947   -3105.0217 
  454000    444.40927   -3157.6939    52.963743   -3104.7301 
  454200    463.35765    -3158.795     55.22197    -3103.573 
  454400    449.05908   -3158.8601    53.517898   -3105.3422 
  454600     465.1529   -3156.4048    55.435924   -3100.9689 
  454800    461.13392   -3158.4968    54.956951   -3103.5399 
  455000    442.76712   -3158.2459    52.768035   -3105.4779 
  455200    461.11401   -3155.7266    54.954578    -3100.772 
  455400    461.76034   -3157.6747    55.031606   -3102.6431 
  455600    461.80094   -3161.3525    55.036444    -3106.316 
  455800    468.92986   -3157.8167    55.886054   -3101.9306 
  456000     479.9891   -3157.8035    57.204071   -3100.5994 
  456200    459.13165   -3158.5114    54.718325   -3103.7931 
  456400    464.50473   -3158.8458    55.358676   -3103.4871 
  456600    455.11639   -3159.4831    54.239794   -3105.2433 
  456800     439.2148   -3155.5666    52.344677   -3103.2219 
  457000    490.18912   -3157.0195    58.419687   -3098.5998 
  457200    457.51553    -3160.293    54.525719   -3105.7673 
  457400    445.43914   -3160.2317     53.08648   -3107.1452 
  457600    470.93535   -3156.5338    56.125064   -3100.4087 
  457800    471.10074   -3157.3041    56.144775   -3101.1594 
  458000    450.16234   -3160.8366    53.649382   -3107.1872 
  458200    439.47573   -3157.0793    52.375774   -3104.7036 
  458400    464.87514   -3155.4021    55.402822   -3099.9993 
  458600    458.68844   -3157.1151    54.665503   -3102.4496 
  458800    453.95524   -3158.2213    54.101411   -3104.1199 
  459000    476.78847   -3159.5332    56.822626   -3102.7106 
  459200    458.77331   -3158.5493    54.675619   -3103.8737 
  459400    462.95518   -3157.1932    55.174005   -3102.0192 
  459600    458.15919   -3158.2963    54.602429   -3103.6939 
  459800    448.73426   -3160.2082    53.479186    -3106.729 
  460000    481.20306   -3158.5995    57.348748   -3101.2508 
  460200    455.28472   -3157.2319    54.259856    -3102.972 
  460400    449.79585   -3160.2175    53.605704   -3106.6118 
  460600    466.24194   -3157.9768    55.565713   -3102.4111 
  460800    464.19402   -3158.3075    55.321647   -3102.9858 
  461000     462.4151   -3159.5703     55.10964   -3104.4606 
  461200    463.33473   -3158.9695    55.219239   -3103.7502 
  461400    471.03021   -3159.3934     56.13637    -3103.257 
  461600    472.82127   -3160.0154    56.349824   -3103.6656 
  461800    477.47193   -3157.6577     56.90408   -3100.7536 
  462000    459.15189   -3159.4819    54.720737   -3104.7612 
  462200    468.42863   -3161.1935    55.826319   -3105.3671 
  462400    478.93301   -3157.3452    57.078208    -3100.267 
  462600    460.28935    -3156.878    54.856297   -3102.0218 
  462800    446.40092    -3159.625    53.201104   -3106.4239 
  463000    466.28745   -3157.9312    55.571137   -3102.3601 
  463200    467.24256   -3156.7313    55.684966   -3101.0463 
  463400    465.57714   -3159.9154    55.486484   -3104.4289 
  463600    459.91644   -3158.2725    54.811854   -3103.4607 
  463800    470.74783   -3156.9897    56.102717    -3100.887 
  464000    465.39659   -3159.3372    55.464967   -3103.8722 
  464200    427.82779   -3156.8669    50.987598   -3105.8793 
  464400    476.67467   -3158.7497    56.809064   -3101.9406 
  464600    458.61403   -3157.9713    54.656636   -3103.3147 
  464800    466.59615   -3160.1893    55.607928   -3104.5814 
  465000    449.39018   -3158.7414    53.557357    -3105.184 
  465200    475.29821   -3158.3176     56.64502   -3101.6726 
  465400    465.39535   -3158.0779    55.464819   -3102.6131 
  465600    440.21106   -3159.3522    52.463409   -3106.8888 
  465800    460.39211   -3158.0137    54.868544   -3103.1451 
  466000    467.25803   -3159.1848    55.686809    -3103.498 
  466200    457.96877   -3160.3322    54.579735   -3105.7525 
  466400    470.26568   -3157.5975    56.045254   -3101.5522 
  466600    462.61028   -3160.0082      55.1329   -3104.8753 
  466800    459.62633   -3161.1275     54.77728   -3106.3502 
  467000    488.57888    -3158.195    58.227782   -3099.9672 
  467200    483.91359   -3159.7085    57.671783   -3102.0367 
  467400    451.73715   -3162.4694    53.837064   -3108.6324 
  467600    467.04011   -3160.1516    55.660838   -3104.4908 
  467800    488.02112   -3156.1874    58.161309   -3098.0261 
  468000    451.91124   -3157.1161    53.857811   -3103.2583 
  468200     463.0948    -3161.071    55.190644   -3105.8803 
  468400    474.23989   -3158.8567    56.518892   -3102.3378 
  468600    465.72678   -3156.8335    55.504318   -3101.3292 
  468800    461.71837   -3157.8991    55.026604   -3102.8725 
  469000    452.77025   -3158.2727    53.960186   -3104.3126 
  469200     456.0303   -3157.8316    54.348712   -3103.4829 
  469400    467.99901   -3158.8408    55.775118   -3103.0657 
  469600     450.6793   -3157.3093    53.710991   -3103.5983 
  469800    457.31075   -3157.6932    54.501314   -3103.1919 
  470000    454.09189   -3158.3653    54.117697   -3104.2476 
  470200    452.18243   -3156.3213    53.890131   -3102.4312 
  470400    474.28925   -3158.8948    56.524775     -3102.37 
  470600    443.00008   -3155.3894    52.795799   -3102.5936 
  470800    458.91738   -3155.9071    54.692788   -3101.2143 
  471000    465.96845   -3159.6926     55.53312   -3104.1595 
  471200     449.1449   -3159.3104    53.528125   -3105.7823 
  471400    479.02635    -3156.185    57.089332   -3099.0957 
  471600    459.38085    -3156.884    54.748024    -3102.136 
  471800    457.90958   -3160.3786    54.572681    -3105.806 
  472000    467.48041   -3158.9737    55.713312   -3103.2604 
  472200    472.13673   -3158.3895    56.268242   -3102.1213 
  472400    469.44919   -3159.2862    55.947947   -3103.3383 
  472600    467.95827   -3157.5135    55.770262   -3101.7432 
  472800    481.20984   -3160.3558    57.349555   -3103.0063 
  473000    451.44944   -3158.6269    53.802776   -3104.8241 
  473200    494.83243   -3157.5081    58.973067   -3098.5351 
  473400     450.4364   -3157.8825    53.682044   -3104.2005 
  473600    463.25792   -3160.0209    55.210084   -3104.8108 
  473800     496.2198   -3156.8007    59.138411   -3097.6623 
  474000    470.19277   -3161.0205    56.036565    -3104.984 
  474200    457.09872   -3160.4668    54.476045   -3105.9907 
  474400     463.2554   -3155.0241    55.209784   -3099.8143 
  474600     460.7937   -3158.0728    54.916404   -3103.1564 
  474800    462.81002   -3156.5736    55.156705   -3101.4169 
  475000    472.28078   -3155.3877     56.28541   -3099.1023 
  475200    456.61848   -3160.2855     54.41881   -3105.8667 
  475400    476.48747   -3157.5029    56.786754   -3100.7162 
  475600    474.24945   -3157.5589    56.520031   -3101.0389 
  475800    449.30617   -3159.8619    53.547345   -3106.3146 
  476000    477.96118   -3156.5917    56.962388   -3099.6293 
  476200    476.06207   -3158.4859    56.736056   -3101.7499 
  476400    466.37829   -3161.8308    55.581963   -3106.2488 
  476600    459.88566   -3158.9631    54.808186   -3104.1549 
  476800    471.15423   -3156.0375     56.15115   -3099.8863 
  477000      482.129   -3156.9952    57.459099   -3099.5361 
  477200    461.26299   -3160.1069    54.972333   -3105.1346 
  477400    466.12294   -3158.9491    55.551532   -3103.3975 
  477600    470.39679   -3154.5059     56.06088    -3098.445 
  477800    475.32551   -3156.8737    56.648275   -3100.2254 
  478000    461.58608   -3160.8208    55.010839     -3105.81 
  478200    476.01961   -3160.5928    56.730995   -3103.8618 
  478400    498.44344    -3157.769     59.40342   -3098.3656 
  478600    460.24754   -3156.6498    54.851314   -3101.7985 
  478800    437.43348   -3158.7058    52.132383   -3106.5735 
  479000    470.56778   -3156.9323    56.081258    -3100.851 
  479200    484.99282   -3156.5332    57.800403   -3098.7328 
  479400    462.86798   -3157.9936    55.163612     -3102.83 
  479600    458.39584    -3159.189    54.630632   -3104.5584 
  479800    465.73925   -3157.7281    55.505804   -3102.2223 
  480000    463.52802   -3155.3644    55.242275   -3100.1221 
  480200    471.33249   -3159.2911    56.172394   -3103.1187 
  480400    468.91019   -3159.2823     55.88371   -3103.3986 
  480600    465.16531   -3159.7124    55.437403    -3104.275 
  480800    456.01105   -3156.8869    54.346418   -3102.5405 
  481000    463.87022   -3155.2187    55.283057   -3099.9356 
  481200    450.42034   -3159.6565    53.680129   -3105.9764 
  481400    467.86736   -3158.5809    55.759427   -3102.8214 
  481600     477.8068   -3156.5641    56.943989   -3099.6202 
  481800    460.60842   -3158.0534    54.894323   -3103.1591 
  482000    476.16699   -3158.3161     56.74856   -3101.5676 
  482200    468.12005   -3158.9065    55.789543    -3103.117 
  482400    457.32711   -3159.0302    54.503264    -3104.527 
  482600    492.00134   -3157.1715    58.635664   -3098.5358 
  482800    460.55178   -3159.1452    54.887572   -3104.2577 
  483000    443.28103   -3157.8918    52.829282   -3105.0626 
  483200    489.52717   -3157.5238    58.340798    -3099.183 
  483400    459.68438   -3160.5963    54.784197   -3105.8121 
  483600    475.05717    -3160.152    56.616293   -3103.5357 
  483800    500.10472   -3156.8642    59.601407   -3097.2628 
  484000    474.91322   -3159.1883    56.599138   -3102.5891 
  484200    473.53308   -3159.9908    56.434656   -3103.5561 
  484400    472.03246    -3157.846    56.255815   -3101.5902 
  484600    468.50213   -3158.3733    55.835079   -3102.5382 
  484800     469.9882   -3158.6113    56.012184   -3102.5991 
  485000    475.53018   -3159.3813    56.672667   -3102.7087 
  485200    466.25533   -3157.6686    55.567309   -3102.1013 
  485400    468.13143   -3157.2321    55.790899   -3101.4412 
  485600    468.71129   -3156.7813    55.860006   -3100.9213 
  485800     494.4641   -3159.3193     58.92917   -3100.3901 
  486000    459.76904   -3159.5569    54.794287   -3104.7626 
  486200    459.28781   -3158.7486    54.736936   -3104.0117 
  486400    456.18563   -3155.3181    54.367224   -3100.9509 
  486600    471.24965   -3158.1102    56.162522   -3101.9477 
  486800    475.37765   -3156.3854    56.654489   -3099.7309 
  487000    478.20076    -3160.535     56.99094   -3103.5441 
  487200    450.42962     -3160.44    53.681236   -3106.7587 
  487400    490.07425   -3156.3129    58.405998   -3097.9069 
  487600    470.87772   -3158.8992    56.118196    -3102.781 
  487800    454.46152   -3162.2349    54.161749   -3108.0731 
  488000    473.17309   -3158.0906    56.391753   -3101.6989 
  488200    482.86313   -3159.4468    57.546592   -3101.9003 
  488400    456.53993   -3160.5966    54.409449   -3106.1871 
  488600    474.39853   -3159.3902    56.537799   -3102.8524 
  488800    478.98678   -3157.0918    57.084616   -3100.0072 
  489000    466.54071   -3160.5344     55.60132   -3104.9331 
  489200     476.6512   -3160.1101    56.806267   -3103.3038 
  489400    488.86655   -3160.8014    58.262066   -3102.5393 
  489600    446.80921   -3157.3887    53.249763    -3104.139 
  489800     490.1698   -3156.9629    58.417384   -3098.5455 
  490000    469.30754   -3160.2926    55.931065   -3104.3616 
  490200    466.32377   -3162.5214    55.575466    -3106.946 
  490400    494.37647   -3157.0298    58.918727   -3098.1111 
  490600    466.35106   -3158.8076    55.578718   -3103.2289 
  490800    447.19262   -3160.0663    53.295456   -3106.7708 
  491000    484.65283   -3157.7205    57.759884   -3099.9607 
  491200     487.6582   -3159.3214    58.118058   -3101.2033 
  491400    466.22911   -3159.4914    55.564184   -3103.9273 
  491600    459.27257   -3155.9955     54.73512   -3101.2604 
  491800    475.56723   -3159.9132    56.677082   -3103.2361 
  492000    479.50115   -3159.9463    57.145918   -3102.8004 
  492200    464.17836   -3157.9286    55.319781   -3102.6088 
  492400    465.66792   -3158.6178    55.497303   -3103.1205 
  492600    480.18414   -3157.2691    57.227315   -3100.0418 
  492800    457.35191   -3157.1371     54.50622   -3102.6309 
  493000    470.24889   -3159.3966    56.043253   -3103.3534 
  493200    477.50655    -3159.377    56.908206   -3102.4688 
  493400    474.64059   -3157.3551    56.566647   -3100.7885 
  493600    464.30444   -3157.8497    55.334807   -3102.5149 
  493800    464.03478   -3159.9869    55.302669   -3104.6842 
  494000    495.10732   -3159.8961    59.005828   -3100.8903 
  494200    476.10566   -3157.5863    56.741251   -3100.8451 
  494400    463.45027   -3160.3648    55.233008   -3105.1318 
  494600    475.54251   -3158.6248    56.674136   -3101.9507 
  494800    477.15867   -3157.4277    56.866747    -3100.561 
  495000     476.1673   -3158.0118    56.748597   -3101.2632 
  495200    478.88027    -3160.312    57.071923   -3103.2401 
  495400    456.64736   -3157.7848    54.422252   -3103.3625 
  495600    493.25082   -3156.8211    58.784574   -3098.0366 
  495800    467.22034   -3156.4318    55.682317   -3100.7495 
  496000    470.85459   -3160.8185    56.115439   -3104.7031 
  496200     481.2283    -3159.164    57.351756   -3101.8122 
  496400     476.8674   -3159.3017    56.832033   -3102.4697 
  496600    456.55948   -3156.9684    54.411779   -3102.5566 
  496800    472.38108   -3157.4983    56.297363   -3101.2009 
  497000    465.16085    -3160.116    55.436872   -3104.6791 
  497200    459.61345    -3156.759    54.775745   -3101.9833 
  497400    477.85961   -3158.1453    56.950282    -3101.195 
  497600    452.94025   -3158.0976    53.980447   -3104.1172 
  497800    475.47843   -3155.8891    56.666499   -3099.2226 
  498000    476.21529   -3157.3068    56.754316   -3100.5525 
  498200    474.93352   -3161.5427    56.601557   -3104.9411 
  498400    471.74254   -3157.7901    56.221264   -3101.5688 
  498600    470.37149    -3154.954    56.057864   -3098.8961 
  498800    469.40669   -3159.1703    55.942882   -3103.2274 
  499000    487.02322   -3159.2808    58.042382   -3101.2384 
  499200    485.21034   -3159.7001    57.826327   -3101.8738 
  499400    479.08173   -3159.5197    57.095933   -3102.4238 
  499600    474.74882    -3155.646    56.579546   -3099.0665 
  499800    455.35812   -3159.0327    54.268603   -3104.7641 
  500000    458.89228   -3156.7946    54.689797   -3102.1049 
  500200    486.55808   -3154.7998    57.986947   -3096.8129 
  500400    463.74277   -3159.7833    55.267868   -3104.5154 
  500600    472.44244   -3160.2072    56.304676   -3103.9026 
  500800    486.99959   -3157.6673    58.039566   -3099.6277 
  501000    465.78786   -3159.2739    55.511597   -3103.7623 
  501200    474.07471   -3155.9783    56.499207   -3099.4791 
  501400    460.94924   -3156.0719    54.934941   -3101.1369 
  501600    458.44037   -3159.8761    54.635939   -3105.2402 
  501800    485.54237    -3157.688    57.865898   -3099.8221 
  502000    489.63043   -3158.6459    58.353103   -3100.2928 
  502200    456.39937   -3159.4092    54.392697   -3105.0165 
  502400    492.84516   -3157.9938    58.736229   -3099.2575 
  502600    477.20742   -3159.8395    56.872556   -3102.9669 
  502800    473.41828   -3160.0713    56.420974   -3103.6503 
  503000     505.2065   -3158.3026    60.209426   -3098.0932 
  503200    455.09795   -3157.8971    54.237597   -3103.6595 
  503400    470.52474   -3157.7786    56.076128   -3101.7025 
  503600    492.46682   -3157.8283    58.691139   -3099.1371 
  503800    437.56012   -3157.4296    52.147476   -3105.2821 
  504000    491.04471   -3158.7137    58.521655    -3100.192 
  504200    497.40217   -3159.6126    59.279323   -3100.3333 
  504400    438.38192   -3158.7535    52.245417   -3106.5081 
  504600     487.7509   -3157.7701    58.129106    -3099.641 
  504800    494.76915   -3156.1122    58.965525   -3097.1467 
  505000    474.00555   -3158.9183    56.490964   -3102.4274 
  505200     476.6945   -3160.4045    56.811427   -3103.5931 
  505400    475.31729   -3156.5376    56.647294   -3099.8903 
  505600     479.0368   -3157.6551    57.090578   -3100.5645 
  505800    451.30162   -3157.0014    53.785159   -3103.2162 
  506000    476.84026   -3156.4808    56.828799    -3099.652 
  506200    480.56813   -3154.8454    57.273078   -3097.5723 
  506400    468.78623   -3158.9356    55.868937   -3103.0667 
  506600    458.54947   -3158.5953    54.648941   -3103.9464 
  506800    495.13237   -3155.8173    59.008813   -3096.8084 
  507000    468.08555   -3155.7367    55.785431   -3099.9513 
  507200    479.21299   -3158.9215    57.111576   -3101.8099 
  507400    468.34024   -3157.3291    55.815785   -3101.5133 
  507600    473.78136   -3159.2689    56.464246   -3102.8046 
  507800    490.54155   -3157.5755     58.46169   -3099.1138 
  508000    491.50035   -3157.2536    58.575956   -3098.6776 
  508200    474.29638   -3160.1579    56.525625   -3103.6323 
  508400    471.36574   -3156.7308    56.176358   -3100.5544 
  508600    499.01448   -3157.0575    59.471474   -3097.5861 
  508800    478.72949   -3159.6182    57.053953   -3102.5642 
  509000    481.60602   -3159.9238    57.396772    -3102.527 
  509200    472.35204   -3156.9598    56.293902   -3100.6659 
  509400     478.2024    -3158.142    56.991136   -3101.1509 
  509600     475.7999   -3155.7277     56.70481   -3099.0229 
  509800    490.08597   -3158.7338    58.407394   -3100.3264 
  510000    459.03623   -3157.7757    54.706952   -3103.0688 
  510200     468.1581   -3156.6082    55.794078   -3100.8142 
  510400    486.84251   -3158.6057    58.020846   -3100.5849 
  510600    468.07403   -3157.1945    55.784058   -3101.4105 
  510800     497.1293   -3158.2722    59.246803   -3099.0254 
  511000    483.96965   -3156.9266    57.678465   -3099.2481 
  511200    472.53276   -3156.3835     56.31544   -3100.0681 
  511400    481.84336   -3159.7266    57.425057   -3102.3015 
  511600    469.75634   -3157.8733    55.984553   -3101.8887 
  511800    489.33419   -3156.2338    58.317799    -3097.916 
  512000    478.92733   -3157.2758    57.077531   -3100.1983 
  512200    472.17415   -3158.5512    56.272702   -3102.2785 
  512400    485.32265   -3159.5358    57.839712   -3101.6961 
  512600    489.19966   -3157.5503    58.301766   -3099.2486 
  512800    475.99971   -3158.4437    56.728624   -3101.7151 
  513000    453.52893    -3156.682    54.050604   -3102.6313 
  513200    486.99589   -3157.2228    58.039125   -3099.1837 
  513400    471.59912   -3156.1293    56.204171   -3099.9251 
  513600    471.72641   -3155.5208    56.219341   -3099.3015 
  513800    470.07787   -3156.2691    56.022871   -3100.2463 
  514000    472.16154   -3159.8427    56.271199   -3103.5715 
  514200     483.4561   -3157.7706    57.617261   -3100.1533 
  514400    503.05704   -3159.1431    59.953258   -3099.1899 
  514600    466.92539   -3157.8733    55.647166   -3102.2261 
  514800    466.03976   -3154.8537    55.541619   -3099.3121 
  515000    497.81748   -3157.8242    59.328818   -3098.4954 
  515200    459.82506   -3158.6018    54.800963   -3103.8008 
  515400    495.27349   -3156.5928    59.025632   -3097.5672 
  515600    476.87323   -3156.5276    56.832728   -3099.6948 
  515800    460.80348   -3157.9991    54.917569   -3103.0816 
  516000    510.71875   -3158.5659    60.866364   -3097.6995 
  516200    479.33389   -3156.5616    57.125984   -3099.4356 
  516400    462.23746   -3157.9114    55.088468   -3102.8229 
  516600    504.43567   -3157.2093     60.11756   -3097.0917 
  516800     464.6318   -3155.3858    55.373821    -3100.012 
  517000    484.87316   -3159.0559    57.786143   -3101.2698 
  517200    465.70162   -3155.0008     55.50132   -3099.4995 
  517400    474.17245   -3158.6126    56.510854   -3102.1018 
  517600    484.79921   -3155.2093    57.777329    -3097.432 
  517800    488.91442   -3158.2807    58.267771    -3100.013 
  518000    468.68413   -3158.7382    55.856768   -3102.8814 
  518200    496.44976   -3154.4423    59.165817   -3095.2764 
  518400    470.27885   -3154.5139    56.046824   -3098.4671 
  518600    472.70168   -3159.4009    56.335571   -3103.0653 
  518800    486.71255   -3157.4952    58.005357   -3099.4898 
  519000     479.6088   -3156.4325    57.158748   -3099.2738 
  519200    463.64081   -3156.3957    55.255716     -3101.14 
  519400    481.30547   -3157.3614    57.360953   -3100.0004 
  519600    469.45166   -3155.2182    55.948241     -3099.27 
  519800    478.94495   -3158.4654    57.079631   -3101.3858 
  520000    472.41801   -3156.7278    56.301764    -3100.426 
  520200    486.90223   -3156.8694    58.027962   -3098.8414 
  520400    470.25569   -3155.9304    56.044064   -3099.8863 
  520600    493.86609   -3159.9203    58.857901   -3101.0624 
  520800    485.35119   -3157.6582    57.843113   -3099.8151 
  521000    498.59254   -3157.2215    59.421189   -3097.8003 
  521200    489.83306   -3158.6146    58.377253   -3100.2374 
  521400    478.34009   -3155.2534    57.007545   -3098.2458 
  521600    495.08599   -3157.5611    59.003286   -3098.5578 
  521800    461.38027   -3159.5383     54.98631    -3104.552 
  522000    492.39502   -3155.4564    58.682581   -3096.7739 
  522200    481.81258   -3154.9657     57.42139   -3097.5443 
  522400    465.97519   -3159.5919    55.533923    -3104.058 
  522600    502.35741   -3157.6567    59.869878   -3097.7869 
  522800    463.68538   -3152.1488    55.261028   -3096.8877 
  523000     484.4732   -3157.8143    57.738476   -3100.0758 
  523200    485.15289   -3157.5283     57.81948   -3099.7089 
  523400    481.10912   -3157.5269    57.337552   -3100.1894 
  523600    477.13283   -3155.5179    56.863667   -3098.6542 
  523800    503.29532   -3156.8601    59.981656   -3096.8784 
  524000    472.40175   -3158.4419    56.299827    -3102.142 
  524200    482.68495   -3157.3448    57.525356   -3099.8194 
  524400      494.022   -3153.8702    58.876481   -3094.9937 
  524600    467.77671   -3156.3182    55.748624   -3100.5696 
  524800     485.8809   -3158.2409    57.906242   -3100.3347 
  525000    488.42461   -3155.9171    58.209397   -3097.7077 
  525200    480.74917   -3157.7587    57.294654   -3100.4641 
  525400    515.53664   -3157.2217     61.44055   -3095.7811 
  525600    484.40529   -3159.2286    57.730383   -3101.4982 
  525800    447.41668   -3158.0137    53.322159   -3104.6915 
  526000    520.91396   -3153.8303    62.081408   -3091.7489 
  526200    494.70117   -3155.1255    58.957424   -3096.1681 
  526400    452.70876    -3157.046    53.952858   -3103.0931 
  526600    504.47671    -3156.715    60.122452   -3096.5925 
  526800    507.45615   -3158.2293    60.477534   -3097.7517 
  527000    477.59559   -3158.3367    56.918818   -3101.4179 
  527200    496.74437   -3156.2402    59.200928   -3097.0393 
  527400    472.15529   -3155.9554    56.270454    -3099.685 
  527600    479.52167   -3155.1233    57.148364   -3097.9749 
  527800    485.81496   -3153.1738    57.898384   -3095.2754 
  528000    457.11898   -3157.2733    54.478459   -3102.7949 
  528200    489.94363   -3160.0022     58.39043   -3101.6118 
  528400    501.82464    -3155.539    59.806384   -3095.7327 
  528600    497.80388   -3157.4715    59.327198   -3098.1443 
  528800    483.91373   -3158.4188    57.671799    -3100.747 
  529000     478.3822   -3154.2806    57.012564   -3097.2681 
  529200     494.1874   -3156.5227    58.896193   -3097.6265 
  529400    477.16375    -3157.332    56.867352   -3100.4647 
  529600    480.77921   -3154.7872    57.298234    -3097.489 
  529800    467.61403   -3153.2383    55.729237    -3097.509 
  530000    470.80752   -3155.6515     56.10983   -3099.5417 
  530200    490.93215   -3155.6274     58.50824   -3097.1191 
  530400    488.95472   -3156.4251    58.272574   -3098.1525 
  530600    473.16613   -3161.4451    56.390923   -3105.0541 
  530800    498.70325   -3157.3805    59.434382   -3097.9461 
  531000    517.35133   -3157.1834    61.656821   -3095.5266 
  531200    486.59345   -3158.1794    57.991164   -3100.1882 
  531400    484.30563   -3157.6908    57.718506   -3099.9723 
  531600    496.07568    -3156.147    59.121235   -3097.0257 
  531800    510.70238   -3158.0334    60.864413    -3097.169 
  532000    467.90504   -3156.3147    55.763918   -3100.5508 
  532200    487.09344   -3156.0833     58.05075   -3098.0325 
  532400    494.55443   -3156.7876    58.939935   -3097.8476 
  532600     490.3742   -3157.9518    58.441745     -3099.51 
  532800    487.31242   -3158.7303    58.076849   -3100.6534 
  533000    474.01525   -3156.3715     56.49212   -3099.8794 
  533200    470.38051   -3153.4417     56.05894   -3097.3828 
  533400    497.00182   -3153.8802    59.231611   -3094.6486 
  533600    489.70247   -3158.1356    58.361689   -3099.7739 
  533800    492.00708   -3159.5955    58.636347   -3100.9591 
  534000    479.40678   -3153.3196    57.134671   -3096.1849 
  534200    507.94212   -3154.9782    60.535451   -3094.4427 
  534400    487.77487   -3159.2812    58.131962   -3101.1492 
  534600    460.75564   -3155.8183    54.911868   -3100.9064 
  534800    504.20948   -3154.2018    60.090604   -3094.1112 
  535000    462.86866   -3154.4212    55.163693   -3099.2575 
  535200    477.06799    -3157.876     56.85594   -3101.0201 
  535400    495.95889    -3155.154    59.107316   -3096.0467 
  535600    483.04272   -3153.4561    57.567995   -3095.8881 
  535800    466.16658   -3155.1156    55.556732   -3099.5589 
  536000    504.52003    -3156.567    60.127615   -3096.4394 
  536200    490.59755   -3157.1328    58.468363   -3098.6645 
  536400    468.74813   -3152.8693    55.864396   -3097.0049 
  536600    485.82841   -3155.2963    57.899987   -3097.3963 
  536800    469.38894   -3159.7808    55.940766   -3103.8401 
  537000    479.42109     -3154.23    57.136376   -3097.0936 
  537200    531.75675   -3156.0364    63.373628   -3092.6627 
  537400    456.26065    -3157.354    54.376165   -3102.9778 
  537600    483.13406    -3158.243    57.578881   -3100.6641 
  537800    499.79673   -3156.6914    59.564702   -3097.1267 
  538000    461.36569   -3155.8733    54.984572   -3100.8887 
  538200    505.53675   -3155.0016    60.248785   -3094.7528 
  538400    490.17947   -3157.6401    58.418538   -3099.2215 
  538600    470.02945   -3158.7865    56.017101   -3102.7694 
  538800    520.83335   -3154.3626    62.071801   -3092.2908 
  539000    468.12672   -3154.9939    55.790338   -3099.2035 
  539200     480.0036   -3159.5677    57.205799   -3102.3619 
  539400    496.71585   -3156.3217    59.197529   -3097.1242 
  539600    479.32595   -3152.8265    57.125038   -3095.7015 
  539800    487.83964    -3158.344    58.139681   -3100.2043 
  540000    507.37462   -3159.9017    60.467818   -3099.4339 
  540200    507.93819    -3158.522    60.534984    -3097.987 
  540400    492.06516   -3156.9181     58.64327   -3098.2748 
  540600    506.10467   -3156.6317    60.316469   -3096.3152 
  540800    477.47966   -3157.6647    56.905001   -3100.7597 
  541000    494.30481   -3156.4123    58.910187   -3097.5021 
  541200    501.58298   -3156.9091    59.777583   -3097.1315 
  541400    467.17677    -3156.193    55.677125   -3100.5159 
  541600    491.19607   -3155.5978    58.539694   -3097.0582 
  541800    499.69753    -3157.525    59.552879   -3097.9721 
  542000    471.30569   -3156.3744      56.1692   -3100.2052 
  542200     502.9458   -3155.9723    59.940001   -3096.0323 
  542400    489.93023   -3157.2044    58.388833   -3098.8156 
  542600     483.4163   -3155.2915    57.612517    -3097.679 
  542800    501.49087   -3154.0291    59.766606   -3094.2625 
  543000    472.54842   -3156.6663    56.317307    -3100.349 
  543200     472.7319   -3156.2996    56.339173   -3099.9604 
  543400    506.38189   -3154.5762    60.349507   -3094.2267 
  543600    487.73419   -3155.3179    58.127114   -3097.1908 
  543800    493.36895   -3157.1268    58.798652   -3098.3281 
  544000    481.00166   -3157.3383    57.324745   -3100.0135 
  544200    474.93081   -3154.6665    56.601234   -3098.0652 
  544400    494.17767    -3153.413    58.895034    -3094.518 
  544600    511.58542   -3159.1577    60.969652    -3098.188 
  544800    489.92892   -3161.4172    58.388677   -3103.0285 
  545000    487.19354    -3156.452     58.06268   -3098.3893 
  545200    507.55396   -3154.0345    60.489191   -3093.5454 
  545400      478.435   -3155.3895    57.018856   -3098.3707 
  545600    496.12845   -3158.6686    59.127524    -3099.541 
  545800    497.51731   -3157.1558    59.293045   -3097.8628 
  546000    517.18252   -3156.4981    61.636703   -3094.8614 
  546200    489.08391   -3157.1731    58.287971   -3098.8851 
  546400    486.75778   -3158.0962    58.010748   -3100.0854 
  546600    485.52076   -3153.3077    57.863323   -3095.4444 
  546800    493.67675   -3155.2289    58.835335   -3096.3936 
  547000    471.39598   -3156.6903    56.179962   -3100.5103 
  547200    495.36456   -3155.2411    59.036486   -3096.2046 
  547400    495.90254   -3155.8857      59.1006   -3096.7851 
  547600    463.99777   -3156.9874    55.298259   -3101.6891 
  547800    505.55184   -3157.1865    60.250583   -3096.9359 
  548000    513.56628   -3157.6789    61.205727   -3096.4732 
  548200    467.18303   -3154.5975    55.677871   -3098.9197 
  548400    501.82555   -3156.4434    59.806491   -3096.6369 
  548600    497.20177   -3156.5987    59.255439   -3097.3433 
  548800    495.86406   -3157.6717    59.096014   -3098.5756 
  549000    492.66616   -3157.3728    58.714896   -3098.6579 
  549200    488.07046   -3154.4361    58.167189   -3096.2689 
  549400    477.18106   -3152.1749    56.869415   -3095.3055 
  549600    496.62995   -3156.8981    59.187292   -3097.7108 
  549800    487.32537   -3157.2809    58.078392   -3099.2025 
  550000    490.64457   -3154.8119    58.473967   -3096.3379 
  550200    501.87686   -3155.4742    59.812607   -3095.6616 
  550400    467.99564   -3155.7443    55.774716   -3099.9696 
  550600    498.47592   -3157.4468    59.407291   -3098.0395 
  550800    484.79101   -3155.4254    57.776352    -3097.649 
  551000    499.53813   -3156.7716    59.533882   -3097.2377 
  551200    486.00297   -3154.9494    57.920791   -3097.0286 
  551400    462.88344   -3155.4294    55.165455    -3100.264 
  551600    489.09111     -3154.93    58.288829   -3096.6412 
  551800    527.60639   -3156.9141    62.878997   -3094.0352 
  552000    483.40162   -3157.5901    57.610768   -3099.9793 
  552200    500.87677   -3159.3778    59.693418   -3099.6844 
  552400    499.27408   -3154.7051    59.502414   -3095.2027 
  552600    473.03505   -3153.2602    56.375302   -3096.8849 
  552800    509.74185   -3156.5789     60.74994   -3095.8289 
  553000    503.19424   -3158.7682     59.96961   -3098.7986 
  553200    501.90205   -3157.3038    59.815609   -3097.4882 
  553400    501.52532   -3152.7596    59.770711   -3092.9889 
  553600    463.86437   -3153.9004     55.28236   -3098.6181 
  553800    490.38023   -3158.1318    58.442464   -3099.6893 
  554000    524.63804   -3157.0106    62.525236   -3094.4854 
  554200    507.17251    -3157.275    60.443731   -3096.8313 
  554400    488.76432   -3157.9726    58.249883   -3099.7228 
  554600    518.92609   -3156.5722    61.844498   -3094.7277 
  554800    463.90152   -3152.1785    55.286787   -3096.8917 
  555000    474.32051   -3155.6965    56.528501    -3099.168 
  555200    512.80792   -3155.7844    61.115348   -3094.6691 
  555400    500.64688    -3158.284    59.666021    -3098.618 
  555600    485.34037   -3155.2874    57.841823   -3097.4456 
  555800    513.22126   -3155.6056    61.164608    -3094.441 
  556000    486.02999   -3155.8288    57.924011   -3097.9048 
  556200    496.71231   -3155.6825    59.197107   -3096.4854 
  556400    496.52564   -3154.3656     59.17486   -3095.1907 
  556600    494.15689     -3155.86    58.892558   -3096.9674 
  556800    498.82183   -3155.8063    59.448515   -3096.3578 
  557000    491.17856    -3156.633    58.537607   -3098.0954 
  557200    493.28974   -3155.8472    58.789213    -3097.058 
  557400    527.38182    -3155.224    62.852233   -3092.3717 
  557600    485.91393   -3154.1582     57.91018   -3096.2481 
  557800    492.65497   -3155.8535    58.713562     -3097.14 
  558000    515.32219   -3155.3057    61.414993   -3093.8908 
  558200    480.77666   -3156.3107    57.297931   -3099.0128 
  558400     482.3221   -3154.9834    57.482113   -3097.5013 
  558600    500.41906   -3154.6757    59.638869   -3095.0368 
  558800    487.64387   -3157.6923     58.11635   -3099.5759 
  559000    518.11682   -3158.3463     61.74805   -3096.5983 
  559200    508.31962    -3156.034    60.580442   -3095.4535 
  559400    484.04458    -3157.303    57.687394   -3099.6156 
  559600    490.48188   -3154.9451    58.454578   -3096.4905 
  559800    495.94097   -3152.8575    59.105181   -3093.7524 
  560000    486.60465   -3154.0528    57.992498   -3096.0603 
  560200    468.19874   -3154.3695    55.798921   -3098.5706 
  560400     485.4693     -3153.86    57.857189   -3096.0029 
  560600     490.0544    -3153.463    58.403632   -3095.0594 
  560800    486.22264    -3154.807    57.946971     -3096.86 
  561000    493.35954   -3154.7698    58.797531   -3095.9722 
  561200    509.15101   -3155.4819    60.679525   -3094.8024 
  561400    489.79799   -3155.6299    58.373073   -3097.2568 
  561600    483.75615   -3154.9345     57.65302   -3097.2814 
  561800    516.62589   -3155.0196    61.570364   -3093.4492 
  562000    498.27523   -3157.0526    59.383373   -3097.6693 
  562200    476.74708   -3153.9809    56.817693   -3097.1632 
  562400    501.82976   -3151.9042    59.806994   -3092.0972 
  562600    492.33386    -3157.164    58.675292   -3098.4887 
  562800    498.73448    -3156.176    59.438105   -3096.7379 
  563000    508.32105   -3155.3606    60.580612     -3094.78 
  563200    484.21737   -3155.8686    57.707987   -3098.1606 
  563400    474.35331   -3154.4356    56.532409   -3097.9032 
  563600    503.41259    -3155.751    59.995632   -3095.7554 
  563800     489.2438   -3152.8272    58.307025   -3094.5202 
  564000    499.34687   -3153.8645    59.511088   -3094.3535 
  564200    476.54853   -3153.8831    56.794031    -3097.089 
  564400    492.93084   -3154.4135    58.746439   -3095.6671 
  564600    514.98433   -3156.2255    61.374727   -3094.8508 
  564800    485.64699   -3155.6058    57.878366   -3097.7275 
  565000    497.00879    -3155.565    59.232441   -3096.3326 
  565200    485.82766   -3152.7569    57.899898    -3094.857 
  565400    501.32752   -3156.0844    59.747138   -3096.3373 
  565600    509.55223   -3155.3803    60.727341   -3094.6529 
  565800    489.88915   -3155.2295    58.383937   -3096.8455 
  566000    478.36183   -3155.4341    57.010136    -3098.424 
  566200    513.86962   -3156.6378    61.241879   -3095.3959 
  566400    499.82097   -3156.9305    59.567591   -3097.3629 
  566600    493.32122   -3152.6977    58.792965   -3093.9047 
  566800    498.21927   -3153.7152    59.376703   -3094.3385 
  567000    478.06718   -3154.9706     56.97502   -3097.9956 
  567200    499.00957   -3154.9394     59.47089   -3095.4685 
  567400    511.28051   -3154.5148    60.933314   -3093.5815 
  567600    499.43204    -3156.298    59.521239   -3096.7768 
  567800    508.06761   -3157.3252    60.550408   -3096.7748 
  568000    489.95002   -3156.6776    58.391191   -3098.2864 
  568200    517.84508   -3156.5406    61.715665   -3094.8249 
  568400    522.23153   -3154.3941    62.238433   -3092.1557 
  568600    490.48909   -3156.2753    58.455438   -3097.8198 
  568800    511.84852   -3158.7334    61.001008   -3097.7324 
  569000    494.07969   -3153.2936    58.883357   -3094.4103 
  569200     488.5327   -3154.7432    58.222279   -3096.5209 
  569400    504.41374   -3155.7422    60.114947   -3095.6272 
  569600    503.95378   -3155.2058     60.06013   -3095.1457 
  569800    501.92286    -3156.513    59.818089   -3096.6949 
  570000     492.2107    -3153.943    58.660615   -3095.2824 
  570200    494.46393   -3154.5248     58.92915   -3095.5957 
  570400    498.19341   -3155.0871    59.373621   -3095.7135 
  570600    497.08631   -3155.9797    59.241679    -3096.738 
  570800    494.80744   -3155.5595    58.970089   -3096.5894 
  571000    509.01944   -3154.2203    60.663844   -3093.5565 
  571200    507.97114    -3156.909    60.538911   -3096.3701 
  571400    488.98105   -3158.6806    58.275713   -3100.4049 
  571600    526.03586   -3154.2709    62.691825   -3091.5791 
  571800    490.69286   -3152.8386    58.479722   -3094.3589 
  572000    497.06937   -3155.9541    59.239661   -3096.7144 
  572200    511.74442   -3154.1742    60.988602   -3093.1856 
  572400    505.86816   -3156.8287    60.288281   -3096.5404 
  572600    483.08869   -3152.9236    57.573473   -3095.3502 
  572800    509.36738   -3151.1606    60.705311   -3090.4553 
  573000    485.03471   -3153.7522    57.805395   -3095.9468 
  573200     497.6279   -3155.3322    59.306225    -3096.026 
  573400    519.38633    -3154.433    61.899348   -3092.5336 
  573600    497.60899   -3154.2383    59.303971   -3094.9343 
  573800    507.04299   -3155.4388    60.428295   -3095.0105 
  574000    524.93116   -3156.7678    62.560169   -3094.2077 
  574200    500.72212   -3157.1459    59.674988   -3097.4709 
  574400    511.10907   -3154.8469    60.912882    -3093.934 
  574600    500.59814    -3154.497    59.660212   -3094.8368 
  574800    488.91882   -3156.9821    58.268295   -3098.7138 
  575000    512.88618   -3154.8455    61.124675   -3093.7208 
  575200    513.94337   -3158.2323    61.250668   -3096.9817 
  575400    493.48091   -3155.5604    58.811996   -3096.7484 
  575600    515.35565   -3154.4308     61.41898   -3093.0118 
  575800    509.10983   -3154.5162    60.674617   -3093.8416 
  576000    483.71056   -3152.9311    57.647587   -3095.2835 
  576200    490.23425    -3155.943    58.425066   -3097.5179 
  576400     501.9028   -3154.9551    59.815698   -3095.1394 
  576600    525.45282   -3154.9597     62.62234   -3092.3373 
  576800    504.48563    -3154.402    60.123514   -3094.2785 
  577000    476.25351   -3154.6164    56.758871   -3097.8575 
  577200    518.68288   -3154.9716    61.815513   -3093.1561 
  577400    511.47395   -3152.5877    60.956367   -3091.6314 
  577600    483.50759   -3155.0904    57.623397    -3097.467 
  577800    488.19173   -3154.5297    58.181643    -3096.348 
  578000    506.88683   -3152.3892    60.409685   -3091.9795 
  578200    504.92173   -3155.1458    60.175488   -3094.9703 
  578400    489.40188   -3154.0687    58.325866   -3095.7428 
  578600    510.35292   -3156.0878    60.822766    -3095.265 
  578800    489.17898   -3152.5737      58.2993   -3094.2744 
  579000     509.5846    -3153.303    60.731199   -3092.5718 
  579200    483.85648   -3152.5422    57.664977   -3094.8772 
  579400    504.08853   -3156.4573    60.076189   -3096.3811 
  579600    502.19017   -3152.4006    59.849947   -3092.5507 
  579800    507.26184   -3149.6626    60.454377   -3089.2082 
  580000    507.29285   -3159.0542    60.458073   -3098.5961 
  580200    484.31479   -3157.2975    57.719598   -3099.5779 
  580400    534.52123   -3149.0749    63.703093   -3085.3718 
  580600    499.94597   -3153.4847    59.582487   -3093.9022 
  580800    480.84776   -3158.5713    57.306404   -3101.2649 
  581000    508.12135   -3150.6432    60.556812   -3090.0864 
  581200    494.48458   -3152.1433    58.931611   -3093.2117 
  581400    487.22648   -3155.9413    58.066606   -3097.8747 
  581600    521.03898   -3154.7332    62.096308   -3092.6369 
  581800    499.46103   -3154.2703    59.524693   -3094.7456 
  582000     514.1821   -3156.6716     61.27912   -3095.3924 
  582200    503.47889   -3153.9362    60.003533   -3093.9326 
  582400    502.66786   -3154.5534    59.906877   -3094.6465 
  582600    508.05922   -3152.4494    60.549408      -3091.9 
  582800    489.84712   -3153.8487    58.378929   -3095.4697 
  583000    494.63329   -3156.2342    58.949333   -3097.2849 
  583200    510.19195   -3152.6981    60.803581   -3091.8945 
  583400    494.03966   -3153.2885    58.878586   -3094.4099 
  583600    503.07731    -3157.032    59.955674   -3097.0764 
  583800      526.508   -3154.0262    62.748093   -3091.2781 
  584000    495.92985   -3154.5784    59.103855   -3095.4745 
  584200    501.12426   -3154.2465    59.722914   -3094.5236 
  584400     532.0636   -3153.9695    63.410197   -3090.5593 
  584600    476.67324   -3156.2168    56.808893    -3099.408 
  584800    511.24976   -3154.2939    60.929649   -3093.3642 
  585000    497.98928   -3151.4975    59.349294   -3092.1482 
  585200    496.20984   -3155.0626    59.137224   -3095.9254 
  585400    508.91559   -3153.9553    60.651467   -3093.3038 
  585600    502.19723   -3152.4218    59.850787    -3092.571 
  585800     518.0014   -3155.3524    61.734295   -3093.6181 
  586000    496.63196   -3157.6586    59.187531   -3098.4711 
  586200     508.9199   -3154.6431    60.651981   -3093.9911 
  586400    523.18665   -3153.1076    62.352262   -3090.7554 
  586600    479.16092    -3154.845     57.10537   -3097.7396 
  586800    502.17119   -3156.5219    59.847685   -3096.6742 
  587000    502.71967   -3151.8271    59.913051   -3091.9141 
  587200    512.06583   -3154.7568    61.026907   -3093.7299 
  587400    499.97589   -3154.9777    59.586053   -3095.3917 
  587600    500.93924   -3154.6041    59.700864   -3094.9033 
  587800    500.61799   -3153.5608    59.662578   -3093.8982 
  588000    511.29309   -3156.5088    60.934813    -3095.574 
  588200    509.76444   -3154.9277    60.752632    -3094.175 
  588400    515.79184    -3151.139    61.470964    -3089.668 
  588600    490.20394   -3154.5777    58.421454   -3096.1563 
  588800    502.05647   -3157.0463    59.834013   -3097.2122 
  589000    498.57806   -3152.4039    59.419463   -3092.9845 
  589200    519.14562   -3153.6299     61.87066   -3091.7592 
  589400    504.65138   -3153.7394    60.143269   -3093.5961 
  589600     507.9986   -3155.4039    60.542183   -3094.8617 
  589800     505.8557   -3155.8965    60.286796   -3095.6097 
  590000    505.29984   -3151.7868     60.22055   -3091.5663 
  590200    523.47192   -3152.8665     62.38626   -3090.4802 
  590400     500.0128   -3159.0433    59.590452   -3099.4528 
  590600    528.05409   -3158.4204    62.932353   -3095.4881 
  590800     523.3484   -3153.0665    62.371539    -3090.695 
  591000    506.26663    -3154.155     60.33577   -3093.8193 
  591200    516.00611   -3154.4707      61.4965   -3092.9742 
  591400    499.22944   -3154.2327    59.497094   -3094.7356 
  591600    511.99317   -3153.9392    61.018247    -3092.921 
  591800    507.33626   -3150.6486    60.463247   -3090.1853 
  592000    509.99574   -3154.8989    60.780198   -3094.1187 
  592200    501.35835   -3156.3674    59.750813   -3096.6166 
  592400    515.35205   -3152.9758    61.418551   -3091.5573 
  592600    491.48178   -3151.7963    58.573744   -3093.2225 
  592800    494.50058    -3153.623    58.933518   -3094.6895 
  593000    504.24267   -3153.0466     60.09456   -3092.9521 
  593200     499.7554    -3151.494    59.559776   -3091.9342 
  593400    522.60433    -3152.255    62.282863   -3089.9722 
  593600    505.02668   -3158.3408    60.187996   -3098.1528 
  593800    490.98154   -3154.2731    58.514127    -3095.759 
  594000    531.27062   -3149.5757    63.315693     -3086.26 
  594200    520.60231   -3153.6793    62.044265   -3091.6351 
  594400    473.83203   -3154.9511    56.470285   -3098.4808 
  594600    516.45342   -3153.1995    61.549811   -3091.6497 
  594800    518.02652   -3150.6106    61.737289   -3088.8733 
  595000    473.61267   -3151.6488    56.444142   -3095.2046 
  595200    504.87664    -3155.656    60.170114   -3095.4859 
  595400    493.91953   -3151.3819    58.864269   -3092.5176 
  595600    514.32242   -3152.0712    61.295842   -3090.7754 
  595800    510.46446   -3149.8901    60.836058   -3089.0541 
  596000    487.82367   -3153.6842    58.137777   -3095.5464 
  596200    489.98805   -3155.1063    58.395724   -3096.7105 
  596400    513.98424    -3150.424    61.255539   -3089.1685 
  596600    501.14699   -3150.7353    59.725623   -3091.0097 
  596800    521.02076   -3156.1847    62.094135   -3094.0905 
  597000    521.73418    -3153.856     62.17916   -3091.6769 
  597200    521.98835   -3152.2214    62.209451   -3090.0119 
  597400    494.59131   -3150.5463    58.944331   -3091.6019 
  597600    503.78907    -3152.557      60.0405   -3092.5165 
  597800    517.90572   -3153.5903    61.722892   -3091.8674 
  598000    508.59176   -3155.5963    60.612874   -3094.9834 
  598200    501.10117   -3155.2326    59.720162   -3095.5124 
  598400    528.18069   -3153.3461    62.947441   -3090.3986 
  598600    510.61697   -3155.4314    60.854235   -3094.5772 
  598800    511.34209   -3155.4586    60.940653    -3094.518 
  599000     497.4587    -3153.012    59.286061   -3093.7259 
  599200    496.04407   -3152.8617    59.117468   -3093.7443 
  599400    521.99504   -3153.5667    62.210249   -3091.3565 
  599600    515.77162    -3154.517    61.468555   -3093.0484 
  599800    513.07164   -3157.2173    61.146776   -3096.0705 
  600000    517.35128   -3155.6794    61.656815   -3094.0226 
  600200    522.14452   -3151.4167    62.228063   -3089.1886 
  600400    504.07187   -3151.3069    60.074204   -3091.2327 
  600600    494.39515   -3155.2474    58.920953   -3096.3265 
  600800     521.7778   -3153.7295    62.184358   -3091.5451 
  601000    501.54517   -3151.8246    59.773076   -3092.0515 
  601200    516.82825    -3154.933    61.594482   -3093.3385 
  601400    527.26602   -3156.6668    62.838433   -3093.8283 
  601600    530.74744   -3155.0673     63.25334    -3091.814 
  601800    522.32007    -3156.838    62.248984    -3094.589 
  602000    494.10864   -3153.1112    58.886808   -3094.2244 
  602200    509.91639   -3152.4862    60.770741   -3091.7155 
  602400    502.21997   -3153.0096    59.853498   -3093.1561 
  602600    508.31926   -3155.5553    60.580398   -3094.9749 
  602800    537.57763   -3155.4284    64.067348    -3091.361 
  603000    504.52331   -3151.8558    60.128006   -3091.7278 
  603200    510.02952   -3153.0464    60.784224   -3092.2622 
  603400    517.35569   -3155.7379    61.657341   -3094.0805 
  603600    499.84913   -3154.6874    59.570947   -3095.1165 
  603800    539.07792   -3152.5608    64.246149   -3088.3146 
  604000    527.98889   -3153.7983    62.924582   -3090.8737 
  604200    485.95144   -3156.0373     57.91465   -3098.1227 
  604400     522.3096   -3154.2215    62.247737   -3091.9738 
  604600    513.81414   -3149.9848    61.235267   -3088.7496 
  604800    513.16227   -3154.3631    61.157578   -3093.2055 
  605000    511.26955   -3153.5279    60.932008   -3092.5959 
  605200    500.96944    -3151.996    59.704462   -3092.2915 
  605400    522.59858   -3155.0844    62.282177   -3092.8023 
  605600    491.79982   -3152.7372    58.611648   -3094.1256 
  605800    534.43265   -3155.7502    63.692536   -3092.0577 
  606000    508.21163   -3153.7482    60.567572   -3093.1806 
  606200     512.9785   -3154.7663    61.135676   -3093.6306 
  606400    506.44839    -3155.235    60.357432   -3094.8776 
  606600     521.2852   -3153.3577    62.125651    -3091.232 
  606800    527.11893   -3153.7812    62.820903   -3090.9602 
  607000    498.87974   -3153.4043    59.455417   -3093.9489 
  607200    492.39919   -3150.9517    58.683079   -3092.2686 
  607400    511.34925   -3150.9137    60.941506   -3089.9721 
  607600    499.87101   -3152.6783    59.573554   -3093.1047 
  607800    514.11811   -3155.7845    61.271493    -3094.513 
  608000    512.28721   -3154.0745     61.05329   -3093.0212 
  608200    501.18717   -3150.5385    59.730412   -3090.8081 
  608400    508.00263   -3151.5491    60.542663   -3091.0065 
  608600     503.1617   -3154.5622    59.965732   -3094.5965 
  608800    499.48803     -3153.47    59.527911   -3093.9421 
  609000    502.47118   -3149.3971    59.883437   -3089.5136 
  609200    521.39155   -3152.9944    62.138326   -3090.8561 
  609400    527.38784   -3156.5424     62.85295   -3093.6894 
  609600    513.77535   -3154.8341    61.230644   -3093.6035 
  609800    508.44691   -3151.2413    60.595611   -3090.6457 
  610000    535.35731    -3153.569    63.802735   -3089.7663 
  610200    511.13067   -3155.5262    60.915457   -3094.6108 
  610400    539.63719   -3155.8348    64.312803    -3091.522 
  610600     510.6162   -3151.6996    60.854143   -3090.8455 
  610800    512.86984   -3154.4417    61.122727    -3093.319 
  611000     530.0405   -3153.6335     63.16909   -3090.4644 
  611200    503.43234   -3154.6241    59.997986   -3094.6261 
  611400     515.2618   -3152.5453    61.407796   -3091.1375 
  611600    518.93664   -3151.2425    61.845755   -3089.3967 
  611800    483.91955   -3155.7664    57.672493   -3098.0939 
  612000    503.15865   -3153.0448    59.965368   -3093.0794 
  612200    544.17839   -3150.0688    64.854013   -3085.2148 
  612400    512.38374   -3155.1428    61.064794    -3094.078 
  612600    534.03795   -3155.1886    63.645497   -3091.5431 
  612800    522.37755   -3153.1872    62.255835   -3090.9314 
  613000    491.49238   -3153.6582    58.575007   -3095.0832 
  613200    537.61928    -3154.048    64.072312   -3089.9757 
  613400    523.81097   -3153.9579    62.426667   -3091.5312 
  613600     501.8263   -3156.3798    59.806581   -3096.5732 
  613800    549.27732    -3154.355    65.461692   -3088.8933 
  614000    508.84835   -3152.0387    60.643455   -3091.3953 
  614200    494.73845   -3152.8951    58.961867   -3093.9332 
  614400    529.48531    -3154.908    63.102923   -3091.8051 
  614600    518.73199   -3154.1395    61.821365   -3092.3181 
  614800    511.53857   -3154.1259    60.964068   -3093.1618 
  615000    525.70053   -3156.4252    62.651861   -3093.7733 
  615200    494.15098   -3151.2537    58.891853   -3092.3618 
  615400    521.40215    -3152.114    62.139589   -3089.9744 
  615600    508.17962    -3155.519    60.563757   -3094.9553 
  615800     511.5391   -3153.7618    60.964132   -3092.7977 
  616000    508.36145   -3150.9453    60.585426   -3090.3599 
  616200     520.4883   -3155.4856    62.030678    -3093.455 
  616400     506.7509   -3152.4585    60.393485   -3092.0651 
  616600    520.70785   -3153.5847    62.056844   -3091.5279 
  616800    510.31022   -3151.8274    60.817677   -3091.0097 
  617000    511.39691   -3151.5967    60.947186   -3090.6495 
  617200     546.3378   -3154.8183    65.111367   -3089.7069 
  617400    517.46126   -3154.3213    61.669923   -3092.6514 
  617600    510.42075   -3154.1797     60.83085   -3093.3489 
  617800    522.55644   -3154.6064    62.277155   -3092.3292 
  618000    514.80925    -3153.627    61.353861   -3092.2732 
  618200    529.13831   -3152.2823    63.061568   -3089.2207 
  618400    505.26483    -3153.124    60.216378   -3092.9076 
  618600    514.48286   -3157.3892    61.314963   -3096.0742 
  618800    521.60445   -3152.6313    62.163699   -3090.4677 
  619000    548.59106   -3155.2673    65.379905   -3089.8874 
  619200    502.47998   -3153.9811    59.884485   -3094.0966 
  619400    532.53522   -3154.8738    63.466404   -3091.4074 
  619600    526.13315   -3152.5797    62.703419   -3089.8763 
  619800    496.40614   -3151.2118    59.160618   -3092.0512 
  620000    529.43606   -3151.3619    63.097054   -3088.2648 
  620200    498.02399   -3154.5499     59.35343   -3095.1965 
  620400    505.23531   -3153.6333     60.21286   -3093.4205 
  620600     531.4857   -3150.0838    63.341325   -3086.7424 
  620800    510.04217   -3154.2117    60.785731    -3093.426 
  621000    505.21293   -3153.3184    60.210193   -3093.1082 
  621200      540.103   -3151.4603    64.368316    -3087.092 
  621400    503.12161   -3152.0439    59.960954    -3092.083 
  621600    495.42359   -3152.0225     59.04352    -3092.979 
  621800    518.59055   -3152.4595    61.804508    -3090.655 
  622000    499.63674   -3151.9376    59.545634   -3092.3919 
  622200     536.5412   -3153.9533    63.943829   -3090.0095 
  622400    520.27455   -3153.1339    62.005204   -3091.1287 
  622600    505.52142   -3152.1408    60.246957   -3091.8939 
  622800    526.28626   -3152.8175    62.721667   -3090.0958 
  623000    518.20217   -3152.5305    61.758222   -3090.7723 
  623200    522.64698   -3152.6198    62.287946   -3090.3318 
  623400    530.10911   -3153.8734    63.177266   -3090.6962 
  623600    516.06691   -3154.4577    61.503747    -3092.954 
  623800    508.94969   -3150.9774    60.655532   -3090.3219 
  624000     506.5071   -3150.6085    60.364429    -3090.244 
  624200    509.37983   -3153.4111    60.706795   -3092.7043 
  624400    498.78859   -3152.1549    59.444553   -3092.7103 
  624600    534.88222   -3153.5373    63.746114   -3089.7912 
  624800    523.75789   -3152.4949    62.420341   -3090.0746 
  625000    512.93677   -3154.8111    61.130703   -3093.6804 
  625200    516.60435   -3152.2621    61.567798   -3090.6943 
  625400    523.50558   -3151.7639    62.390272   -3089.3736 
  625600    519.32213   -3151.9637    61.891697    -3090.072 
  625800    513.28789   -3151.6184    61.172549   -3090.4459 
  626000    529.79707   -3152.0286    63.140078   -3088.8885 
  626200    517.71402   -3150.5025    61.700045   -3088.8025 
  626400    535.65092    -3154.665    63.837727   -3090.8273 
  626600    504.63558   -3155.8454    60.141386   -3095.7041 
  626800    526.64334   -3150.8947    62.764223   -3088.1305 
  627000    529.04495   -3148.9529    63.050441   -3085.9025 
  627200    490.34669   -3153.9789    58.438466   -3095.5404 
  627400    535.20323    -3154.952    63.784372   -3091.1676 
  627600    536.13148   -3151.9073    63.894999   -3088.0123 
  627800    504.64591   -3150.7625    60.142616   -3090.6199 
  628000    516.53267   -3153.4236    61.559255   -3091.8643 
  628200    519.91052   -3153.3644     61.96182   -3091.4026 
  628400    521.87362   -3150.3481    62.195778   -3088.1524 
  628600    542.22066   -3153.7519    64.620695   -3089.1312 
  628800    520.26202   -3155.2244    62.003711   -3093.2207 
  629000    515.25922   -3153.8229    61.407488   -3092.4154 
  629200    531.94992   -3151.6668     63.39665   -3088.2702 
  629400    506.83632   -3151.3182    60.403665   -3090.9145 
  629600    535.25098   -3154.7555    63.790063   -3090.9655 
  629800    519.93763   -3153.1507     61.96505   -3091.1857 
  630000    512.90579   -3149.1862    61.127012   -3088.0592 
  630200    535.74131   -3151.1885      63.8485     -3087.34 
  630400    500.54872   -3152.3618    59.654322   -3092.7075 
  630600    512.11863   -3152.8703    61.033199   -3091.8371 
  630800    535.08649    -3152.895     63.77046   -3089.1245 
  631000    514.40951      -3151.6    61.306222   -3090.2938 
  631200    510.05436   -3152.1098    60.787184   -3091.3226 
  631400    509.89573   -3151.9479    60.768279   -3091.1796 
  631600     527.8349   -3151.1408     62.90623   -3088.2345 
  631800    521.86832   -3149.6665    62.195146   -3087.4714 
  632000    511.05873   -3150.7117    60.906882   -3089.8048 
  632200    515.38526    -3153.441    61.422509   -3092.0184 
  632400    520.40274   -3153.4579    62.020481   -3091.4374 
  632600    543.95668   -3153.3821     64.82759   -3088.5545 
  632800    514.69552     -3154.69    61.340308   -3093.3497 
  633000    505.55062   -3151.0415    60.250437    -3090.791 
  633200    527.65456   -3151.6433    62.884738   -3088.7586 
  633400    512.13858   -3153.9521    61.035576   -3092.9165 
  633600    534.06861   -3153.5287    63.649151   -3089.8795 
  633800    507.34243   -3153.5171    60.463981   -3093.0531 
  634000    525.89425   -3154.4918    62.674949   -3091.8169 
  634200    538.39533   -3148.5037      64.1648   -3084.3389 
  634400     523.4341   -3153.8653    62.381752   -3091.4836 
  634600    491.86368   -3152.5241    58.619258   -3093.9048 
  634800    534.32821    -3148.569    63.680089   -3084.8889 
  635000    538.56402   -3151.7321    64.184904   -3087.5472 
  635200    521.88227   -3153.9309    62.196809   -3091.7341 
  635400    534.86133   -3154.0192    63.743625   -3090.2755 
  635600     534.1315   -3153.4474    63.656646   -3089.7907 
  635800    547.95587   -3153.5619    65.304205   -3088.2577 
  636000    517.83255   -3154.7298    61.714171   -3093.0156 
  636200    532.70791   -3154.7732    63.486985   -3091.2862 
  636400    526.79853   -3150.3168    62.782718   -3087.5341 
  636600    492.54679   -3151.2073    58.700669   -3092.5067 
  636800    517.46238   -3151.6617    61.670056   -3089.9916 
  637000    509.88174   -3150.8204    60.766612   -3090.0538 
  637200    516.63609   -3150.6876    61.571581    -3089.116 
  637400    517.94431    -3149.055    61.727491   -3087.3275 
  637600    514.35483    -3153.997    61.299705   -3092.6973 
  637800    537.77239    -3152.446    64.090559   -3088.3555 
  638000    527.79294   -3151.3376     62.90123   -3088.4364 
  638200    508.43019   -3152.6327    60.593619    -3092.039 
  638400    538.91883   -3153.1072     64.22719     -3088.88 
  638600    515.06451    -3151.445    61.384283   -3090.0607 
  638800    535.25686   -3153.0612    63.790763   -3089.2705 
  639000    521.35836   -3150.5517     62.13437   -3088.4173 
  639200     524.9335   -3150.3513    62.560448   -3087.7909 
  639400    514.26284    -3153.637    61.288742   -3092.3482 
  639600    527.42373   -3151.5828    62.857228   -3088.7256 
  639800    520.62706   -3151.1561    62.047216   -3089.1089 
  640000    502.73457   -3153.1267    59.914827   -3093.2118 
  640200    547.89791   -3150.9242    65.297297   -3085.6269 
  640400    537.08339   -3153.0256    64.008446   -3089.0172 
  640600    511.59312   -3155.6587     60.97057   -3094.6882 
  640800    523.84062   -3150.6463    62.430201   -3088.2161 
  641000    530.41564   -3149.3552    63.213797   -3086.1414 
  641200    534.56089   -3152.4855    63.707819   -3088.7777 
  641400    530.21085    -3154.812    63.189391   -3091.6227 
  641600    510.76083   -3149.9616    60.871379   -3089.0902 
  641800    545.20026   -3150.4407    64.975797   -3085.4649 
  642000    523.56408   -3151.1975    62.397243   -3088.8002 
  642200    528.50565    -3154.494    62.986169   -3091.5078 
  642400    539.22084   -3155.3338    64.263183   -3091.0706 
  642600     530.8306   -3152.4729    63.263252   -3089.2096 
  642800    543.65938   -3154.8594    64.792158   -3090.0673 
  643000    524.77274   -3154.3272    62.541289   -3091.7859 
  643200    522.11801   -3153.4825    62.224904   -3091.2576 
  643400    536.18214   -3152.0277    63.901036   -3088.1267 
  643600    513.15707    -3152.836    61.156958    -3091.679 
  643800    533.75501   -3154.7138    63.611777    -3091.102 
  644000    515.95946   -3153.3378    61.490941   -3091.8469 
  644200    533.90472   -3152.5488    63.629618   -3088.9192 
  644400    533.14468   -3151.4193    63.539039   -3087.8802 
  644600    519.90287   -3153.2937    61.960908   -3091.3327 
  644800    511.74949   -3151.0556    60.989206   -3090.0664 
  645000    532.70699   -3152.9415    63.486876   -3089.4546 
  645200    533.06017   -3153.5371    63.528967   -3090.0082 
  645400    527.41574   -3151.8943    62.856276    -3089.038 
  645600    523.07454   -3150.8665    62.338901   -3088.5276 
  645800    519.34966   -3153.9762    61.894978   -3092.0813 
  646000    525.96805   -3150.7673    62.683743   -3088.0836 
  646200    550.65071   -3152.5738     65.62537   -3086.9484 
  646400    516.43734   -3156.6254    61.547894   -3095.0775 
  646600    537.45914   -3152.8199    64.053227   -3088.7667 
  646800    526.78384   -3150.4853    62.780968   -3087.7043 
  647000    507.60307   -3154.1931    60.495045   -3093.6981 
  647200     563.6115   -3155.6299    67.170009   -3088.4599 
  647400    524.10868   -3152.6892    62.462147   -3090.2271 
  647600    497.52932   -3149.4417    59.294477   -3090.1473 
  647800    522.90109   -3149.2648     62.31823   -3086.9466 
  648000    510.51791   -3153.1245    60.842429    -3092.282 
  648200    526.03707   -3153.2212    62.691969   -3090.5292 
  648400     533.4678   -3149.6659    63.577548   -3086.0883 
  648600    524.20489   -3152.5273    62.473613   -3090.0537 
  648800    515.19519   -3152.5678    61.399857   -3091.1679 
  649000    508.47465   -3149.7913    60.598918   -3089.1923 
  649200    541.16822   -3152.5174    64.495267   -3088.0222 
  649400    501.21152   -3151.2495    59.733313   -3091.5162 
  649600    524.24182    -3152.439    62.478015    -3089.961 
  649800    522.02834   -3151.3434    62.214217   -3089.1292 
  650000    515.59098   -3152.8276    61.447026   -3091.3806 
  650200    552.21906   -3155.9778    65.812282   -3090.1655 
  650400    526.46091   -3152.4515    62.742481    -3089.709 
  650600    543.28154   -3154.1389    64.747128   -3089.3918 
  650800    518.25611   -3152.5576    61.764651    -3090.793 
  651000    522.06354   -3151.2606    62.218412   -3089.0422 
  651200    516.40998   -3151.0924    61.544633   -3089.5478 
  651400    521.52506   -3153.6205    62.154237   -3091.4662 
  651600    535.53283   -3155.0806    63.823654    -3091.257 
  651800    513.94858   -3152.4212    61.251289   -3091.1699 
  652000     550.3958   -3151.9438    65.594991   -3086.3488 
  652200    517.90865   -3152.7047    61.723241   -3090.9814 
  652400    519.48216    -3156.532    61.910769   -3094.6213 
  652600    550.78684    -3152.499    65.641594   -3086.8574 
  652800    519.51303   -3150.7704    61.914447   -3088.8559 
  653000     520.3167   -3154.7048    62.010227   -3092.6945 
  653200    535.26053   -3153.1987    63.791201   -3089.4075 
  653400    501.29925   -3150.0106    59.743769   -3090.2668 
  653600    527.89967   -3150.3311    62.913949   -3087.4172 
  653800     524.5001    -3152.604    62.508797   -3090.0952 
  654000    500.16352   -3153.8808    59.608415   -3094.2723 
  654200    556.16706   -3149.6247    66.282797   -3083.3419 
  654400    544.97787   -3150.3474    64.949293   -3085.3981 
  654600    505.45889   -3155.5798    60.239505   -3095.3403 
  654800    554.23937   -3155.4047    66.053059   -3089.3516 
  655000    543.64223   -3150.7427    64.790114   -3085.9525 
  655200    510.55085   -3149.4337    60.846355   -3088.5873 
  655400    525.91252   -3152.5809    62.677125   -3089.9037 
  655600    515.65594   -3154.4243    61.454768   -3092.9696 
  655800    534.41204   -3148.8353     63.69008   -3085.1452 
  656000    542.35923   -3150.5002    64.637209    -3085.863 
  656200    497.00806   -3154.2562    59.232354   -3095.0238 
  656400    541.65204   -3153.0342    64.552928   -3088.4813 
  656600    533.72109   -3150.7353    63.607734   -3087.1276 
  656800     527.8254   -3153.2052    62.905098   -3090.3001 
  657000    528.27253   -3151.8553    62.958387    -3088.897 
  657200    544.58681   -3153.1606    64.902687   -3088.2579 
  657400    515.49009   -3151.0457    61.435003   -3089.6107 
  657600    526.26147   -3151.3838    62.718712   -3088.6651 
  657800    539.31706   -3155.5007     64.27465    -3091.226 
  658000    528.27083   -3153.1674    62.958184   -3090.2092 
  658200    535.31763   -3151.1259    63.798006   -3087.3278 
  658400    536.08999   -3152.9953    63.890054   -3089.1053 
  658600     525.7435   -3153.8928    62.656982   -3091.2358 
  658800    537.61891    -3151.825    64.072268   -3087.7527 
  659000    513.78566   -3149.4597    61.231872   -3088.2278 
  659200     528.8616   -3153.4567    63.028591   -3090.4281 
  659400    514.73619   -3152.4414    61.345155   -3091.0963 
  659600    533.08119   -3150.8596    63.531472   -3087.3282 
  659800    516.95734   -3150.2088    61.609866   -3088.5989 
  660000    527.22224   -3152.7179    62.833215   -3089.8847 
  660200     527.4387   -3152.6125    62.859012   -3089.7535 
  660400    545.48662   -3152.2598    65.009924   -3087.2499 
  660600    517.96505   -3149.3563    61.729963   -3087.6263 
  660800    498.07782    -3151.891    59.359845   -3092.5311 
  661000    511.13756   -3151.2249    60.916277   -3090.3087 
  661200    546.42884   -3148.8591    65.122217   -3083.7369 
  661400     513.3175    -3150.171    61.176078   -3088.9949 
  661600    522.79915   -3153.1052    62.306081   -3090.7991 
  661800    550.17673   -3154.0492    65.568882   -3088.4803 
  662000    527.30823   -3153.1411    62.843463   -3090.2977 
  662200    533.39217   -3152.6425    63.568534   -3089.0739 
  662400    512.64221   -3150.5548    61.095598   -3089.4592 
  662600    513.72027   -3150.7107    61.224079   -3089.4866 
  662800    552.87101   -3152.7343     65.88998   -3086.8444 
  663000    523.82923   -3153.6846    62.428844   -3091.2557 
  663200     519.2506   -3150.8525    61.883171   -3088.9693 
  663400    530.82779   -3149.4837    63.262916   -3086.2208 
  663600     498.2722   -3149.2695    59.383011   -3089.8864 
  663800    523.16226   -3151.9776    62.349356   -3089.6283 
  664000    537.69531   -3151.0582    64.081373   -3086.9768 
  664200    530.13186   -3151.3784    63.179978   -3088.1984 
  664400    534.53799    -3151.457    63.705091   -3087.7519 
  664600      545.489   -3153.6597    65.010208   -3088.6495 
  664800    512.99197   -3151.3695    61.137282   -3090.2322 
  665000    546.43105   -3150.5747    65.122479   -3085.4523 
  665200    518.66224   -3152.0925    61.813052   -3090.2795 
  665400    518.14008   -3151.9461    61.750822   -3090.1953 
  665600    553.69394   -3150.3409    65.988056   -3084.3528 
  665800    542.59617   -3151.5262    64.665447   -3086.8607 
  666000    535.27666   -3152.9345    63.793123   -3089.1414 
  666200    537.16056   -3152.2149    64.017642   -3088.1972 
  666400    525.36812   -3151.7878    62.612245   -3089.1755 
  666600    524.27183   -3149.4422    62.481592   -3086.9606 
  666800    533.90487   -3151.3828    63.629636   -3087.7532 
  667000    541.84308   -3155.4635    64.575695   -3090.8878 
  667200    548.24613   -3151.5122    65.338797   -3086.1734 
  667400    541.56817   -3151.2491    64.542933   -3086.7061 
  667600    532.75636    -3154.676     63.49276   -3091.1832 
  667800    550.21366   -3153.6896    65.573284   -3088.1163 
  668000     526.2762   -3151.0946    62.720467   -3088.3741 
  668200    535.26171   -3151.6679    63.791342   -3087.8766 
  668400    538.45113   -3153.4309    64.171449   -3089.2594 
  668600    513.40584   -3150.9115    61.186606   -3089.7249 
  668800    559.50793   -3148.5044    66.680954   -3081.8234 
  669000     542.8042   -3154.9832     64.69024   -3090.2929 
  669200    493.03353   -3153.3558    58.758678   -3094.5971 
  669400     569.5834   -3147.8051    67.881727   -3079.9234 
  669600    519.43953   -3148.6019    61.905688   -3086.6962 
  669800    520.00876   -3154.9645    61.973528    -3092.991 
  670000    541.37252   -3150.4525    64.519615   -3085.9329 
  670200     531.1335   -3150.9377     63.29935   -3087.6383 
  670400    534.79427   -3150.6113    63.735633   -3086.8756 
  670600    551.89676   -3150.1818    65.773871   -3084.4079 
  670800     523.0964   -3151.3437    62.341506   -3089.0022 
  671000    552.87443    -3150.932    65.890388   -3085.0416 
  671200    535.70622   -3152.1718    63.844317   -3088.3275 
  671400    521.41797   -3152.0738    62.141474   -3089.9324 
  671600    546.51095    -3150.337    65.132002    -3085.205 
  671800     529.6066    -3152.483    63.117378   -3089.3657 
  672000    538.20774   -3153.3022    64.142443   -3089.1598 
  672200    544.18122   -3150.3199     64.85435   -3085.4656 
  672400    521.65842   -3152.1209    62.170131   -3089.9507 
  672600    552.45923   -3153.3722    65.840906   -3087.5313 
  672800    528.91952   -3152.5733    63.035493   -3089.5378 
  673000    519.11213   -3153.8768    61.866669   -3092.0101 
  673200    563.36907   -3153.8147    67.141116   -3086.6736 
  673400    521.19256   -3151.4056    62.114611   -3089.2909 
  673600    514.50496   -3152.6739    61.317597   -3091.3563 
  673800    536.37362   -3149.1619    63.923857   -3085.2381 
  674000    543.31048   -3153.4035    64.750577    -3088.653 
  674200    532.10611   -3156.4784    63.415264   -3093.0631 
  674400    555.33854   -3151.8236    66.184056   -3085.6396 
  674600    535.99339   -3153.4806    63.878542   -3089.6021 
  674800    529.91195   -3154.4939    63.153769   -3091.3402 
  675000    540.48965   -3151.1585    64.414396   -3086.7441 
  675200    530.74589   -3152.7752    63.253156   -3089.5221 
  675400     551.1722   -3155.4534     65.68752   -3089.7659 
  675600    531.41714   -3150.5549    63.333154   -3087.2217 
  675800    513.80813   -3150.7027     61.23455   -3089.4681 
  676000    559.59619   -3153.1576    66.691472   -3086.4661 
  676200    539.52498   -3154.0731     64.29943   -3089.7737 
  676400    522.24516   -3152.7511    62.240058    -3090.511 
  676600    544.74147   -3149.1584     64.92112   -3084.2373 
  676800    518.96839   -3151.7189    61.849539   -3089.8694 
  677000    521.78246   -3153.0188    62.184914   -3090.8338 
  677200    547.82969   -3151.7705    65.289166   -3086.4813 
  677400    521.73258   -3150.6614    62.178969   -3088.4824 
  677600    540.18845   -3151.1998      64.3785   -3086.8213 
  677800    551.85823   -3153.3045     65.76928   -3087.5353 
  678000    522.41456   -3153.4438    62.260246   -3091.1835 
  678200    546.60085     -3152.06    65.142716   -3086.9173 
  678400    548.18654   -3152.1711    65.331695   -3086.8394 
  678600    532.92179   -3154.8687    63.512475   -3091.3562 
  678800    551.14715   -3157.2108    65.684534   -3091.5262 
  679000     535.0176   -3152.6418    63.762249   -3088.8796 
  679200     533.1407   -3150.0182    63.538564   -3086.4796 
  679400     535.3491    -3151.876    63.801757   -3088.0742 
  679600    507.83794   -3154.2572    60.523036   -3093.7341 
  679800    548.06028   -3153.0088    65.316648   -3087.6922 
  680000    535.18181   -3148.8542     63.78182   -3085.0723 
  680200    546.72555   -3154.3073    65.157577   -3089.1497 
  680400     527.2549   -3153.8981    62.837108    -3091.061 
  680600    543.84936    -3151.551      64.8148   -3086.7362 
  680800    532.01505   -3149.7559    63.404412   -3086.3515 
  681000    524.75511   -3152.9452    62.539187    -3090.406 
  681200    519.44342   -3154.9856    61.906152   -3093.0794 
  681400    548.14317    -3149.274    65.326526   -3083.9475 
  681600    529.85345   -3148.1377    63.146798   -3084.9909 
  681800    511.61055   -3156.3302    60.972647   -3095.3576 
  682000      546.548   -3154.1927    65.136417   -3089.0562 
  682200    565.87067   -3151.7624    67.439252   -3084.3232 
  682400     519.3076   -3152.4762    61.889965   -3090.5862 
  682600    529.99257   -3153.3955    63.163377   -3090.2321 
  682800    522.46146   -3151.4487    62.265836   -3089.1829 
  683000    540.98345   -3151.8624    64.473247   -3087.3891 
  683200    555.13506   -3152.5042    66.159805   -3086.3444 
  683400    528.38381   -3155.7938    62.971648   -3092.8222 
  683600    538.65804   -3156.3965    64.196109   -3092.2004 
  683800    550.48168   -3151.6599    65.605226   -3086.0547 
  684000     527.7195    -3154.197    62.892477   -3091.3045 
  684200    537.08955   -3152.6793    64.009179   -3088.6701 
  684400    539.40333   -3151.5621    64.284931   -3087.2772 
  684600    521.83919   -3152.1658    62.191675   -3089.9741 
  684800    521.98894   -3152.5243    62.209522   -3090.3148 
  685000    537.62708   -3149.9858    64.073241   -3085.9126 
  685200    543.51735   -3151.6644    64.775231   -3086.8891 
  685400    544.86709   -3154.8762    64.936091   -3089.9401 
  685600    568.50655   -3153.2002     67.75339   -3085.4468 
  685800    525.63246   -3151.8085    62.643749   -3089.1648 
  686000    538.92154   -3151.7699    64.227512   -3087.5424 
  686200    541.30166   -3150.6331     64.51117   -3086.1219 
  686400    547.73569   -3154.4461    65.277964   -3089.1681 
  686600    555.61797   -3154.4093    66.217357    -3088.192 
  686800    535.02948   -3152.5066    63.763665    -3088.743 
  687000    542.05771   -3152.1433    64.601274    -3087.542 
  687200    552.10722   -3155.5553    65.798954   -3089.7564 
  687400    528.37753   -3155.1081      62.9709   -3092.1372 
  687600    539.70163   -3152.5502    64.320482   -3088.2297 
  687800    560.62164    -3154.899    66.813683   -3088.0853 
  688000    547.86131   -3156.7027    65.292935   -3091.4098 
  688200    548.69205   -3155.6582    65.391941   -3090.2662 
  688400     568.1884   -3155.0107    67.715474   -3087.2953 
  688600    525.57326   -3154.6543    62.636693   -3092.0176 
  688800    524.15999   -3152.7375    62.468263   -3090.2692 
  689000    553.48358   -3149.7405    65.962985   -3083.7775 
  689200     531.2424   -3151.3874    63.312329   -3088.0751 
  689400    530.21797   -3154.8589     63.19024   -3091.6687 
  689600    540.25737   -3154.7128    64.386713   -3090.3261 
  689800    566.21402   -3153.8131    67.480172   -3086.3329 
  690000    532.20284   -3154.5754    63.426793   -3091.1486 
  690200    555.85203   -3155.8597    66.245252   -3089.6144 
  690400    557.73585    -3154.787    66.469762   -3088.3172 
  690600    539.65137   -3153.7872    64.314492   -3089.4728 
  690800    548.59024   -3155.2974    65.379807   -3089.9176 
  691000    539.08971   -3151.3182    64.247555   -3087.0706 
  691200    548.89346   -3152.5353    65.415945   -3087.1193 
  691400    532.19229   -3152.4394    63.425534   -3089.0139 
  691600    552.20978   -3153.5497    65.811177   -3087.7385 
  691800    534.41477   -3154.9986    63.690405   -3091.3082 
  692000    544.62669   -3153.4483     64.90744   -3088.5408 
  692200    537.30038   -3154.3463    64.034306    -3090.312 
  692400    538.59006   -3155.1197    64.188008   -3090.9317 
  692600    569.44468   -3153.2669    67.865195   -3085.4017 
  692800    535.10254   -3154.2225    63.772372   -3090.4501 
  693000    527.23598   -3154.7819    62.834853    -3091.947 
  693200    553.88017   -3154.3396     66.01025   -3088.3294 
  693400    527.54675   -3152.6579    62.871889    -3089.786 
  693600    528.30338   -3148.5226    62.962063   -3085.5606 
  693800    555.09387    -3153.775    66.154897   -3087.6201 
  694000    508.46335   -3153.0803    60.597571   -3092.4827 
  694200    563.80171   -3152.1948    67.192678   -3085.0021 
  694400    543.73737   -3150.7073    64.801453   -3085.9059 
  694600    529.99727   -3154.1357    63.163937   -3090.9717 
  694800    555.60554   -3153.3414    66.215876   -3087.1256 
  695000    534.66022   -3152.8123    63.719657   -3089.0926 
  695200    556.65356   -3154.6219    66.340776   -3088.2811 
  695400    562.81567   -3152.8419    67.075164   -3085.7668 
  695600    531.45626   -3155.8609    63.337816   -3092.5231 
  695800    545.20876   -3152.3952    64.976809   -3087.4184 
  696000    569.34435   -3152.5851    67.853238   -3084.7319 
  696200    524.23928    -3152.542    62.477713   -3090.0643 
  696400     535.6513   -3153.0668    63.837772    -3089.229 
  696600    537.28922   -3153.2192    64.032976   -3089.1862 
  696800     555.7784   -3151.7783    66.236477   -3085.5419 
  697000    542.56303   -3152.9972    64.661497   -3088.3357 
  697200     527.3026   -3155.0152    62.842792   -3092.1724 
  697400    550.39186   -3153.4335     65.59452    -3087.839 
  697600    553.75454   -3153.6974    65.995278   -3087.7021 
  697800    532.87249   -3156.2901      63.5066   -3092.7835 
  698000    557.93846   -3154.6795    66.493908   -3088.1856 
  698200    568.90545   -3154.8158     67.80093   -3087.0149 
  698400    551.35056   -3155.8028    65.708776    -3090.094 
  698600    547.18744   -3154.5255    65.212625   -3089.3129 
  698800    551.95001   -3153.2822    65.780218    -3087.502 
  699000    540.50161   -3154.0001    64.415822   -3089.5843 
  699200    563.30897   -3154.9027    67.133954   -3087.7688 
  699400    542.01072   -3153.3863    64.595674   -3088.7907 
  699600    542.11658   -3154.2323    64.608291    -3089.624 
  699800     543.3111   -3150.3469     64.75065   -3085.5963 
  700000    551.80487   -3151.8959    65.762921    -3086.133 
  700200    552.34792   -3154.9016    65.827639    -3089.074 
  700400    535.21727   -3152.6843    63.786046   -3088.8982 
  700600    559.78908   -3153.1717    66.714461   -3086.4573 
  700800    514.47789   -3148.0925    61.314371   -3086.7782 
  701000    545.08229   -3153.1137    64.961738   -3088.1519 
  701200    515.56438   -3149.7094    61.443856   -3088.2655 
  701400    560.74853   -3152.5167    66.828806   -3085.6879 
  701600    539.67666   -3154.0607    64.317505   -3089.7432 
  701800    545.18971   -3153.5817    64.974539   -3088.6071 
  702000    566.38223   -3152.2498    67.500218   -3084.7496 
  702200    551.93296   -3155.3362    65.778185    -3089.558 
  702400    554.52412   -3157.9401    66.086995   -3091.8531 
  702600    547.61212   -3151.9521    65.263237   -3086.6888 
  702800    586.43873   -3154.0259     69.89051   -3084.1354 
  703000    541.29397   -3156.6421    64.510254   -3092.1319 
  703200    540.59178   -3155.3302    64.426568   -3090.9037 
  703400    512.23479   -3148.4162    61.047043   -3087.3692 
  703600    558.37002   -3151.4161     66.54534   -3084.8708 
  703800    544.71622   -3152.9482     64.91811   -3088.0301 
  704000    523.64686   -3156.1832    62.407109    -3093.776 
  704200    560.47775   -3152.6464    66.796535   -3085.8499 
  704400    558.30641   -3152.1977     66.53776     -3085.66 
  704600    546.95095   -3155.2533    65.184441   -3090.0689 
  704800    555.04377   -3155.2276    66.148925   -3089.0787 
  705000    550.09297   -3152.5673    65.558899   -3087.0084 
  705200    543.72813   -3153.5415    64.800352   -3088.7411 
  705400    550.14344   -3154.2986    65.564915   -3088.7336 
  705600    534.78779   -3152.2825    63.734861   -3088.5476 
  705800    567.26891   -3153.4197    67.605892   -3085.8138 
  706000    559.34028   -3150.8007    66.660973   -3084.1398 
  706200    528.84845   -3153.7208    63.027023   -3090.6938 
  706400    524.55231   -3155.5883    62.515018   -3093.0733 
  706600    585.46931   -3150.1712    69.774975   -3080.3962 
  706800    523.60713    -3150.946    62.402375   -3088.5437 
  707000    546.42718   -3154.9542    65.122019   -3089.8321 
  707200    552.44938   -3152.7802    65.839732   -3086.9405 
  707400    531.71546   -3151.6708    63.368708   -3088.3021 
  707600    550.68607   -3151.0692    65.629584   -3085.4396 
  707800    541.37728   -3155.7323    64.520182   -3091.2121 
  708000    530.76927   -3153.8102    63.255943   -3090.5542 
  708200    564.47375   -3147.6992     67.27277   -3080.4265 
  708400    550.29642   -3151.0033    65.583147   -3085.4201 
  708600    530.91316   -3155.9901    63.273091    -3092.717 
  708800    542.82305   -3152.0648    64.692486   -3087.3723 
  709000    556.92494   -3152.6522     66.37312   -3086.2791 
  709200    544.81275   -3152.2055    64.929614   -3087.2759 
  709400    565.14612   -3154.3815    67.352902   -3087.0285 
  709600    557.16972   -3153.7394    66.402291   -3087.3371 
  709800    553.90997    -3153.732    66.013802   -3087.7182 
  710000    548.32581   -3152.2312    65.348293   -3086.8829 
  710200    544.62759   -3153.5073    64.907547   -3088.5998 
  710400    559.21904   -3152.3296    66.646525   -3085.6831 
  710600    547.68622   -3150.1163    65.272068   -3084.8442 
  710800    543.19375   -3153.6155    64.736665   -3088.8788 
  711000    559.83737   -3150.3657    66.720216   -3083.6455 
  711200    532.38056   -3148.9766    63.447972   -3085.5286 
  711400    530.81832   -3151.4501    63.261788   -3088.1883 
  711600    548.53047   -3153.0033    65.372685   -3087.6306 
  711800    542.17192   -3152.1527    64.614886   -3087.5379 
  712000    543.97018   -3153.9271    64.829199    -3089.098 
  712200    564.25937   -3150.9404     67.24722   -3083.6932 
  712400    560.75136   -3154.3915    66.829143   -3087.5624 
  712600    551.09356   -3153.5371    65.678147   -3087.8589 
  712800    521.92496   -3147.4159    62.201896    -3085.214 
  713000     560.0662   -3152.8306    66.747488   -3086.0831 
  713200    546.09304   -3155.6123    65.082197   -3090.5301 
  713400    541.84861   -3150.3483    64.576354   -3085.7719 
  713600    562.79795   -3151.9839    67.073052   -3084.9109 
  713800    540.90339   -3154.6235    64.463705   -3090.1598 
  714000    543.18487   -3154.1582    64.735607   -3089.4226 
  714200    560.59466    -3151.606    66.810468   -3084.7956 
  714400    550.27567   -3149.4348    65.580673   -3083.8541 
  714600    533.64997   -3152.1172    63.599258   -3088.5179 
  714800    575.15601   -3155.7668    68.545859    -3087.221 
  715000    549.25886   -3151.1305    65.459492    -3085.671 
  715200     562.3445   -3152.2119     67.01901   -3085.1929 
  715400     564.6856   -3153.4384    67.298018   -3086.1404 
  715600    539.44204   -3155.0581    64.289544   -3090.7686 
  715800     551.5929   -3152.1726    65.737658    -3086.435 
  716000    591.28453    -3152.993    70.468021   -3082.5249 
  716200    545.95276   -3155.4335    65.065478    -3090.368 
  716400    558.57781   -3153.4113    66.570105   -3086.8412 
  716600    531.01278   -3149.2143    63.284963   -3085.9293 
  716800    563.70103   -3153.4091    67.180678   -3086.2284 
  717000    552.20953   -3154.2966    65.811147   -3088.4855 
  717200     517.7513   -3152.7572    61.704489   -3091.0527 
  717400    564.65922   -3149.1835    67.294874   -3081.8886 
  717600    547.03879   -3150.8202    65.194909   -3085.6253 
  717800    526.86006   -3156.6671    62.790052    -3093.877 
  718000    570.21051   -3149.5837    67.956465   -3081.6273 
  718200    554.15322   -3149.5647    66.042792   -3083.5219 
  718400    525.55466    -3154.533    62.634477   -3091.8985 
  718600    568.84818   -3151.4616    67.794105   -3083.6675 
  718800     556.5988   -3151.9636     66.33425   -3085.6293 
  719000    533.67628      -3153.9    63.602394   -3090.2976 
  719200    553.49846   -3150.9665    65.964758   -3085.0018 
  719400    560.69788   -3151.9901     66.82277   -3085.1673 
  719600     542.3996   -3153.4526    64.642021   -3088.8106 
  719800    539.50847   -3150.9299    64.297461   -3086.6324 
  720000    587.86076   -3154.6465    70.059983   -3084.5865 
  720200     541.9964    -3152.949    64.593968   -3088.3551 
  720400    544.99177   -3151.3397    64.950949   -3086.3887 
  720600    565.53546   -3153.2903    67.399302    -3085.891 
  720800    549.99493   -3153.8932    65.547216   -3088.3459 
  721000     565.0006   -3153.6883    67.335559   -3086.3527 
  721200      534.915    -3149.718    63.750021   -3085.9679 
  721400    577.35075   -3155.1288    68.807424   -3086.3214 
  721600    540.67594   -3152.4932    64.436599   -3088.0566 
  721800     551.5923    -3152.955    65.737586   -3087.2174 
  722000    530.14413   -3149.9742     63.18144   -3086.7927 
  722200    561.74298   -3157.0592    66.947323   -3090.1119 
  722400    576.87898   -3154.1822    68.751199    -3085.431 
  722600    551.73709   -3150.2143    65.754843   -3084.4595 
  722800    576.80651   -3155.2584    68.742561   -3086.5158 
  723000    560.33984   -3154.5927    66.780099   -3087.8126 
  723200    550.64346   -3152.5883    65.624505   -3086.9638 
  723400    553.69184   -3151.8173    65.987805   -3085.8295 
  723600    557.81518    -3153.913    66.479216   -3087.4337 
  723800    537.58579   -3149.8461    64.068321   -3085.7778 
  724000    562.19541   -3149.7356    67.001242   -3082.7343 
  724200    541.28823   -3152.9362     64.50957   -3088.4267 
  724400    541.77638    -3151.446    64.567746   -3086.8783 
  724600    576.08174   -3152.4943    68.656185   -3083.8381 
  724800    532.13783   -3149.5545    63.419045   -3086.1355 
  725000    561.66676   -3153.2281    66.938239   -3086.2899 
  725200    554.95482   -3151.6838    66.138324   -3085.5455 
  725400    547.06742   -3151.1144    65.198321   -3085.9161 
  725600    540.42729   -3151.0284    64.406964   -3086.6215 
  725800     555.1597   -3150.8613    66.162741   -3084.6985 
  726000    565.83528   -3150.5289    67.435035   -3083.0938 
  726200    547.57397   -3153.2077    65.258691    -3087.949 
  726400     544.2876   -3154.8604    64.867028   -3089.9933 
  726600    589.07014   -3150.2226    70.204115   -3080.0185 
  726800    560.64644    -3153.405    66.816639   -3086.5884 
  727000    553.40512   -3155.4477    65.953634    -3089.494 
  727200    547.73787   -3146.4218    65.278223   -3081.1436 
  727400    544.99862   -3151.3393    64.951765   -3086.3875 
  727600    558.30811   -3153.7399    66.537962    -3087.202 
  727800     566.7383   -3151.1757    67.542654    -3083.633 
  728000    531.68448   -3153.9734    63.365015   -3090.6084 
  728200    553.50534   -3149.8016    65.965579    -3083.836 
  728400    560.13411   -3150.2616    66.755581    -3083.506 
  728600    514.78387   -3149.9389    61.350837    -3088.588 
  728800    573.44129     -3150.02    68.341502   -3081.6785 
  729000    563.72591   -3150.4313    67.183644   -3083.2477 
  729200    559.20796   -3152.7355    66.645205   -3086.0903 
  729400    564.95042   -3151.5573    67.329579   -3084.2277 
  729600    552.16841   -3150.3785    65.806246   -3084.5722 
  729800    533.54083   -3150.0185    63.586251   -3086.4322 
  730000    551.46376    -3148.105    65.722267   -3082.3827 
  730200    563.10673   -3151.9066    67.109851   -3084.7968 
  730400    551.64721   -3153.1535     65.74413   -3087.4094 
  730600    562.95093   -3150.7082    67.091284   -3083.6169 
  730800    573.01454   -3151.5729    68.290643   -3083.2822 
  731000    560.23117     -3150.88    66.767149   -3084.1128 
  731200    554.42937   -3151.0798    66.075702    -3085.004 
  731400    537.59341   -3151.1597    64.069229   -3087.0905 
  731600    555.93267   -3147.5228    66.254862   -3081.2679 
  731800    548.05831   -3149.6047    65.316413   -3084.2883 
  732000     522.2191    -3151.555    62.236952    -3089.318 
  732200    584.29894   -3153.4809    69.635494   -3083.8454 
  732400    558.80079   -3149.9773    66.596679   -3083.3806 
  732600    566.02973   -3153.2432    67.458208    -3085.785 
  732800    563.33177   -3151.4296    67.136671   -3084.2929 
  733000    542.40194   -3149.6041      64.6423   -3084.9618 
  733200     578.0186   -3153.8713    68.887016   -3084.9843 
  733400     568.8809    -3155.678    67.798004     -3087.88 
  733600    535.48687   -3148.8681    63.818176   -3085.0499 
  733800    575.75691   -3149.8843    68.617473   -3081.2668 
  734000    527.46672   -3150.7144    62.862351    -3087.852 
  734200    558.40911   -3150.7989    66.549999   -3084.2489 
  734400    580.50746   -3151.1177    69.183633   -3081.9341 
  734600    551.64697   -3150.3659    65.744102   -3084.6217 
  734800    563.80665   -3154.1112    67.193267   -3086.9179 
  735000    571.17283   -3153.2503    68.071152   -3085.1791 
  735200    542.77463   -3150.7389    64.686715   -3086.0522 
  735400    569.56152   -3151.4171    67.879119    -3083.538 
  735600    556.79199   -3152.2079    66.357274   -3085.8506 
  735800    545.93966   -3152.9998    65.063917   -3087.9359 
  736000    564.02927   -3151.3129    67.219798   -3084.0931 
  736200     573.1044   -3154.6223    68.301353   -3086.3209 
  736400     540.9358   -3153.0025    64.467567   -3088.5349 
  736600    573.28158   -3148.7374    68.322468   -3080.4149 
  736800    568.29137   -3151.6522    67.727746   -3083.9245 
  737000    534.25612    -3153.443    63.671497   -3089.7715 
  737200    573.40415   -3149.1222    68.337076   -3080.7851 
  737400    572.28711    -3147.572    68.203949    -3079.368 
  737600    531.22768   -3153.1092    63.310575   -3089.7986 
  737800    574.55385   -3153.0861    68.474094   -3084.6121 
  738000    572.91494   -3150.5551    68.278773   -3082.2763 
  738200    549.32172    -3152.541    65.466984   -3087.0741 
  738400     561.0868   -3151.4801     66.86912   -3084.6109 
  738600    548.32263   -3151.6171    65.347914   -3086.2692 
  738800    571.64912   -3153.9071    68.127915   -3085.7791 
  739000      550.744   -3149.6941    65.636488   -3084.0576 
  739200     545.2964   -3149.9985    64.987254   -3085.0113 
  739400    551.18787   -3150.6498    65.689388   -3084.9604 
  739600    551.20076   -3152.8423    65.690923   -3087.1513 
  739800    569.50163   -3151.8179    67.871982   -3083.9459 
  740000     551.4715   -3150.8588     65.72319   -3085.1356 
  740200    554.51257   -3154.5524    66.085618   -3088.4667 
  740400     558.6705   -3153.4291    66.581151   -3086.8479 
  740600    569.85963   -3152.7726    67.914647   -3084.8579 
  740800    569.32883   -3150.3996    67.851388   -3082.5483 
  741000    558.84526   -3153.8329    66.601979   -3087.2309 
  741200    568.33328   -3154.3887    67.732741    -3086.656 
  741400    583.40038   -3152.4822    69.528405   -3082.9538 
  741600     564.6983   -3154.1485    67.299531   -3086.8489 
  741800    564.27109   -3153.5337    67.248617    -3086.285 
  742000    587.20313   -3154.8521    69.981609   -3084.8705 
  742200     567.2784   -3154.1596    67.607023   -3086.5525 
  742400    562.32254   -3152.2212    67.016393   -3085.2048 
  742600     559.5951   -3151.2358    66.691344   -3084.5445 
  742800    561.52435   -3154.9687    66.921267   -3088.0474 
  743000    569.11623   -3151.7597    67.826051   -3083.9336 
  743200    561.44758   -3152.1358    66.912118   -3085.2237 
  743400    557.87362   -3154.1961     66.48618   -3087.7099 
  743600    563.11543   -3149.7717    67.110889   -3082.6609 
  743800    568.58808   -3152.9674    67.763107   -3085.2043 
  744000    536.71224   -3153.0129    63.964212   -3089.0486 
  744200     577.2358   -3151.5878    68.793724    -3082.794 
  744400    551.43882   -3151.3086    65.719295   -3085.5893 
  744600    554.11365   -3152.0303    66.038076   -3085.9922 
  744800    588.01292   -3154.1069    70.078118   -3084.0288 
  745000    557.13111   -3153.1071     66.39769   -3086.7095 
  745200    557.67713   -3153.7438    66.462763   -3087.2811 
  745400    554.24789   -3150.6374    66.054074   -3084.5833 
  745600     539.8875   -3152.1627    64.342633   -3087.8201 
  745800    570.51266   -3152.9407    67.992474   -3084.9482 
  746000    572.64339   -3150.4436     68.24641   -3082.1972 
  746200    554.35781   -3156.2882    66.067173   -3090.2211 
  746400     567.1797   -3155.0082     67.59526   -3087.4129 
  746600    578.84343   -3153.3645    68.985318   -3084.3791 
  746800    577.83867    -3154.593    68.865573   -3085.7275 
  747000    555.57075   -3152.7976     66.21173   -3086.5859 
  747200    572.01704   -3154.9067    68.171763    -3086.735 
  747400    542.85189   -3151.2666    64.695923   -3086.5706 
  747600    535.38141   -3152.9645    63.805607   -3089.1589 
  747800    560.26882   -3152.1758    66.771635   -3085.4042 
  748000    542.64083    -3151.348    64.670769   -3086.6772 
  748200    568.22157   -3156.1415    67.719427   -3088.4221 
  748400    564.28799   -3154.6492    67.250632   -3087.3986 
  748600    568.38761   -3157.2349    67.739215   -3089.4957 
  748800     548.6941   -3157.8677    65.392185   -3092.4755 
  749000    567.66203   -3157.7867    67.652742   -3090.1339 
  749200    554.11714   -3157.4199    66.038492   -3091.3814 
  749400     576.4291    -3158.307    68.697583   -3089.6094 
  749600    580.39985   -3159.1916    69.170809   -3090.0208 
  749800    550.42216   -3159.8853    65.598131   -3094.2872 
  750000    572.13662   -3158.0816    68.186014   -3089.8956 
  750200    549.21318   -3154.5174    65.454048   -3089.0634 
  750400    562.71856   -3158.6061     67.06359   -3091.5425 
  750600    552.90604   -3158.9392    65.894155   -3093.0451 
  750800    556.78136   -3159.2966    66.356008   -3092.9406 
  751000    566.58511    -3159.658    67.524397   -3092.1336 
  751200    553.24749   -3159.2649    65.934848     -3093.33 
  751400    553.92642   -3159.2369    66.015762   -3093.2211 
  751600    566.17302   -3159.0041    67.475285   -3091.5289 
  751800    563.65102   -3161.1581    67.174718   -3093.9833 
  752000    530.04759   -3157.2142    63.169934   -3094.0442 
  752200    556.22765   -3157.2963    66.290017   -3091.0063 
  752400    547.61957   -3160.9327    65.264125   -3095.6686 
  752600    580.24769   -3160.3401    69.152674   -3091.1874 
  752800    568.86695   -3158.1284    67.796342    -3090.332 
  753000    564.71975   -3162.8685    67.302087   -3095.5664 
  753200    554.36845   -3160.3346    66.068442   -3094.2662 
  753400    565.29399   -3159.3507    67.370524   -3091.9801 
  753600    590.85036   -3162.7598    70.416278   -3092.3436 
  753800    551.08041   -3159.7297    65.676581   -3094.0531 
  754000    542.88211    -3158.419    64.699525   -3093.7195 
  754200    563.36825   -3154.9941    67.141019   -3087.8531 
  754400     579.9454   -3162.0692    69.116648   -3092.9526 
  754600    543.93901   -3161.7423    64.825484   -3096.9168 
  754800    552.55216   -3157.3201     65.85198   -3091.4681 
  755000    554.09368   -3158.9537    66.035695    -3092.918 
  755200    552.42037   -3164.2829    65.836274   -3098.4466 
  755400    582.89467   -3162.4177    69.468136   -3092.9496 
  755600     574.4237   -3161.3574    68.458584   -3092.8988 
  755800    549.53313   -3161.7453    65.492178   -3096.2532 
  756000    565.61475   -3163.8674    67.408752   -3096.4586 
  756200    567.52089   -3162.2073    67.635922   -3094.5714 
  756400     575.8878   -3160.7173    68.633071   -3092.0842 
  756600    588.58104   -3164.2951    70.145825   -3094.1493 
  756800    565.49657    -3162.147    67.394668   -3094.7523 
  757000    574.13331   -3158.0638    68.423976   -3089.6399 
  757200    551.11531   -3160.9311    65.680739   -3095.2504 
  757400     573.8995   -3162.9329    68.396111   -3094.5367 
  757600      577.174   -3161.8941    68.786359   -3093.1078 
  757800    561.22704   -3161.7381    66.885834   -3094.8522 
  758000    562.69601   -3162.8102    67.060903   -3095.7493 
  758200     569.2324   -3164.8821    67.839895   -3097.0422 
  758400    570.49149   -3161.6475    67.989951   -3093.6576 
  758600    571.63153   -3159.2935    68.125819   -3091.1676 
  758800     552.1213   -3162.3544    65.800632   -3096.5538 
  759000    572.41844   -3165.3465    68.219601   -3097.1269 
  759200    557.12789   -3160.6013    66.397307    -3094.204 
  759400    603.03576   -3163.5977    71.868507   -3091.7292 
  759600    564.26468   -3163.2302    67.247853   -3095.9823 
  759800    549.64013   -3164.7682    65.504931   -3099.2632 
  760000    564.76647   -3159.0961    67.307655   -3091.7885 
  760200    574.74947   -3162.2996    68.497408   -3093.8022 
  760400    555.27207   -3165.8983    66.176133   -3099.7221 
  760600    554.25242   -3162.0357    66.054614    -3095.981 
  760800    560.56339   -3159.8922    66.806742   -3093.0855 
  761000    561.82531   -3160.8228    66.957135   -3093.8657 
  761200    574.05412   -3162.4111    68.414538   -3093.9966 
  761400    565.17167   -3165.0003    67.355947   -3097.6444 
  761600    568.15708   -3162.4156    67.711741   -3094.7039 
  761800    604.61948   -3161.9308    72.057252   -3089.8735 
  762000     549.0053    -3164.226    65.429273   -3098.7968 
  762200    556.04015   -3162.7319    66.267672   -3096.4642 
  762400     596.5337   -3160.8113    71.093606   -3089.7177 
  762600    551.70134   -3165.1714    65.750581   -3099.4208 
  762800     569.4163   -3162.8922    67.861812   -3095.0304 
  763000    586.25193   -3162.8565    69.868247   -3092.9883 
  763200    536.28412   -3161.9755     63.91319   -3098.0623 
  763400    567.64796   -3158.1484    67.651065   -3090.4973 
  763600    561.13126   -3162.1873    66.874419   -3095.3128 
  763800    572.76387   -3166.1324    68.260769   -3097.8717 
  764000    585.46642   -3160.9925    69.774631   -3091.2178 
  764200    562.65361   -3162.0374     67.05585   -3094.9816 
  764400    540.44473   -3163.3403    64.409043   -3098.9312 
  764600    599.97927   -3164.0057    71.504242   -3092.5015 
  764800    569.22651   -3162.6929    67.839194   -3094.8537 
  765000    561.19545   -3165.2298    66.882069   -3098.3477 
  765200    591.05776   -3164.9702    70.440996   -3094.5293 
  765400    587.15822   -3165.4566    69.976257   -3095.4804 
  765600    576.62343   -3163.7265    68.720743   -3095.0057 
  765800    579.97678     -3163.86    69.120387   -3094.7396 
  766000    551.75955   -3163.0906    65.757519   -3097.3331 
  766200    581.31263   -3162.3274    69.279592   -3093.0478 
  766400    567.08329   -3159.5552    67.583769   -3091.9715 
  766600    543.10685   -3161.2891    64.726308   -3096.5628 
  766800    582.53552   -3159.0407    69.425333   -3089.6154 
  767000    564.22006   -3161.4574    67.242535   -3094.2149 
  767200    571.13078   -3164.2877    68.066141   -3096.2216 
  767400     604.0783   -3158.4736    71.992755   -3086.4809 
  767600    565.42091   -3162.6847    67.385651    -3095.299 
  767800    539.00649   -3165.0661    64.237637   -3100.8285 
  768000     608.1356   -3162.5267    72.476295   -3090.0504 
  768200    564.77714   -3160.3353    67.308927   -3093.0264 
  768400    562.01095   -3160.8491    66.979259   -3093.8698 
  768600    583.79508   -3163.5194    69.575444   -3093.9439 
  768800    570.34764   -3164.5071    67.972808   -3096.5343 
  769000    570.48942   -3159.0335    67.989704   -3091.0438 
  769200    569.07026   -3159.5511    67.820572   -3091.7305 
  769400    548.81496   -3161.3898    65.406589   -3095.9832 
  769600    579.20402   -3160.6521    69.028292   -3091.6239 
  769800    584.29817   -3161.4082    69.635402   -3091.7728 
  770000    558.27496   -3161.4166    66.534012   -3094.8826 
  770200    592.32465   -3160.3608     70.59198   -3089.7688 
  770400    545.91855   -3158.0989    65.061401   -3093.0375 
  770600    581.81757   -3162.8774    69.339769   -3093.5376 
  770800     583.0635   -3161.3949    69.488256   -3091.9067 
  771000    558.36174   -3160.0305    66.544354   -3093.4861 
  771200    561.11564   -3158.7172    66.872557   -3091.8446 
  771400    566.27533   -3163.7925    67.487479    -3096.305 
  771600    569.78541   -3163.5025    67.905802   -3095.5967 
  771800    584.45071   -3161.2676    69.653582    -3091.614 
  772000    550.08941   -3160.9304    65.558476    -3095.372 
  772200     549.1894   -3161.0049    65.451214   -3095.5537 
  772400    562.57061    -3160.753    67.045958    -3093.707 
  772600    584.81218   -3159.9629     69.69666   -3090.2663 
  772800    552.23326   -3161.9866    65.813974   -3096.1726 
  773000    579.84778   -3165.8217    69.105014   -3096.7167 
  773200    574.51678   -3159.2723    68.469677   -3090.8026 
  773400    571.11484   -3159.6171     68.06424   -3091.5528 
  773600    555.76816   -3162.9764    66.235256   -3096.7412 
  773800    566.35428   -3163.6883    67.496887   -3096.1914 
  774000    595.62675   -3161.9911    70.985518   -3091.0056 
  774200    586.58737   -3164.4132    69.908224    -3094.505 
  774400    577.77795   -3166.3728    68.858336   -3097.5145 
  774600    594.41313   -3163.1981    70.840881   -3092.3572 
  774800    580.58727   -3162.0863    69.193144   -3092.8932 
  775000    566.90165   -3164.1087    67.562122   -3096.5465 
  775200    574.80411   -3163.6251     68.50392   -3095.1212 
  775400    593.68538   -3163.0264    70.754149   -3092.2723 
  775600    571.96465   -3163.2514     68.16552   -3095.0859 
  775800    559.70567   -3164.8563    66.704521   -3098.1518 
  776000    556.46415   -3161.0066    66.318203   -3094.6884 
  776200    603.41826   -3160.7936    71.914093   -3088.8796 
  776400     571.4895   -3163.0947    68.108892   -3094.9858 
  776600     559.2928   -3167.0098    66.655316   -3100.3545 
  776800    571.55597   -3160.6022    68.116813   -3092.4854 
  777000     577.5974   -3159.0413    68.836819   -3090.2045 
  777200    549.29245   -3165.1044    65.463495   -3099.6409 
  777400    568.06104   -3162.6079    67.700295   -3094.9076 
  777600    592.24028   -3159.1956    70.581926   -3088.6137 
  777800    587.43432   -3165.7029    70.009161   -3095.6938 
  778000    548.03945   -3162.8048    65.314165   -3097.4906 
  778200     565.4382   -3159.1743    67.387711   -3091.7866 
  778400    593.14814   -3165.6155    70.690123   -3094.9253 
  778600    550.80179   -3166.9452    65.643375   -3101.3018 
  778800    587.15264   -3167.0073    69.975591   -3097.0317 
  779000    583.64756   -3163.6687    69.557863   -3094.1109 
  779200    575.12676   -3167.0012    68.542372   -3098.4588 
  779400    553.83301   -3166.5446     66.00463     -3100.54 
  779600      593.872   -3163.1018     70.77639   -3092.3254 
  779800    567.83623   -3164.5075    67.673503    -3096.834 
  780000    563.36743   -3165.4311    67.140922   -3098.2902 
  780200    591.54763   -3163.2065    70.499377   -3092.7071 
  780400    582.56306   -3166.7408    69.428615   -3097.3121 
  780600    546.47076    -3165.144    65.127212   -3100.0168 
  780800    593.77203   -3167.5391    70.764476   -3096.7747 
  781000    571.01536   -3164.5289    68.052384   -3096.4765 
  781200    556.31454   -3164.2302    66.300373   -3097.9299 
  781400    580.91614   -3166.8769    69.232339   -3097.6445 
  781600    587.51487   -3165.3925    70.018761   -3095.3737 
  781800    568.61958   -3168.0872    67.766861   -3100.3203 
  782000    583.49695   -3166.8864    69.539914   -3097.3465 
  782200     560.4532    -3164.138     66.79361   -3097.3444 
  782400     542.9666   -3165.3713    64.709594   -3100.6617 
  782600    581.71472   -3165.0382    69.327512   -3095.7107 
  782800    581.12284   -3165.0484    69.256973   -3095.7914 
  783000    562.62509    -3167.862    67.052451   -3100.8096 
  783200    586.37818   -3167.6329    69.883293   -3097.7496 
  783400     575.2672   -3167.1366     68.55911   -3098.5775 
  783600    568.82474   -3167.4119    67.791312   -3099.6206 
  783800    569.96023    -3164.227    67.926637   -3096.3004 
  784000    572.80912   -3166.6666    68.266162   -3098.4004 
  784200    564.71871   -3169.0137    67.301964   -3101.7118 
  784400     578.4141   -3169.1941    68.934151   -3100.2599 
  784600    577.51285   -3168.2308    68.826741   -3099.4041 
  784800    584.21893    -3169.653    69.625958    -3100.027 
  785000    570.31139   -3169.0121    67.968487   -3101.0437 
  785200    561.38816    -3167.006    66.905036   -3100.1009 
  785400    586.90757   -3166.3092    69.946385   -3096.3628 
  785600    568.30671   -3166.6406    67.729574    -3098.911 
  785800    572.60826   -3168.7858    68.242224   -3100.5435 
  786000    582.63317   -3168.0712     69.43697   -3098.6342 
  786200    551.46175    -3165.872    65.722027     -3100.15 
  786400    556.64659   -3167.5704    66.339946   -3101.2305 
  786600    564.68481   -3166.4169    67.297924    -3099.119 
  786800    568.12665    -3168.628    67.708114   -3100.9198 
  787000    568.66832   -3168.3083    67.772669   -3100.5356 
  787200    581.67017   -3167.1412    69.322202    -3097.819 
  787400    575.63689    -3170.725    68.603169   -3102.1218 
  787600    582.68255     -3170.12    69.442856   -3100.6771 
  787800    573.36203   -3168.2294    68.332056   -3099.8974 
  788000    574.24928   -3167.9848    68.437797    -3099.547 
  788200    583.57469   -3168.7648    69.549179   -3099.2157 
  788400    573.49107   -3169.1359    68.347435   -3100.7884 
  788600    577.37959   -3168.8513     68.81086   -3100.0405 
  788800    570.17317   -3167.0596    67.952015   -3099.1076 
  789000    572.08507   -3167.9147    68.179871   -3099.7349 
  789200     568.3249   -3171.2381    67.731742   -3103.5063 
  789400    571.87708   -3171.0753    68.155084   -3102.9202 
  789600     600.9736   -3167.7385    71.622744   -3096.1158 
  789800    578.85319   -3168.3503    68.986481   -3099.3638 
  790000     562.6068   -3170.3087    67.050271   -3103.2584 
  790200    588.02366   -3170.3269    70.079398   -3100.2475 
  790400    581.78964   -3169.6546    69.336441   -3100.3182 
  790600    564.47005   -3168.8766    67.272328   -3101.6043 
  790800    594.46069   -3172.2506    70.846549    -3101.404 
  791000    579.84802   -3170.7639    69.105042   -3101.6589 
  791200    603.79831   -3168.4159    71.959387   -3096.4565 
  791400    564.31636   -3170.7136    67.254012   -3103.4596 
  791600    571.96611   -3171.8618    68.165693   -3103.6961 
  791800    610.18136   -3167.9197    72.720104   -3095.1995 
  792000    566.23219   -3169.5564    67.482337   -3102.0741 
  792200    587.90479   -3173.3167    70.065231   -3103.2515 
  792400    591.19506   -3169.2756    70.457358   -3098.8182 
  792600    559.27736   -3167.6773    66.653476   -3101.0238 
  792800     566.1409   -3169.3799    67.471457   -3101.9085 
  793000    565.47245    -3170.733    67.391793   -3103.3412 
  793200    576.99475   -3170.2838    68.764996   -3101.5188 
  793400    594.32398   -3167.8985    70.830257   -3097.0683 
  793600    577.84094   -3171.7633    68.865843   -3102.8975 
  793800    563.74087   -3170.4514    67.185427    -3103.266 
  794000    613.33372   -3168.6565    73.095796   -3095.5607 
  794200       561.43   -3168.1311    66.910023    -3101.221 
  794400    560.02277   -3174.0556    66.742312   -3107.3132 
  794600    588.12118   -3165.9965     70.09102   -3095.9055 
  794800    601.00359   -3168.0997    71.626318   -3096.4734 
  795000    534.22426   -3171.7185      63.6677   -3108.0508 
  795200    567.96231   -3166.8831    67.688529   -3099.1946 
  795400     623.4069   -3169.7142    74.296297   -3095.4179 
  795600    557.22961   -3170.8664    66.409429    -3104.457 
  795800    586.06013    -3169.318    69.845388   -3099.4726 
  796000     581.2321    -3170.161    69.269994    -3100.891 
  796200    574.29629   -3170.6828    68.443399   -3102.2394 
  796400    607.54035   -3167.5746    72.405355   -3095.1693 
  796600     555.7496   -3171.1344    66.233044   -3104.9014 
  796800    571.76332   -3169.9233    68.141525   -3101.7818 
  797000     600.8363   -3166.0576    71.606381   -3094.4512 
  797200    555.47475   -3170.8304    66.200288   -3104.6302 
  797400    601.35586   -3174.3367    71.668301   -3102.6684 
  797600    614.69912   -3168.6624    73.258522   -3095.4039 
  797800    582.58327   -3171.5167    69.431024   -3102.0857 
  798000    561.18041   -3171.7826    66.880277   -3104.9024 
  798200    610.11054   -3168.8699    72.711665   -3096.1582 
  798400    587.03383   -3170.8963    69.961432   -3100.9349 
  798600    576.37657   -3172.1788    68.691322   -3103.4875 
  798800    579.80325   -3167.4792    69.099707   -3098.3795 
  799000    587.39197   -3170.5012    70.004115   -3100.4971 
  799200    582.02916   -3175.5624    69.364986   -3106.1974 
  799400    578.62333   -3173.1636    68.959086   -3104.2045 
  799600    575.72711     -3170.03    68.613921   -3101.4161 
  799800    574.85729   -3170.0266    68.510258   -3101.5164 
  800000    609.99541   -3174.3002    72.697943   -3101.6023 
  800200    577.15588   -3175.1879    68.784199   -3106.4037 
  800400    567.49122   -3170.4441    67.632385   -3102.8117 
  800600    631.85035   -3172.2151    75.302569   -3096.9125 
  800800    567.03574   -3175.2686    67.578103   -3107.6905 
  801000    569.18719    -3175.635    67.834508   -3107.8005 
  801200    595.23722   -3169.2491    70.939095     -3098.31 
  801400    573.65121   -3172.7056     68.36652   -3104.3391 
  801600    570.30123   -3175.0476    67.967277   -3107.0803 
  801800     572.9418   -3172.8514    68.281974   -3104.5694 
  802000    550.77726   -3170.8357    65.640452   -3105.1952 
  802200    569.45042   -3172.2024    67.865878   -3104.3365 
  802400    577.74616   -3177.8064    68.854547   -3108.9518 
  802600    579.17227   -3173.9052    69.024509   -3104.8807 
  802800    614.40457   -3172.2624    73.223418   -3099.0389 
  803000    560.43164   -3177.6346     66.79104   -3110.8436 
  803200    568.30389   -3175.7081    67.729238   -3107.9789 
  803400     586.8709   -3169.0683    69.942014   -3099.1262 
  803600     588.0104   -3176.6535    70.077817   -3106.5757 
  803800    573.80805   -3174.9904    68.385211   -3106.6052 
  804000    623.61259    -3174.538    74.320811   -3100.2172 
  804200    567.92887   -3175.1541    67.684544   -3107.4696 
  804400    577.64183   -3174.2096    68.842114   -3105.3675 
  804600    585.73332   -3171.2021     69.80644   -3101.3957 
  804800    566.68783   -3173.8018    67.536639   -3106.2651 
  805000    583.96284    -3173.156    69.595438   -3103.5606 
  805200    609.43047   -3175.4833    72.630616   -3102.8527 
  805400    560.98747    -3175.824    66.857282   -3108.9667 
  805600    586.08809   -3173.6073     69.84872   -3103.7586 
  805800     579.4786   -3172.4132    69.061016   -3103.3522 
  806000     537.6985   -3173.1989    64.081753   -3109.1171 
  806200    594.07595   -3174.8118    70.800696   -3104.0111 
  806400    605.33398   -3177.3502    72.142405   -3105.2078 
  806600    579.30404   -3176.3624    69.040212   -3107.3222 
  806800     599.2988   -3171.0552    71.423145    -3099.632 
  807000     593.1573   -3174.5598    70.691213   -3103.8686 
  807200    574.85468   -3178.7699    68.509947     -3110.26 
  807400    581.62386   -3172.9564    69.316684   -3103.6397 
  807600    612.12647   -3174.2379    72.951918    -3101.286 
  807800    583.31067   -3175.9248    69.517714   -3106.4071 
  808000    570.69828   -3175.8963    68.014596   -3107.8817 
  808200    587.05463   -3176.9974    69.963911   -3107.0334 
  808400    590.70455   -3177.5566    70.398901   -3107.1577 
  808600    575.62593   -3175.1934    68.601863   -3106.5916 
  808800    579.67278   -3176.6715    69.084158   -3107.5874 
  809000    579.35542   -3176.7645    69.046335   -3107.7182 
  809200    574.04123   -3175.8034    68.413002   -3107.3904 
  809400    595.56388    -3176.379    70.978025    -3105.401 
  809600    580.71777   -3175.6954    69.208697   -3106.4867 
  809800    574.25397   -3174.5886    68.438355   -3106.1502 
  810000     586.1847   -3173.8719    69.860235   -3104.0117 
  810200    601.37609   -3176.7994    71.670712   -3105.1287 
  810400     566.4095    -3174.654    67.503469   -3107.1506 
  810600     600.8029   -3175.3016      71.6024   -3103.6992 
  810800    584.10865    -3175.218    69.612815   -3105.6052 
  811000    545.74483   -3175.0938    65.040697   -3110.0531 
  811200    612.01332   -3176.6697    72.938434   -3103.7313 
  811400    601.77817   -3176.4103     71.71863   -3104.6917 
  811600    580.44146   -3177.2538    69.175768    -3108.078 
  811800    611.13816   -3176.8176    72.834134   -3103.9835 
  812000     581.2858   -3175.0643    69.276394   -3105.7879 
  812200    582.45045   -3174.4063    69.415194   -3104.9911 
  812400    596.08317   -3177.3498    71.039913   -3106.3099 
  812600    559.43557    -3176.146    66.672331   -3109.4737 
  812800    590.15149   -3175.7183    70.332988   -3105.3853 
  813000    604.10795   -3177.1676    71.996289   -3105.1713 
  813200    605.67391   -3176.4715    72.182917   -3104.2886 
  813400    578.66728   -3176.3572    68.964325   -3107.3929 
  813600     597.2121   -3178.5855    71.174456   -3107.4111 
  813800    590.26089   -3173.9998    70.346026   -3103.6538 
  814000    581.09252   -3175.0894    69.253359    -3105.836 
  814200    554.76715   -3175.8493    66.115959   -3109.7333 
  814400     584.8656   -3173.6023    69.703027   -3103.8992 
  814600    581.56312   -3172.0191    69.309445   -3102.7097 
  814800    556.68447   -3177.0464    66.344461   -3110.7019 
  815000    576.44092   -3177.2571    68.698991   -3108.5581 
  815200    616.58933   -3174.5251    73.483793   -3101.0413 
  815400    587.80065   -3178.1345     70.05282   -3108.0817 
  815600    584.44992   -3177.4643    69.653487   -3107.8108 
  815800    595.94548   -3174.9742    71.023503   -3103.9507 
  816000    585.07466   -3177.0362    69.727942   -3107.3083 
  816200    607.85694   -3175.8114    72.443086   -3103.3683 
  816400    594.67896   -3175.2479    70.872562   -3104.3754 
  816600    585.75027   -3176.0431     69.80846   -3106.2346 
  816800    568.52144   -3174.4633    67.755165   -3106.7082 
  817000    595.26804   -3175.4906    70.942768   -3104.5479 
  817200    579.52928   -3174.5753    69.067056   -3105.5083 
  817400    593.52336   -3174.5026    70.734841   -3103.7677 
  817600    596.09636   -3174.6792    71.041485   -3103.6378 
  817800     575.2076   -3173.5913    68.552007   -3105.0393 
  818000    588.31449   -3175.6815    70.114058   -3105.5675 
  818200    601.81553   -3174.3173    71.723083   -3102.5942 
  818400    570.16075   -3174.5701    67.950535   -3106.6196 
  818600    567.39146   -3173.7445    67.620496    -3106.124 
  818800     576.6325   -3172.9524    68.721824   -3104.2306 
  819000    583.51936   -3176.1144    69.542585   -3106.5719 
  819200    596.72985   -3176.2767    71.116982   -3105.1597 
  819400     584.9255   -3175.2096    69.710166   -3105.4994 
  819600      577.449   -3173.8161    68.819133    -3104.997 
  819800     590.0855   -3174.7063    70.325123   -3104.3812 
  820000    584.75515   -3178.7156    69.689863   -3109.0257 
  820200    576.39233   -3174.3777      68.6932   -3105.6845 
  820400    603.39572   -3174.3616    71.911406   -3102.4502 
  820600     564.1161   -3173.6953    67.230145   -3106.4652 
  820800    585.46612   -3176.1958    69.774595   -3106.4212 
  821000    594.20013   -3174.2651    70.815496   -3103.4496 
  821200    589.10808   -3174.7493    70.208636   -3104.5407 
  821400    601.63337   -3177.1359    71.701373   -3105.4345 
  821600    577.10973   -3175.0718    68.778699   -3106.2931 
  821800    582.76688   -3172.7423    69.452907   -3103.2894 
  822000    610.79387   -3171.5541    72.793102    -3098.761 
  822200    560.77017    -3176.154    66.831385   -3109.3226 
  822400    568.32227   -3177.7593    67.731428   -3110.0278 
  822600    618.81973   -3173.5691    73.749607   -3099.8195 
  822800    595.38321   -3172.7819    70.956493   -3101.8254 
  823000    560.67443   -3177.2307    66.819975   -3110.4107 
  823200    608.91705   -3175.2903    72.569427   -3102.7208 
  823400    589.42234   -3169.3283     70.24609   -3099.0822 
  823600    573.99887   -3176.4927    68.407954   -3108.0847 
  823800    571.54229   -3174.6298    68.115183   -3106.5146 
  824000    594.20825   -3174.4594    70.816464   -3103.6429 
  824200    594.26397    -3176.315    70.823105   -3105.4919 
  824400    586.28507   -3174.7254    69.872196   -3104.8533 
  824600    597.76857   -3174.9989    71.240776   -3103.7581 
  824800    589.19055    -3178.342    70.218465   -3108.1235 
  825000    596.08447   -3174.9986    71.040067   -3103.9586 
  825200    568.76682     -3171.74    67.784409   -3103.9556 
  825400    576.25301   -3175.3446    68.676597    -3106.668 
  825600    571.00159   -3172.1018    68.050744   -3104.0511 
  825800    614.06699   -3175.6299    73.183186   -3102.4467 
  826000     575.7105    -3176.458    68.611942   -3107.8461 
  826200    592.52684   -3175.6448    70.616077   -3105.0288 
  826400     591.0126   -3174.2617    70.435613   -3103.8261 
  826600    581.71933   -3175.8756    69.328061   -3106.5476 
  826800    580.57245   -3173.6346    69.191379   -3104.4433 
  827000    593.00404   -3174.8422    70.672949   -3104.1692 
  827200    603.69413   -3175.2897    71.946971   -3103.3427 
  827400    579.42749   -3174.4953    69.054924   -3105.4404 
  827600    593.56024   -3175.2744    70.739235   -3104.5352 
  827800    586.94603   -3175.7493    69.950969   -3105.7983 
  828000    588.85213   -3173.5102    70.178133    -3103.332 
  828200    577.89129   -3172.3263    68.871844   -3103.4545 
  828400    581.37985   -3175.8849    69.287603   -3106.5973 
  828600    572.69588   -3173.8245    68.252666   -3105.5718 
  828800    591.23802   -3171.9895    70.462478    -3101.527 
  829000     583.4981   -3175.2763    69.540052   -3105.7362 
  829200    570.04284   -3176.2368    67.936482   -3108.3003 
  829400    590.06603   -3173.5678    70.322803    -3103.245 
  829600     591.9375   -3174.1302    70.545841   -3103.5843 
  829800    604.15062   -3175.7532    72.001374   -3103.7518 
  830000    590.20232   -3176.5557    70.339046   -3106.2166 
  830200    578.24799   -3173.6968    68.914354   -3104.7824 
  830400    584.82768   -3170.5715    69.698508    -3100.873 
  830600    599.72148   -3176.5083    71.473519   -3105.0347 
  830800     582.4143   -3176.4389    69.410886    -3107.028 
  831000    597.65892   -3173.7022    71.227708   -3102.4745 
  831200    606.00379   -3176.9952    72.222231    -3104.773 
  831400    581.62675   -3175.8742    69.317028   -3106.5572 
  831600    597.51009   -3173.9871     71.20997   -3102.7771 
  831800    594.07649   -3176.3826    70.800761   -3105.5818 
  832000    614.64557   -3178.0229     73.25214   -3104.7708 
  832200    579.96122   -3174.0042    69.118534   -3104.8856 
  832400    583.37612   -3175.2047    69.525514   -3105.6792 
  832600    591.91478     -3174.46    70.543133   -3103.9168 
  832800    582.69078   -3174.4061    69.443836   -3104.9623 
  833000    591.88371   -3175.8873     70.53943   -3105.3479 
  833200    611.29921   -3173.7132    72.853328   -3100.8598 
  833400    596.90988    -3177.216    71.138438   -3106.0776 
  833600    578.01634   -3175.9074    68.886746   -3107.0207 
  833800     608.3791   -3171.4052    72.505316   -3098.8999 
  834000    570.16248   -3175.5121    67.950741   -3107.5614 
  834200    576.44875   -3176.1685    68.699925   -3107.4686 
  834400    619.11681   -3173.2649    73.785013   -3099.4799 
  834600    575.79745   -3175.7374    68.622305   -3107.1151 
  834800    582.52535   -3178.6725    69.424121   -3109.2484 
  835000    628.69951   -3173.8626    74.927058   -3098.9355 
  835200    590.62944   -3173.3423    70.389949   -3102.9523 
  835400    570.75439    -3178.497    68.021283   -3110.4757 
  835600    626.87449   -3176.8331    74.709556   -3102.1235 
  835800    600.68353   -3174.3085    71.588173   -3102.7203 
  836000    569.74659   -3172.5315    67.901176   -3104.6303 
  836200    609.38089   -3173.5443    72.624707   -3100.9196 
  836400    567.59927   -3174.9142    67.645263   -3107.2689 
  836600    585.40648   -3173.2049    69.767488   -3103.4374 
  836800    616.34254   -3173.5292     73.45438   -3100.0748 
  837000    577.93791   -3173.7386      68.8774   -3104.8612 
  837200    569.63247   -3171.5728    67.887575   -3103.6852 
  837400    587.78185    -3173.327    70.050579   -3103.2764 
  837600    605.88873   -3177.2956    72.208518    -3105.087 
  837800    595.70039    -3174.339    70.994294   -3103.3447 
  838000    580.23369   -3172.9635    69.151005   -3103.8125 
  838200    581.41536   -3173.0825    69.291834   -3103.7907 
  838400    605.95797   -3176.8084     72.21677   -3104.5917 
  838600    580.99535   -3175.5491    69.241779   -3106.3073 
  838800    583.01262   -3172.7112    69.482193    -3103.229 
  839000    609.36295   -3172.6185    72.622569   -3099.9959 
  839200    580.39133   -3174.1648    69.169793    -3104.995 
  839400    596.98509   -3174.5583    71.147402   -3103.4109 
  839600    597.01378   -3176.0181    71.150821   -3104.8673 
  839800    582.97982   -3175.7493    69.478284    -3106.271 
  840000    594.01089   -3170.7803    70.792943   -3099.9873 
  840200    603.26932   -3172.3133    71.896342    -3100.417 
  840400    592.16337   -3179.6343     70.57276   -3109.0616 
  840600    599.95457   -3175.1965    71.501298   -3103.6952 
  840800    603.15682   -3172.6521    71.882935   -3100.7692 
  841000    589.51229   -3175.8131     70.25681   -3105.5563 
  841200    618.82984   -3175.3063    73.750813   -3101.5555 
  841400    586.41114    -3174.219    69.887221   -3104.3317 
  841600    598.28571   -3179.2272    71.302406   -3107.9248 
  841800    618.02963   -3172.5203    73.655445   -3098.8649 
  842000    623.47592   -3177.4097    74.304522   -3103.1052 
  842200    558.87378   -3174.3374    66.605378    -3107.732 
  842400    584.26964   -3167.7181    69.632001   -3098.0861 
  842600    588.49248   -3175.3708    70.135271   -3105.2355 
  842800    552.26051   -3175.3511    65.817222   -3109.5338 
  843000    617.81139   -3169.0913    73.629435   -3095.4619 
  843200     581.4965   -3174.0947    69.301505   -3104.7932 
  843400    576.71479   -3177.1539     68.73163   -3108.4223 
  843600    619.41618   -3171.2015    73.820691   -3097.3808 
  843800    587.58105   -3173.6147    70.026648   -3103.5881 
  844000    586.75102   -3177.3221    69.927728   -3107.3943 
  844200    615.47581   -3175.5168    73.351086   -3102.1657 
  844400    582.38744   -3174.4767    69.407685    -3105.069 
  844600    596.11113   -3174.1385    71.043245   -3103.0953 
  844800    606.05092   -3173.9084    72.227848   -3101.6806 
  845000     582.3398   -3174.7461    69.402008   -3105.3441 
  845200    626.65702   -3171.2142    74.683638   -3096.5306 
  845400    605.05941   -3175.3677    72.109682    -3103.258 
  845600    572.62998   -3177.0464    68.244812   -3108.8016 
  845800    636.44273    -3172.213    75.849878   -3096.3631 
  846000    604.57442   -3173.1544    72.051882   -3101.1025 
  846200    574.25939   -3177.0196    68.439001   -3108.5806 
  846400    600.54316   -3170.2821    71.571445   -3098.7107 
  846600    597.45752    -3172.422    71.203705   -3101.2183 
  846800    580.35395   -3172.0719    69.165338   -3102.9066 
  847000    599.97249   -3171.3688    71.503434   -3099.8654 
  847200    583.54998   -3176.1009    69.546234   -3106.5547 
  847400    589.98324   -3174.2902    70.312936   -3103.9772 
  847600    623.73543   -3173.2984     74.33545   -3098.9629 
  847800    602.57112   -3176.9178    71.813133   -3105.1047 
  848000    617.69991   -3177.1365    73.616149   -3103.5204 
  848200    630.00147   -3176.5744    75.082223   -3101.4922 
  848400      580.509   -3172.9441    69.183816   -3103.7603 
  848600    609.50514   -3173.8457    72.639514   -3101.2062 
  848800    588.07603   -3172.1915    70.085639   -3102.1058 
  849000    587.73183   -3173.5922    70.044619   -3103.5476 
  849200    595.50936   -3174.6076    70.971528   -3103.6361 
  849400    582.61098   -3173.5726    69.434326   -3104.1383 
  849600    597.45884   -3172.0952    71.203862   -3100.8913 
  849800    628.77474   -3174.8685    74.936024   -3099.9325 
  850000    599.62024   -3179.1407    71.461454   -3107.6792 
  850200    615.42689   -3176.6317    73.345256   -3103.2864 
  850400    610.67859   -3171.1662    72.779364   -3098.3868 
  850600    600.13197   -3174.6188    71.522441   -3103.0963 
  850800     582.0142    -3176.419    69.363203   -3107.0558 
  851000    617.11906    -3174.145    73.546925    -3100.598 
  851200     589.5389   -3172.7478     70.25998   -3102.4879 
  851400    590.32425   -3175.0989    70.353577   -3104.7454 
  851600    595.12083   -3170.0795    70.925224   -3099.1543 
  851800    633.37878   -3175.4566    75.484723   -3099.9719 
  852000    568.01716   -3173.9962    67.695066   -3106.3011 
  852200    606.88341   -3176.0007    72.327062   -3103.6736 
  852400    609.94931    -3173.604    72.692449   -3100.9115 
  852600    592.99784   -3174.9995    70.672209   -3104.3273 
  852800    588.54784   -3173.2229    70.141868    -3103.081 
  853000    614.14462   -3173.8399    73.192438   -3100.6475 
  853200    597.97678   -3172.6945     71.26559    -3101.429 
  853400    615.90023   -3174.5126    73.401668   -3101.1109 
  853600    585.71526   -3174.2696    69.804288   -3104.4653 
  853800    591.32283   -3172.9975    70.472586   -3102.5249 
  854000     600.1122   -3171.6585    71.520084   -3100.1385 
  854200    592.10616   -3174.6224    70.565941   -3104.0564 
  854400    601.10819   -3174.3669    71.638784   -3102.7281 
  854600    601.69798   -3172.2806    71.709074   -3100.5715 
  854800    602.12343   -3173.6658    71.759778    -3101.906 
  855000    590.86675   -3172.6087    70.418231   -3102.1905 
  855200    609.43068   -3172.9661     72.63064   -3100.3355 
  855400    595.32689   -3174.5467    70.949781    -3103.597 
  855600    589.99233   -3171.6485    70.314019   -3101.3345 
  855800    612.13057   -3171.5387    72.952407   -3098.5863 
  856000    599.97297   -3174.9848    71.503491   -3103.4813 
  856200    583.11785   -3175.3804    69.494734   -3105.8857 
  856400    587.67321   -3171.0012    70.037632   -3100.9635 
  856600    629.41014   -3169.8069     75.01175   -3094.7952 
  856800    608.39213    -3174.763    72.506868   -3102.2561 
  857000    583.10476   -3178.7644    69.493174   -3109.2712 
  857200    632.49795   -3173.8534    75.379748   -3098.4736 
  857400    633.21567   -3174.2493    75.465285    -3098.784 
  857600    578.47053   -3174.3174    68.940876   -3105.3766 
  857800    608.13875   -3174.9059    72.476671   -3102.4292 
  858000    602.65445   -3174.0073    71.823064   -3102.1842 
  858200    606.91864   -3171.6714    72.331261   -3099.3401 
  858400    591.00672   -3171.3673    70.434912   -3100.9324 
  858600    598.92344   -3177.2221     71.37841   -3105.8437 
  858800    606.69327   -3175.3619    72.304402   -3103.0574 
  859000    624.13856   -3174.2637    74.383494   -3099.8802 
  859200    594.38777   -3174.5777    70.837859   -3103.7399 
  859400    598.74617   -3172.9578    71.357283   -3101.6005 
  859600    601.69142   -3171.2033    71.708292    -3099.495 
  859800    590.70624   -3173.6735    70.399102   -3103.2744 
  860000    582.87107   -3173.5158    69.465323   -3104.0505 
  860200    607.78243   -3173.9073    72.434205   -3101.4731 
  860400    594.52748   -3173.9992    70.854509   -3103.1447 
  860600    589.82275   -3170.5756    70.293809   -3100.2818 
  860800    581.73448    -3173.877    69.329867   -3104.5471 
  861000    579.84737   -3173.6018    69.104965   -3104.4968 
  861200    635.05628   -3170.6271    75.684644   -3094.9425 
  861400    592.45674   -3174.2619    70.607723   -3103.6542 
  861600    605.02339    -3179.247    72.105388   -3107.1416 
  861800    638.14628   -3172.8211    76.052904   -3096.7682 
  862000    613.54429   -3174.0062    73.120891   -3100.8853 
  862200    562.26526    -3176.936    67.009567   -3109.9264 
  862400     615.2973   -3173.7771    73.329812   -3100.4472 
  862600    601.07663   -3165.8802    71.635022   -3094.2451 
  862800    589.11399   -3176.3373    70.209341    -3106.128 
  863000    585.20655   -3178.0598     69.74366   -3108.3161 
  863200    618.22777   -3171.8808    73.679059   -3098.2017 
  863400     596.4037   -3171.2079    71.078112   -3100.1298 
  863600    594.66031   -3174.5248    70.870339   -3103.6545 
  863800    605.28917   -3175.4254    72.137064   -3103.2884 
  864000    625.66568    -3175.109    74.565493   -3100.5435 
  864200    611.51791   -3174.4701    72.879392   -3101.5908 
  864400    590.89313   -3174.9991    70.421375   -3104.5777 
  864600    585.75383   -3170.6015    69.808884   -3100.7926 
  864800     610.4236   -3171.0923    72.748975   -3098.3433 
  865000    589.51683    -3176.074    70.257351   -3105.8166 
  865200    595.62107   -3174.3179    70.984841   -3103.3331 
  865400    602.52096   -3169.8239    71.807155   -3098.0168 
  865600    610.85355   -3174.0561    72.800215   -3101.2559 
  865800    597.73277   -3172.3245    71.236509    -3101.088 
  866000    595.40893   -3172.4168    70.959559   -3101.4572 
  866200    581.75947   -3173.5258    69.332845   -3104.1929 
  866400     604.3529   -3170.7178    72.025481   -3098.6923 
  866600    618.08881   -3174.7646    73.662498   -3101.1021 
  866800    588.86746   -3176.0435     70.17996   -3105.8636 
  867000    611.11224   -3170.3823    72.831045   -3097.5513 
  867200    620.56113   -3171.5114    73.957144   -3097.5543 
  867400    597.34961   -3174.6122    71.190845   -3103.4213 
  867600    604.57748   -3174.0157    72.052246   -3101.9635 
  867800    604.97959   -3171.3724    72.100169   -3099.2722 
  868000    614.72103   -3171.9022    73.261132   -3098.6411 
  868200    596.59491   -3174.2533      71.1009   -3103.1524 
  868400    607.37148   -3175.3625    72.385229   -3102.9773 
  868600    616.19553   -3171.6254    73.436861   -3098.1885 
  868800    600.52861   -3169.9007    71.569711    -3098.331 
  869000    619.42421   -3176.5623    73.821647   -3102.7406 
  869200    590.91478   -3172.9034    70.423955   -3102.4794 
  869400    613.61012   -3170.3329    73.128738   -3097.2042 
  869600    603.52382   -3173.1723    71.926674   -3101.2456 
  869800    562.19904   -3173.5024    67.001674   -3106.5007 
  870000    621.73211   -3171.7907    74.096699    -3097.694 
  870200    603.90785   -3173.0905    71.972442   -3101.1181 
  870400     576.2629   -3173.3902    68.677776   -3104.7124 
  870600    619.79394   -3170.7227    73.865711    -3096.857 
  870800    616.86637   -3173.2166     73.51681   -3099.6998 
  871000    594.69878    -3175.719    70.874924    -3104.844 
  871200    618.70578   -3174.0423    73.736027   -3100.3062 
  871400    626.72023   -3174.8642    74.691172    -3100.173 
  871600    594.43961   -3174.5908    70.844037   -3103.7468 
  871800    599.94813   -3172.9931     71.50053   -3101.4926 
  872000    607.37542   -3174.0945      72.3857   -3101.7088 
  872200    593.32269   -3170.5231    70.710925   -3099.8121 
  872400    618.13675    -3175.488    73.668211   -3101.8198 
  872600    600.47616    -3177.062     71.56346   -3105.4985 
  872800    613.51665   -3171.2078    73.117598   -3098.0902 
  873000    610.95151   -3173.1411     72.81189   -3100.3292 
  873200    592.21281   -3173.5739    70.578652   -3102.9952 
  873400    605.88434   -3170.4808    72.207995   -3098.2728 
  873600    630.62246   -3172.2146    75.156231   -3097.0584 
  873800    591.35871   -3171.3684    70.476862   -3100.8915 
  874000    617.40008   -3174.7035    73.580417   -3101.1231 
  874200    594.29103   -3172.2094    70.826329   -3101.3831 
  874400    623.23843   -3175.4384    74.276218   -3101.1622 
  874600    618.75719   -3170.7841    73.742154   -3097.0419 
  874800    582.71533   -3174.2297    69.446762    -3104.783 
  875000    577.73824   -3172.2848    68.853603   -3103.4312 
  875200    646.95801   -3171.0916    77.103067   -3093.9885 
  875400    597.26025   -3174.1182    71.180195    -3102.938 
  875600    612.61799   -3176.1322    73.010497   -3103.1217 
  875800     623.1414   -3169.8713    74.264655   -3095.6066 
  876000    619.89829   -3173.6221    73.878148    -3099.744 
  876200    580.40312   -3173.2374    69.171198   -3104.0662 
  876400    599.42673   -3168.6119    71.438391   -3097.1736 
  876600    611.87365   -3170.5429    72.921788   -3097.6211 
  876800    602.22216   -3175.0035    71.771544   -3103.2319 
  877000    616.29063   -3171.3251    73.448194   -3097.8769 
  877200    617.98809   -3173.8541    73.650495   -3100.2036 
  877400    611.09761   -3178.3559    72.829302   -3105.5266 
  877600    602.35984   -3169.8298    71.787953   -3098.0418 
  877800     618.7846   -3168.3232    73.745421   -3094.5778 
  878000     596.1688      -3175.8    71.050118   -3104.7499 
  878200    601.57585   -3175.6987    71.694519   -3104.0042 
  878400    631.15983   -3172.3609    75.220274   -3097.1407 
  878600    607.29359   -3170.9986    72.375946   -3098.6227 
  878800    567.14371   -3174.9561     67.59097   -3107.3651 
  879000    585.45351   -3171.0655    69.773093   -3101.2924 
  879200     614.2003   -3165.0996    73.199074   -3091.9005 
  879400    590.68508   -3171.6547     70.39658   -3101.2582 
  879600    619.29123   -3175.7339      73.8058   -3101.9281 
  879800    622.23498   -3171.2279    74.156629   -3097.0713 
  880000    622.57913    -3174.031    74.197645   -3099.8334 
  880200    601.80989   -3172.8543    71.722411   -3101.1319 
  880400    592.71484   -3172.5697    70.638483   -3101.9312 
  880600    606.16665   -3175.5297     72.24164    -3103.288 
  880800    618.66639   -3172.1841    73.731333   -3098.4527 
  881000    637.62388   -3174.9823    75.990645   -3098.9916 
  881200    600.93659    -3174.024    71.618333   -3102.4057 
  881400    606.45484   -3170.0763    72.275987   -3097.8003 
  881600    615.05612   -3171.9982    73.301069   -3098.6971 
  881800    553.61272    -3173.212    65.978376   -3107.2336 
  882000    614.60005    -3170.467    73.246715   -3097.2202 
  882200    601.66962   -3169.6649    71.705694   -3097.9592 
  882400    596.01318   -3178.7804    71.031572   -3107.7488 
  882600    612.53422   -3171.8526    73.000514   -3098.8521 
  882800    631.71378   -3168.4857    75.286292   -3093.1994 
  883000    562.47695   -3171.7902    67.034796   -3104.7554 
  883200    600.01073   -3172.5854    71.507991   -3101.0775 
  883400    655.10725    -3172.908    78.074277   -3094.8338 
  883600    602.23443   -3174.6025    71.773006   -3102.8295 
  883800    592.87357   -3173.5611    70.657399   -3102.9037 
  884000    611.49311   -3172.2508    72.876436   -3099.3743 
  884200    590.65219   -3171.7564     70.39266   -3101.3637 
  884400    629.70322   -3170.9629    75.046678   -3095.9162 
  884600     599.1504   -3173.9358    71.405459   -3102.5304 
  884800    619.01042   -3177.0919    73.772333   -3103.3195 
  885000    641.94485   -3170.0072     76.50561   -3093.5016 
  885200    609.34656   -3171.8708    72.620615   -3099.2502 
  885400    566.37165   -3171.7215    67.498958   -3104.2225 
  885600    641.75918   -3168.8989    76.483482   -3092.4154 
  885800    609.21143   -3172.7808     72.60451   -3100.1763 
  886000    598.48677   -3174.2677    71.326369   -3102.9413 
  886200    637.84558   -3171.7989    76.017067   -3095.7818 
  886400    594.24802   -3172.1052    70.821204    -3101.284 
  886600    623.35685   -3173.4377    74.290332   -3099.1474 
  886800    632.39864   -3169.6481    75.367912   -3094.2802 
  887000    595.04987    -3174.332    70.916767   -3103.4153 
  887200    609.30028   -3174.5214      72.6151   -3101.9063 
  887400    607.29275   -3168.0027    72.375847   -3095.6269 
  887600    622.15405   -3172.1145    74.146985   -3097.9675 
  887800    607.48833   -3172.8372    72.399155    -3100.438 
  888000    606.32291   -3173.9097    72.260263   -3101.6494 
  888200    590.17341   -3168.7161      70.3356   -3098.3805 
  888400    621.51543   -3172.1457    74.070874   -3098.0748 
  888600    604.80949   -3174.5213    72.079897   -3102.4414 
  888800     620.9671   -3173.0808    74.005527   -3099.0752 
  889000    591.05937   -3171.2855    70.441187   -3100.8443 
  889200    603.19885    -3171.443    71.887944   -3099.5551 
  889400    630.29914   -3169.8999    75.117698   -3094.7822 
  889600    613.73707   -3175.6673    73.143867   -3102.5234 
  889800    588.16686   -3173.3641    70.096464   -3103.2677 
  890000    619.20365   -3169.0448    73.795363   -3095.2494 
  890200    609.82931   -3172.7851    72.678149   -3100.1069 
  890400    603.96378   -3175.5717    71.979107   -3103.5926 
  890600    645.09284   -3171.5193     76.88078   -3094.6386 
  890800     613.1419   -3173.3891    73.072936   -3100.3161 
  891000    613.79688   -3175.8581    73.150995   -3102.7071 
  891200    632.20322   -3168.7029    75.344623   -3093.3583 
  891400    583.66724   -3172.0362    69.560209    -3102.476 
  891600     593.8937   -3173.4951    70.778976   -3102.7161 
  891800    626.94325   -3168.9997    74.717751    -3094.282 
  892000    600.85192   -3173.1732    71.608242   -3101.5649 
  892200    623.46031   -3173.5708    74.302662   -3099.2682 
  892400    635.75304   -3172.7612    75.767682   -3096.9935 
  892600    623.75078   -3173.5138    74.337279   -3099.1765 
  892800    609.14826   -3171.3616    72.596983   -3098.7647 
  893000    596.26784   -3169.3951    71.061921   -3098.3332 
  893200    604.59424   -3174.2058    72.054244   -3102.1515 
  893400    633.15762   -3172.6723    75.458366   -3097.2139 
  893600    618.28916   -3167.8393    73.686376    -3094.153 
  893800    576.47978   -3170.2359    68.703623   -3101.5323 
  894000    596.84353   -3172.2136    71.130531   -3101.0831 
  894200     649.4442   -3172.8822    77.399366   -3095.4828 
  894400    606.80492   -3170.9872    72.317707   -3098.6695 
  894600    612.67131   -3172.5187    73.016852   -3099.5018 
  894800     604.8374   -3172.5012    72.083223    -3100.418 
  895000    616.82713   -3171.9059    73.512134   -3098.3937 
  895200    624.29018   -3170.7177    74.401564   -3096.3161 
  895400    600.71683   -3175.7269    71.592143   -3104.1348 
  895600    590.34025   -3170.7615    70.355484    -3100.406 
  895800    642.73748   -3166.1621    76.600074    -3089.562 
  896000    593.22514   -3173.9579    70.699299   -3103.2586 
  896200    573.25896   -3174.6773    68.319773   -3106.3575 
  896400    676.12434   -3171.3469    80.579048   -3090.7679 
  896600    619.28771   -3172.9324     73.80538    -3099.127 
  896800    609.02695   -3175.4455    72.582525   -3102.8629 
  897000    621.76691   -3171.2113    74.100845   -3097.1105 
  897200    609.07391   -3170.7983    72.588122   -3098.2101 
  897400    619.86507   -3168.9511    73.874189   -3095.0769 
  897600    621.96801   -3171.4698    74.124812    -3097.345 
  897800    615.67876   -3173.4534    73.375273   -3100.0781 
  898000      625.446   -3170.5149    74.539312   -3095.9756 
  898200    599.07624   -3171.0842    71.396621   -3099.6876 
  898400    595.06018   -3171.4724    70.917995   -3100.5544 
  898600    629.22064   -3172.3391    74.989166     -3097.35 
  898800    578.52142   -3168.6213    68.946941   -3099.6744 
  899000    624.66834   -3171.7366    74.446632   -3097.2899 
  899200    597.81088   -3169.8067    71.245818   -3098.5609 
  899400    607.65818   -3171.5404    72.419398    -3099.121 
  899600    626.72734    -3171.957     74.69202    -3097.265 
  899800    625.87995   -3173.2533     74.59103   -3098.6623 
  900000     631.5076   -3173.2243     75.26172   -3097.9626 
  900200    618.66416   -3172.3897    73.731067   -3098.6587 
  900400    582.28378   -3173.7048    69.395332   -3104.3095 
  900600    611.64454   -3169.7181    72.894483   -3096.8236 
  900800    620.04638   -3167.1772    73.895796   -3093.2814 
  901000    582.95066   -3174.8504    69.474809   -3105.3756 
  901200    612.06586   -3172.9922    72.944695   -3100.0475 
  901400    652.34776   -3170.3343    77.745406   -3092.5889 
  901600    580.80843   -3173.2676    69.219502   -3104.0481 
  901800    640.32558   -3173.7972    76.312628   -3097.4846 
  902000    614.81585   -3169.1949    73.272433   -3095.9224 
  902200    618.59684   -3174.1839    73.723043   -3100.4609 
  902400    614.81877   -3170.6141    73.272781   -3097.3413 
  902600    608.53374    -3169.711    72.523745   -3097.1873 
  902800    596.89018   -3172.1062     71.13609   -3100.9701 
  903000     638.2581   -3174.9965    76.066231   -3098.9302 
  903200    639.07549   -3175.5765    76.163645   -3099.4129 
  903400    620.17989   -3173.7123    73.911708   -3099.8006 
  903600    643.60371   -3171.9673    76.703309    -3095.264 
  903800    593.73742   -3171.2741    70.760351   -3100.5137 
  904000    603.67828   -3173.2038    71.945081   -3101.2587 
  904200    630.37346   -3170.4144    75.126556   -3095.2879 
  904400    594.67364   -3172.1288    70.871929   -3101.2569 
  904600    615.86453    -3173.183    73.397413   -3099.7856 
  904800    654.19155   -3171.5956    77.965145   -3093.6304 
  905000     603.8005   -3174.0555    71.959648   -3102.0958 
  905200    627.14558    -3174.752    74.741864   -3100.0101 
  905400    611.93716   -3170.6607    72.929357   -3097.7313 
  905600     606.9861   -3169.2696      72.3393   -3096.9303 
  905800    607.07196   -3171.2727    72.349533   -3098.9232 
  906000    623.37852   -3174.8974    74.292914   -3100.6045 
  906200    604.15191   -3170.4056    72.001528   -3098.4041 
  906400    618.02638   -3169.6192    73.655058   -3095.9641 
  906600     638.6409   -3173.3798    76.111851   -3097.2679 
  906800    599.66782   -3169.7912    71.467123   -3098.3241 
  907000    657.08497   -3174.9531    78.309977   -3096.6431 
  907200    618.31168   -3173.0873    73.689059   -3099.3982 
  907400    625.04837   -3170.3181    74.491923   -3095.8262 
  907600    648.77907   -3174.3147    77.320097   -3096.9946 
  907800    617.00179   -3175.5856    73.532949   -3102.0526 
  908000    636.54596   -3172.6621    75.862181   -3096.7999 
  908200     646.9426   -3171.9732     77.10123   -3094.8719 
  908400    596.98831   -3175.2489    71.147785   -3104.1011 
  908600    624.35519    -3170.575    74.409311   -3096.1657 
  908800     636.3669   -3167.0467    75.840841   -3091.2058 
  909000    599.44589   -3176.8708    71.440675   -3105.4301 
  909200    625.86602   -3175.3195    74.589369   -3100.7302 
  909400    648.88869   -3169.6315    77.333161   -3092.2984 
  909600    596.38127   -3170.9119     71.07544   -3099.8365 
  909800    600.88204   -3171.2119    71.611831   -3099.6001 
  910000    605.75042   -3171.9457    72.192034   -3099.7537 
  910200    613.15136   -3167.6325    73.074063   -3094.5584 
  910400    629.05077    -3172.658    74.968921   -3097.6891 
  910600    592.84074   -3173.2093    70.653487   -3102.5558 
  910800    607.45279   -3170.8466     72.39492   -3098.4517 
  911000      625.886   -3169.6117     74.59175   -3095.0199 
  911200    619.52986   -3172.8177    73.834239   -3098.9835 
  911400    622.11702   -3176.6308    74.142571   -3102.4882 
  911600    615.66151   -3171.1952    73.373218    -3097.822 
  911800    632.03004   -3169.8913    75.323984   -3094.5674 
  912000    597.34579   -3172.8501    71.190389   -3101.6597 
  912200    621.30993   -3173.2533    74.046384   -3099.2069 
  912400    647.98418   -3169.2952    77.225363   -3092.0698 
  912600    590.20384   -3170.1508    70.339227   -3099.8116 
  912800    590.78942   -3170.5892    70.409015   -3100.1802 
  913000    619.35033   -3169.3314    73.812844   -3095.5186 
  913200    620.47199   -3168.0896     73.94652   -3094.1431 
  913400    612.48215   -3173.3885    72.994308   -3100.3941 
  913600     610.5715   -3174.3915    72.766601   -3101.6249 
  913800    647.35834   -3168.1499    77.150778   -3090.9991 
  914000    581.30682   -3165.7537    69.278899   -3096.4748 
  914200    588.10764   -3172.7667    70.089407   -3102.6773 
  914400    625.80781   -3170.2296    74.582432   -3095.6471 
  914600    627.12501   -3168.5472    74.739413   -3093.8078 
  914800    630.04246   -3174.7428    75.087108   -3099.6557 
  915000    607.96645   -3175.2802    72.456136   -3102.8241 
  915200    631.94555   -3170.6823    75.313915   -3095.3684 
  915400    642.16021   -3170.3711    76.531276   -3093.8399 
  915600    589.24542   -3170.6356    70.225005   -3100.4106 
  915800    608.78461   -3172.8141    72.553643   -3100.2605 
  916000    632.35357   -3170.4978    75.362542   -3095.1352 
  916200    619.94038   -3170.7879    73.883164   -3096.9048 
  916400    602.04345    -3170.381    71.750246   -3098.6308 
  916600    604.22362   -3169.5588    72.010075   -3097.5487 
  916800     633.6272   -3171.1365    75.514329   -3095.6222 
  917000    622.62763   -3168.5593    74.203425   -3094.3559 
  917200    623.55035   -3173.1381    74.313392   -3098.8247 
  917400    608.48449   -3172.9476    72.517876   -3100.4297 
  917600    628.20562   -3168.3686    74.868197   -3093.5004 
  917800    626.78097   -3171.6294    74.698411    -3096.931 
  918000     603.0364   -3170.6303    71.868583   -3098.7617 
  918200    632.20805   -3169.2312    75.345198    -3093.886 
  918400    605.45154    -3166.195    72.156415   -3094.0386 
  918600    610.98696   -3169.6041    72.816115   -3096.7879 
  918800    610.27465   -3168.8586    72.731223   -3096.1273 
  919000    605.16283   -3168.9099    72.122007   -3096.7879 
  919200    640.07149   -3169.8291    76.282347   -3093.5467 
  919400    621.84747   -3169.3213    74.110447   -3095.2109 
  919600    614.66311   -3174.4748     73.25423   -3101.2206 
  919800    630.62003    -3169.547    75.155942   -3094.3911 
  920000    634.65353   -3170.0394    75.636645   -3094.4028 
  920200    610.95584   -3172.1467    72.812406   -3099.3343 
  920400    632.18107   -3170.8199    75.341983   -3095.4779 
  920600    634.43116   -3172.2188    75.610144   -3096.6087 
  920800    615.05877   -3170.7633    73.301384   -3097.4619 
  921000     625.9437     -3169.11    74.598626   -3094.5114 
  921200    637.70939   -3172.9422    76.000836   -3096.9413 
  921400    603.29199    -3170.077    71.899044    -3098.178 
  921600    629.26851   -3169.6804    74.994871   -3094.6855 
  921800    627.81224   -3171.9156    74.821315   -3097.0943 
  922000    594.88872   -3171.5135    70.897561    -3100.616 
  922200    613.73965   -3167.3623    73.144174   -3094.2181 
  922400    635.49747   -3171.1045    75.737225   -3095.3673 
  922600    604.58887    -3172.701    72.053604   -3100.6474 
  922800     615.1638   -3167.9481    73.313902   -3094.6342 
  923000    635.51119   -3167.2754    75.738859   -3091.5365 
  923200    626.56211   -3171.3102    74.672328   -3096.6378 
  923400    623.47626   -3171.8864    74.304562   -3097.5818 
  923600    614.06323   -3170.3295    73.182737   -3097.1468 
  923800    654.11492    -3171.097    77.956012    -3093.141 
  924000    624.20297   -3167.2783    74.391171   -3092.8871 
  924200    612.30842   -3171.1101    72.973603   -3098.1365 
  924400    612.84258   -3170.2526    73.037263   -3097.2153 
  924600    636.80088    -3170.691    75.892562   -3094.7985 
  924800    613.95884   -3170.5242    73.170296   -3097.3539 
  925000    624.22217   -3169.2259    74.393459   -3094.8324 
  925200     617.5749   -3169.6707    73.601251   -3096.0694 
  925400    611.55746   -3170.6017    72.884106   -3097.7176 
  925600     618.3933   -3166.6914    73.698786   -3092.9926 
  925800    647.01509    -3172.744     77.10987   -3095.6341 
  926000    601.37013   -3171.1535    71.670001   -3099.4835 
  926200    611.23491   -3169.0985    72.845665   -3096.2529 
  926400    629.52328   -3169.0722    75.025234   -3094.0469 
  926600     624.3227    -3172.461     74.40544   -3098.0556 
  926800    618.27558   -3171.3758    73.684757   -3097.6911 
  927000     628.2355   -3167.2175    74.871759   -3092.3457 
  927200    610.11883   -3167.6781    72.712652   -3094.9654 
  927400    620.33176   -3167.0736    73.929808   -3093.1438 
  927600    626.15905   -3167.7304    74.624292   -3093.1061 
  927800    612.57064   -3170.1157    73.004854   -3097.1109 
  928000    644.67032   -3170.1835    76.830425    -3093.353 
  928200    622.84003   -3166.7611    74.228738   -3092.5324 
  928400    622.79653   -3170.2754    74.223554   -3096.0519 
  928600     609.3302   -3171.1824    72.618665   -3098.5638 
  928800    626.41332    -3169.466    74.654595   -3094.8114 
  929000    623.78564   -3166.7078    74.341433   -3092.3663 
  929200    609.40065   -3167.8287    72.627062   -3095.2017 
  929400    621.68184   -3168.3684    74.090707   -3094.2776 
  929600     636.5345   -3167.2632    75.860815   -3091.4024 
  929800     619.2536   -3173.0076    73.801314   -3099.2062 
  930000    603.77174   -3168.3513     71.95622   -3096.3951 
  930200    640.01771   -3166.2765    76.275937   -3090.0005 
  930400    606.51469   -3170.6906    72.283119   -3098.4075 
  930600    631.55201   -3170.4218    75.267012   -3095.1548 
  930800    641.87403   -3171.5701    76.497169    -3095.073 
  931000    630.18998   -3173.7587    75.104689   -3098.6541 
  931200    660.16777   -3172.2932    78.677378   -3093.6158 
  931400    634.60096    -3171.069     75.63038   -3095.4387 
  931600    617.19713   -3172.9361     73.55623   -3099.3799 
  931800    639.39545   -3170.4147    76.201777   -3094.2129 
  932000    605.65245   -3165.1394    72.180359    -3092.959 
  932200    640.89887   -3171.3836    76.380952   -3095.0027 
  932400    611.16052   -3172.3136    72.836799   -3099.4768 
  932600    626.11671   -3173.0671    74.619246   -3098.4479 
  932800    652.02813   -3169.0851    77.707313   -3091.3778 
  933000    611.59954   -3171.4819     72.88912   -3098.5928 
  933200    594.02884   -3168.8249    70.795082   -3098.0298 
  933400    656.58297   -3168.4433    78.250149   -3090.1931 
  933600    602.74027    -3170.363    71.833291   -3098.5297 
  933800    631.20434   -3172.0817    75.225578   -3096.8561 
  934000    649.62424   -3171.5141    77.420822   -3094.0933 
  934200    594.53908   -3169.6076    70.855891   -3098.7517 
  934400    614.99212   -3165.0693    73.293441   -3091.7759 
  934600    659.11592   -3171.9388     78.55202   -3093.3868 
  934800    609.14426   -3172.6978    72.596506   -3100.1013 
  935000    632.10792   -3169.0618    75.333266   -3093.7285 
  935200    624.48868   -3167.9384     74.42522   -3093.5131 
  935400    640.74145   -3171.5632     76.36219    -3095.201 
  935600    619.88997    -3173.602    73.877156   -3099.7249 
  935800    629.86618   -3169.5956    75.066099   -3094.5295 
  936000    629.30756   -3165.8165    74.999525   -3090.8169 
  936200    614.41831   -3171.6855    73.225055   -3098.4604 
  936400    612.40765   -3172.2402    72.985429   -3099.2548 
  936600    659.29358   -3171.3876    78.573194   -3092.8144 
  936800    629.51843    -3169.292    75.024656   -3094.2673 
  937000    628.68887   -3171.5959    74.925791   -3096.6701 
  937200    634.57549   -3171.6711    75.627345   -3096.0438 
  937400    611.44284    -3171.083    72.870446   -3098.2125 
  937600    649.91363   -3170.7063    77.455311    -3093.251 
  937800    629.40876   -3169.4966    75.011585    -3094.485 
  938000    614.92967   -3172.5025    73.285998   -3099.2165 
  938200    616.00311   -3166.3969    73.413928    -3092.983 
  938400    647.65135   -3167.8621    77.185698   -3090.6764 
  938600    611.13513   -3175.1631    72.833773   -3102.3293 
  938800    619.07567   -3171.0726     73.78011   -3097.2925 
  939000    641.04244   -3163.8232    76.398062   -3087.4251 
  939200    621.50105   -3172.5208    74.069161   -3098.4516 
  939400    626.75553   -3172.8682    74.695379   -3098.1728 
  939600    649.81375    -3171.067    77.443408   -3093.6236 
  939800    599.32203   -3166.8022    71.425913   -3095.3763 
  940000    655.77831   -3172.0285    78.154252   -3093.8743 
  940200    614.22073   -3170.9374    73.201508   -3097.7358 
  940400    614.83685   -3172.4431    73.274936   -3099.1681 
  940600    642.08259   -3167.7564    76.522025   -3091.2344 
  940800    605.43895   -3167.6002    72.154914   -3095.4453 
  941000    609.05289   -3171.5737    72.585617   -3098.9881 
  941200    637.07003   -3170.7397    75.924639    -3094.815 
  941400    607.32859   -3167.3189    72.380118   -3094.9388 
  941600     649.5604   -3171.6378    77.413214   -3094.2246 
  941800    620.66189   -3172.3501    73.969152   -3098.3809 
  942000    588.25469   -3170.0577    70.106932   -3099.9507 
  942200      652.123   -3166.7511     77.71862   -3089.0324 
  942400     629.0895   -3167.2397    74.973537   -3092.2662 
  942600    605.40685   -3175.1588     72.15109   -3103.0077 
  942800    660.17905   -3169.5806    78.678723   -3090.9019 
  943000    637.37133   -3167.6598    75.960547   -3091.6993 
  943200    620.90496   -3172.3731     73.99812    -3098.375 
  943400     608.4966   -3168.0923    72.519319    -3095.573 
  943600    643.66053   -3170.1546    76.710081   -3093.4445 
  943800    642.75918   -3170.9371     76.60266   -3094.3345 
  944000    647.63399   -3168.7122    77.183629   -3091.5286 
  944200    614.50747   -3172.2439    73.235682   -3099.0083 
  944400    620.83733   -3170.4352    73.990061   -3096.4452 
  944600    643.77854   -3166.0222    76.724144    -3089.298 
  944800    623.94726   -3171.3796    74.360695   -3097.0189 
  945000    616.89045    -3175.398     73.51968   -3101.8783 
  945200    649.39538   -3168.2924    77.393548   -3090.8988 
  945400    650.08999   -3168.6108     77.47633   -3091.1344 
  945600     590.2126    -3172.551    70.340271   -3102.2108 
  945800    625.12379   -3169.9491    74.500911   -3095.4482 
  946000    665.34525   -3170.6399    79.294419   -3091.3455 
  946200    619.19383    -3172.387    73.794192   -3098.5928 
  946400    624.84562   -3171.5421    74.467759   -3097.0743 
  946600     652.4948   -3171.1143     77.76293   -3093.3514 
  946800    617.39361   -3170.1795    73.579646   -3096.5998 
  947000    646.60694   -3169.9988    77.061228   -3092.9376 
  947200    640.51599   -3171.8461    76.335321   -3095.5107 
  947400    621.32802   -3174.1571     74.04854   -3100.1086 
  947600    653.70105   -3170.6279    77.906688   -3092.7212 
  947800    617.73323   -3168.9817    73.620121   -3095.3616 
  948000    628.29816   -3175.4768    74.879226   -3100.5976 
  948200    652.13003   -3170.8798    77.719457   -3093.1604 
  948400    628.56237   -3168.5907    74.910714     -3093.68 
  948600    622.56296   -3170.0754    74.195718   -3095.8796 
  948800    638.65137   -3169.3082      76.1131   -3093.1951 
  949000    615.28308   -3170.9212    73.328117   -3097.5931 
  949200    648.08731   -3172.7923    77.237654   -3095.5547 
  949400    651.69643   -3164.8637    77.667782   -3087.1959 
  949600    604.56109   -3172.1985    72.050293   -3100.1482 
  949800     607.0613   -3172.1906    72.348262   -3099.8424 
  950000    666.03249   -3164.1746    79.376323   -3084.7983 
  950200    631.81647   -3168.1229     75.29853   -3092.8244 
  950400     618.6979   -3173.7992    73.735088   -3100.0641 
  950600    642.16202   -3168.8433    76.531492   -3092.3118 
  950800    647.67315   -3167.0214    77.188296   -3089.8331 
  951000    624.57068   -3171.0228    74.434993   -3096.5878 
  951200    653.16622   -3169.9688    77.842948   -3092.1258 
  951400    640.47997   -3169.4467    76.331028   -3093.1157 
  951600    621.58479   -3171.2193    74.079141   -3097.1401 
  951800    641.99514   -3169.6042    76.511603   -3093.0926 
  952000    641.12369   -3172.1101    76.407745   -3095.7024 
  952200    616.15247     -3170.93    73.431729   -3097.4983 
  952400    661.38472   -3171.2082    78.822412   -3092.3858 
  952600    628.64042   -3170.4323    74.920017   -3095.5123 
  952800    649.17569   -3171.6591    77.367365   -3094.2917 
  953000    647.57938   -3170.8803    77.177121   -3093.7031 
  953200    631.21026   -3171.9473    75.226284    -3096.721 
  953400    655.57008   -3169.7346    78.129435   -3091.6052 
  953600    623.81085   -3169.1258    74.344438   -3094.7814 
  953800    614.60988   -3171.5946    73.247886   -3098.3467 
  954000    640.01887   -3166.1135    76.276076   -3089.8375 
  954200    605.51364   -3166.7889    72.163816   -3094.6251 
  954400    627.95493   -3171.9179    74.838321   -3097.0796 
  954600    629.00291   -3169.1072    74.963216    -3094.144 
  954800    640.36447   -3166.8317    76.317263   -3090.5144 
  955000    650.75629   -3169.8164    77.555738   -3092.2607 
  955200    644.53534   -3172.0924    76.814338    -3095.278 
  955400    623.67963   -3167.2313      74.3288   -3092.9025 
  955600    636.18884    -3167.496     75.81962   -3091.6764 
  955800    636.56909   -3169.4992    75.864938   -3093.6343 
  956000    649.67618   -3170.3408    77.427013   -3092.9137 
  956200    624.14519    -3172.076    74.384284   -3097.6917 
  956400    629.16107   -3169.3841    74.982066    -3094.402 
  956600    638.67277   -3166.7977     76.11565    -3090.682 
  956800    633.54627   -3170.7715    75.504684   -3095.2668 
  957000    626.53945    -3169.675    74.669627   -3095.0053 
  957200    668.04907   -3172.0432    79.616655   -3092.4265 
  957400    635.79652   -3169.2303    75.772865   -3093.4574 
  957600    627.36285   -3168.3577    74.767758     -3093.59 
  957800    628.07036   -3169.7912    74.852078   -3094.9391 
  958000    640.32827   -3171.0042    76.312949   -3094.6913 
  958200    660.33595   -3170.6829    78.697421   -3091.9855 
  958400    619.60569   -3171.1647    73.843276   -3097.3215 
  958600    642.98755   -3172.9096    76.629876   -3096.2797 
  958800    642.36916   -3169.6298    76.556178   -3093.0737 
  959000    624.80066   -3168.3654    74.462402    -3093.903 
  959200    643.59017   -3169.4474    76.701695   -3092.7457 
  959400    636.63444   -3170.6151    75.872726   -3094.7423 
  959600    611.18952   -3169.1868    72.840255   -3096.3466 
  959800    671.80775   -3170.3285    80.064606   -3090.2639 
  960000    638.33437   -3169.5474    76.075321   -3093.4721 
  960200    610.34902   -3173.7286    72.740086   -3100.9885 
  960400    625.68849   -3164.8938    74.568211   -3090.3256 
  960600    659.25029   -3170.0041    78.568034   -3091.4361 
  960800    611.77336    -3174.726    72.909836   -3101.8162 
  961000    640.31121   -3171.2292    76.310916   -3094.9183 
  961200    654.69798   -3168.6141      78.0255   -3090.5886 
  961400     611.0562   -3168.8795    72.824366   -3096.0552 
  961600    648.29965   -3168.2325     77.26296   -3090.9695 
  961800    621.20716   -3172.3858    74.034136   -3098.3517 
  962000    635.91082   -3171.8035    75.786486    -3096.017 
  962200    660.41399   -3165.1485    78.706722   -3086.4418 
  962400    608.05954   -3170.3856    72.467231   -3097.9184 
  962600    616.98973   -3173.0993    73.531511   -3099.5678 
  962800     670.9725   -3169.4004    79.965063   -3089.4353 
  963000    618.18573   -3167.0135    73.674048   -3093.3395 
  963200    613.34235   -3168.5068    73.096825     -3095.41 
  963400     642.2994   -3168.9574    76.547863   -3092.4095 
  963600    619.09359   -3169.6673    73.782245   -3095.8851 
  963800     644.6519   -3168.8607     76.82823   -3092.0325 
  964000    631.25898    -3169.648     75.23209   -3094.4159 
  964200    618.74924   -3170.2932    73.741207    -3096.552 
  964400    650.50785    -3169.558    77.526129   -3092.0319 
  964600     637.0682   -3169.5663     75.92442   -3093.6419 
  964800    617.34447   -3168.0367    73.573789    -3094.463 
  965000    652.22143   -3171.6207     77.73035   -3093.8904 
  965200     627.6457   -3170.6275    74.801467    -3095.826 
  965400    660.42062   -3170.1835    78.707512    -3091.476 
  965600    618.80314   -3168.8359     73.74763   -3095.0883 
  965800    631.63658    -3170.402    75.277092   -3095.1249 
  966000    643.59411   -3170.9764    76.702165   -3094.2742 
  966200    623.14239   -3168.8595    74.264773   -3094.5947 
  966400    625.57851   -3168.1147    74.555105   -3093.5596 
  966600     630.4615   -3170.8238    75.137048   -3095.6867 
  966800    634.85248   -3172.2861    75.660357   -3096.6258 
  967000    651.18206   -3169.4744     77.60648   -3091.8679 
  967200    625.88151   -3168.8466    74.591216   -3094.2554 
  967400    655.83221   -3173.2815    78.160675   -3095.1208 
  967600    657.80553   -3171.7868    78.395851   -3093.3909 
  967800    627.42079    -3168.929    74.774663   -3094.1544 
  968000    639.97902   -3167.8627    76.271326   -3091.5914 
  968200    653.54697   -3170.9065    77.888325   -3093.0182 
  968400    628.26723   -3170.3718     74.87554   -3095.4963 
  968600    628.95995   -3167.9999    74.958097   -3093.0418 
  968800    627.64267   -3167.7603    74.801106   -3092.9592 
  969000    650.07073   -3170.7051    77.474034    -3093.231 
  969200    643.19702   -3173.3508    76.654841    -3096.696 
  969400     654.8004   -3170.8665    78.037706   -3092.8288 
  969600    659.02483   -3170.0543    78.541165   -3091.5132 
  969800     604.9876   -3174.2176    72.101123   -3102.1165 
  970000    658.59334   -3170.7757    78.489741    -3092.286 
  970200    647.77783   -3165.6696    77.200771   -3088.4688 
  970400    610.73997   -3168.9148    72.786678   -3096.1281 
  970600    621.77533   -3167.8577    74.101849   -3093.7558 
  970800    664.15674    -3171.202    79.152775   -3092.0493 
  971000    629.85303   -3170.7729    75.064533   -3095.7083 
  971200     656.8379   -3168.9899    78.280531   -3090.7094 
  971400    648.65201   -3169.3246    77.304954   -3092.0196 
  971600    612.63843   -3170.9579    73.012933    -3097.945 
  971800    624.10511   -3166.5874    74.379507   -3092.2079 
  972000    649.60875   -3164.6615    77.418977   -3087.2425 
  972200    616.51347    -3172.712    73.474752   -3099.2372 
  972400    646.60268    -3171.666     77.06072   -3094.6053 
  972600    658.84175   -3163.7413    78.519345   -3085.2219 
  972800    623.05129   -3167.5484    74.253915   -3093.2945 
  973000    642.80818   -3170.8804    76.608499   -3094.2719 
  973200    660.35279   -3168.5152    78.699428   -3089.8158 
  973400    631.98358   -3166.6639    75.318446   -3091.3455 
  973600    642.52291   -3168.6003    76.574502   -3092.0258 
  973800    629.34853   -3171.9033    75.004407   -3096.8989 
  974000    651.55828   -3169.2283    77.651317    -3091.577 
  974200    633.82669   -3164.1437    75.538104   -3088.6056 
  974400    635.66702   -3169.8636    75.757431   -3094.1062 
  974600    641.73573   -3173.1128    76.480687   -3096.6321 
  974800    627.22357   -3168.6392    74.751159    -3093.888 
  975000    674.98399     -3169.18    80.443143   -3088.7368 
  975200    644.47427   -3170.8942    76.807061   -3094.0871 
  975400     648.9521   -3172.3875    77.340718   -3095.0468 
  975600    644.46696   -3168.9824    76.806189   -3092.1762 
  975800    653.06755   -3169.3615    77.831189   -3091.5304 
  976000    657.20781   -3172.4083    78.324616   -3094.0837 
  976200    631.76404    -3171.015    75.292283   -3095.7228 
  976400    651.32396   -3168.6241    77.623391   -3091.0007 
  976600    658.22658   -3168.1395    78.446031   -3089.6935 
  976800    636.24804    -3170.925    75.826675   -3095.0983 
  977000    651.25931   -3173.4714    77.615687   -3095.8557 
  977200    661.30663   -3167.0934    78.813104   -3088.2803 
  977400    638.59272    -3169.955     76.10611   -3093.8489 
  977600    594.78984   -3169.7961    70.885776   -3098.9104 
  977800    654.49265   -3166.9458     78.00103   -3088.9447 
  978000    682.96744   -3170.3247    81.394593   -3088.9301 
  978200    608.60228   -3172.1847    72.531913   -3099.6528 
  978400    648.85804   -3170.3072    77.329509   -3092.9777 
  978600    647.65141   -3163.1044    77.185705   -3085.9187 
  978800    630.20627   -3173.0696     75.10663    -3097.963 
  979000    647.94508   -3171.2159    77.220704   -3093.9952 
  979200    665.60395   -3168.7207    79.325251   -3089.3955 
  979400    616.17501   -3167.8318    73.434415   -3094.3973 
  979600    644.04017   -3167.8321    76.755325   -3091.0767 
  979800    639.65293   -3168.8144    76.232463   -3092.5819 
  980000    634.93092   -3170.6392    75.669705   -3094.9695 
  980200    668.13953   -3166.6601    79.627435   -3087.0326 
  980400    626.16851   -3169.5307    74.625419   -3094.9053 
  980600    631.98049   -3174.7417    75.318078   -3099.4236 
  980800    661.60382   -3167.4077    78.848523   -3088.5591 
  981000    640.20954   -3167.7396    76.298799   -3091.4408 
  981200    623.05898   -3170.1222    74.254832   -3095.8673 
  981400    668.93467   -3168.6961    79.722198   -3088.9739 
  981600    611.10724   -3169.0775     72.83045   -3096.2471 
  981800    648.94181   -3169.2211    77.339492   -3091.8816 
  982000    683.27885   -3169.1498    81.431707   -3087.7181 
  982200    602.62464   -3171.5576    71.819511   -3099.7381 
  982400    677.53548   -3170.0895    80.747224   -3089.3423 
  982600    645.15452   -3166.1078    76.888131   -3089.2197 
  982800     623.3472   -3173.2087    74.289181   -3098.9195 
  983000    662.10326    -3170.916    78.908046   -3092.0079 
  983200     658.6004    -3168.287    78.490582   -3089.7964 
  983400    636.05308   -3172.2118    75.803441   -3096.4084 
  983600    634.27819   -3171.6389    75.591914    -3096.047 
  983800    653.71445   -3169.6557    77.908285   -3091.7474 
  984000    641.32535   -3167.3305    76.431779   -3090.8987 
  984200    657.33528   -3170.0578    78.339808    -3091.718 
  984400    643.16521   -3168.3891    76.651049   -3091.7381 
  984600    637.83914   -3170.2918      76.0163   -3094.2755 
  984800    644.94123   -3170.3222    76.862712   -3093.4595 
  985000    651.52688   -3170.2909    77.647575   -3092.6434 
  985200    639.65828   -3170.3595    76.233101   -3094.1264 
  985400    653.41003   -3169.9182    77.872005   -3092.0462 
  985600    664.43873   -3170.8827    79.186382   -3091.6963 
  985800     643.4825   -3169.6556    76.688864   -3092.9668 
  986000    651.93461   -3168.7043    77.696168   -3091.0081 
  986200    646.55261   -3173.0219    77.054753   -3095.9672 
  986400    642.28086   -3169.8323    76.545655   -3093.2866 
  986600    665.38547   -3171.3524    79.299212   -3092.0532 
  986800    629.60285   -3169.5648    75.034717   -3094.5301 
  987000    645.97845   -3170.6224    76.986326   -3093.6361 
  987200    635.11073   -3166.0396    75.691133   -3090.3484 
  987400    663.25383   -3165.6655    79.045168   -3086.6204 
  987600    633.93951   -3166.0583     75.55155   -3090.5067 
  987800    649.44138   -3172.8719     77.39903   -3095.4728 
  988000    656.77198   -3168.3209    78.272675   -3090.0483 
  988200    636.71342   -3163.9086    75.882139   -3088.0264 
  988400    612.90138   -3166.6202    73.044271   -3093.5759 
  988600     643.3316   -3169.6455    76.670879   -3092.9746 
  988800    661.85291   -3166.1524    78.878209   -3087.2742 
  989000     630.8108   -3166.3209    75.178677   -3091.1422 
  989200    640.62942     -3168.17     76.34884   -3091.8212 
  989400    674.79154   -3171.1309    80.420207   -3090.7107 
  989600    616.82033   -3167.1215    73.511324   -3093.6102 
  989800    647.39067   -3168.2978     77.15463   -3091.1432 
  990000    673.84446   -3169.9271    80.307336   -3089.6197 
  990200    641.78935    -3169.232    76.487077   -3092.7449 
  990400    663.99179   -3169.1974    79.133116   -3090.0643 
  990600    664.05437   -3171.5804    79.140575   -3092.4399 
  990800    640.01544   -3169.8896    76.275666   -3093.6139 
  991000    638.26497   -3165.8027    76.067049   -3089.7356 
  991200    625.58038   -3167.3233    74.555327   -3092.7679 
  991400    670.60612   -3171.0539    79.921398   -3091.1325 
  991600    660.58796   -3168.4025    78.727455   -3089.6751 
  991800    635.43403   -3166.1243    75.729663   -3090.3946 
  992000    625.23739   -3167.7821     74.51445   -3093.2677 
  992200    657.75623   -3169.4715    78.389976   -3091.0815 
  992400    671.83633   -3166.1517    80.068012   -3086.0837 
  992600    641.39027   -3166.0168    76.439516   -3089.5773 
  992800    629.86092   -3167.8141    75.065472   -3092.7486 
  993000    633.54721    -3168.066    75.504797   -3092.5612 
  993200     662.6276   -3169.2658    78.970535   -3090.2953 
  993400    653.87314   -3168.4038    77.927197   -3090.4766 
  993600    661.84782   -3167.5696    78.877603    -3088.692 
  993800    643.31763   -3168.3923    76.669215   -3091.7231 
  994000    652.78635   -3169.8074    77.797676   -3092.0097 
  994200    638.72839   -3166.6676    76.122278   -3090.5453 
  994400    671.74069   -3169.4144    80.056613   -3089.3578 
  994600    628.80666   -3169.6307    74.939828   -3094.6909 
  994800    680.37255   -3170.7203     81.08534   -3089.6349 
  995000    644.85768   -3166.8832    76.852755   -3090.0305 
  995200    636.14481   -3169.3616    75.814373   -3093.5472 
  995400    631.01042   -3163.5557    75.202467   -3088.3532 
  995600      667.849   -3168.3091     79.59281   -3088.7162 
  995800    629.86738   -3169.3109    75.066243   -3094.2446 
  996000    679.69264   -3171.5609    81.004309   -3090.5566 
  996200    649.82883   -3170.7177    77.445206   -3093.2725 
  996400    648.39198   -3166.8272    77.273965   -3089.5533 
  996600    663.27642   -3166.4059     79.04786   -3087.3581 
  996800    624.33446   -3169.8972    74.406841   -3095.4903 
  997000    660.49989   -3172.1983    78.716959   -3093.4814 
  997200     687.3072   -3170.3828    81.911797    -3088.471 
  997400    630.65893   -3167.4001    75.160578   -3092.2395 
  997600    658.97505   -3170.7761    78.535231   -3092.2409 
  997800    671.82114     -3165.92    80.066202   -3085.8538 
  998000    656.65131   -3167.9919    78.258294   -3089.7336 
  998200     624.3909   -3167.4289    74.413567   -3093.0154 
  998400    650.10827   -3169.8955    77.478509    -3092.417 
  998600    637.61293   -3167.0797     75.98934   -3091.0904 
  998800     646.8247   -3166.6227    77.087179   -3089.5355 
  999000    652.47162   -3172.4626    77.760167   -3094.7024 
  999200    623.83633   -3167.0491    74.347475   -3092.7016 
  999400    672.00828   -3168.2468    80.088505   -3088.1583 
  999600    632.68633   -3165.7398    75.402199   -3090.3376 
  999800    658.72361   -3169.7932    78.505266   -3091.2879 
 1000000     649.9683   -3170.0237    77.461827   -3092.5619 
 1000200    638.95794   -3164.1522    76.149636   -3088.0026 
 1000400    655.16732   -3167.6767    78.081435   -3089.5952 
 1000600    650.96721   -3168.6997    77.580875   -3091.1189 
 1000800    670.23471   -3170.0724    79.877134   -3090.1952 
 1001000     652.6184   -3168.9997     77.77766   -3091.2221 
 1001200    654.85039    -3167.675    78.043664   -3089.6313 
 1001400    660.03704   -3167.1253    78.661798   -3088.4635 
 1001600    655.86317   -3172.5096    78.164365   -3094.3453 
 1001800    653.92434   -3167.0798      77.9333   -3089.1465 
 1002000    682.63031   -3165.9325    81.354416    -3084.578 
 1002200    632.09298   -3170.5277    75.331484   -3095.1962 
 1002400     650.3924   -3171.4696     77.51237   -3093.9573 
 1002600    651.85887   -3164.1071    77.687141     -3086.42 
 1002800    656.47882   -3167.7676    78.237736   -3089.5299 
 1003000    636.28648   -3170.1279    75.831257   -3094.2966 
 1003200     656.0045   -3169.1127    78.181209   -3090.9315 
 1003400    663.49655   -3167.5827    79.074095   -3088.5086 
 1003600    645.96444   -3168.8318    76.984655   -3091.8471 
 1003800    659.17546    -3169.347    78.559117   -3090.7879 
 1004000    637.30998   -3166.7053    75.953235   -3090.7521 
 1004200    654.47179   -3167.2726    77.998544   -3089.2741 
 1004400    662.22879    -3167.874    78.923005    -3088.951 
 1004600    646.31929   -3168.7553    77.026946   -3091.7284 
 1004800    654.72543   -3165.8176    78.028772   -3087.7889 
 1005000    666.87829   -3164.6321    79.477123    -3085.155 
 1005200    643.57022   -3168.8709    76.699317   -3092.1716 
 1005400    639.43349   -3164.9796     76.20631   -3088.7733 
 1005600    622.14081   -3162.1768    74.145407   -3088.0314 
 1005800    653.09438   -3167.6113    77.834387   -3089.7769 
 1006000    655.70745   -3169.9339    78.145807   -3091.7881 
 1006200    676.00083   -3167.5283    80.564328    -3086.964 
 1006400    663.21246   -3166.5673    79.040238    -3087.527 
 1006600    607.44072   -3166.6046    72.393482   -3094.2111 
 1006800     653.5713   -3166.5153    77.891225    -3088.624 
 1007000    666.89797   -3166.4671    79.479469   -3086.9876 
 1007200    631.50165   -3167.0414    75.261011   -3091.7804 
 1007400    664.73557    -3168.905    79.221758   -3089.6832 
 1007600    662.36781   -3166.9661    78.939574   -3088.0266 
 1007800    639.03815   -3169.3582    76.159195    -3093.199 
 1008000    656.74739   -3168.6893    78.269744   -3090.4196 
 1008200    658.74745   -3167.9183    78.508108   -3089.4101 
 1008400    666.97396   -3171.3358    79.488525   -3091.8473 
 1008600    636.39597   -3165.2992    75.844306   -3089.4549 
 1008800    693.62145   -3169.3606    82.664315   -3086.6963 
 1009000    647.49209   -3169.7525    77.166718   -3092.5858 
 1009200    635.05067   -3166.8189    75.683976   -3091.1349 
 1009400    684.01934   -3165.3352    81.519956   -3083.8153 
 1009600    668.72278   -3174.1302    79.696945   -3094.4333 
 1009800    629.88384   -3169.4915    75.068204   -3094.4233 
 1010000     684.0905   -3167.8895    81.528437   -3086.3611 
 1010200    642.62086   -3167.5492    76.586175    -3090.963 
 1010400    672.10942   -3170.0165    80.100559    -3089.916 
 1010600    674.20074   -3171.0017    80.349798   -3090.6519 
 1010800     635.8925   -3166.7087    75.784303   -3090.9244 
 1011000    684.86168   -3165.6408    81.620345   -3084.0205 
 1011200    665.59743   -3172.8798    79.324473   -3093.5554 
 1011400    638.56286   -3173.6607    76.102551   -3097.5581 
 1011600    691.71227   -3160.2769    82.436784   -3077.8401 
 1011800    651.52859   -3164.3484    77.647779   -3086.7006 
 1012000    595.50361   -3170.6727    70.970842   -3099.7019 
 1012200    690.45218   -3166.3373    82.286609   -3084.0507 
 1012400    667.63254   -3164.9011    79.567013   -3085.3341 
 1012600     610.2927   -3168.5781    72.733374   -3095.8447 
 1012800    651.57026   -3168.2565    77.652745   -3090.6037 
 1013000    645.28626   -3166.1589    76.903831   -3089.2551 
 1013200    670.60899   -3168.4868     79.92174    -3088.565 
 1013400    635.24578   -3166.7639    75.707228   -3091.0567 
 1013600    632.90436   -3166.7816    75.428184   -3091.3534 
 1013800    658.69247   -3166.2533    78.501555   -3087.7517 
 1014000    667.46619   -3166.5303    79.547188   -3086.9831 
 1014200    660.15712   -3169.4311    78.676109   -3090.7549 
 1014400    673.40973     -3168.49    80.255527   -3088.2344 
 1014600    675.69721   -3166.8539    80.528143   -3086.3257 
 1014800    645.73316   -3168.9879    76.957092   -3092.0308 
 1015000    669.95781   -3169.1011    79.844133   -3089.2569 
 1015200    670.46606   -3165.5111    79.904706   -3085.6064 
 1015400    649.78737   -3169.7394    77.440264   -3092.2992 
 1015600    661.48176   -3168.3113    78.833976   -3089.4773 
 1015800     664.3921   -3166.3172    79.180824   -3087.1363 
 1016000      640.328   -3168.0944    76.312917   -3091.7815 
 1016200    647.20488   -3167.6211    77.132489   -3090.4887 
 1016400    649.60143   -3166.8199    77.418104   -3089.4018 
 1016600    634.77274   -3165.8731    75.650853   -3090.2223 
 1016800    664.23785   -3163.3367    79.162441   -3084.1742 
 1017000    646.59022   -3165.2374    77.059235   -3088.1782 
 1017200    637.36822   -3166.0525    75.960177   -3090.0923 
 1017400    674.82332   -3163.3143    80.423995   -3082.8903 
 1017600    648.84019   -3163.8763    77.327381   -3086.5489 
 1017800    672.11087   -3170.2021    80.100731   -3090.1014 
 1018000    661.77248   -3166.7595    78.868624   -3087.8909 
 1018200    686.57366   -3166.2082    81.824376   -3084.3839 
 1018400    672.02893   -3168.4574    80.090966   -3088.3665 
 1018600    660.62908   -3167.8633    78.732355   -3089.1309 
 1018800    641.32108   -3165.8887     76.43127   -3089.4574 
 1019000    661.74856   -3162.2026    78.865773   -3083.3368 
 1019200    648.08669     -3165.31    77.237581   -3088.0724 
 1019400    602.60121   -3169.3717    71.816719   -3097.5549 
 1019600    673.78934   -3163.8641    80.300767   -3083.5633 
 1019800    710.22372   -3165.9699    84.642938    -3081.327 
 1020000     650.7191   -3173.0652    77.551306   -3095.5139 
 1020200    668.29493   -3167.5163    79.645955   -3087.8704 
 1020400    665.53707   -3164.1669    79.317279   -3084.8496 
 1020600    632.64333   -3166.9317    75.397074   -3091.5346 
 1020800    661.25617   -3165.2486    78.807092   -3086.4415 
 1021000    661.90077     -3167.86    78.883913   -3088.9761 
 1021200    647.27895   -3167.3194    77.141316   -3090.1781 
 1021400    672.66743   -3167.0974     80.16706   -3086.9303 
 1021600    661.02093   -3167.8208    78.779056   -3089.0418 
 1021800    652.49136   -3164.8766     77.76252   -3087.1141 
 1022000     659.8092   -3167.1553    78.634644   -3088.5207 
 1022200    644.43802   -3166.3532     76.80274   -3089.5505 
 1022400    678.64361   -3165.2849    80.879289   -3084.4056 
 1022600    626.70422   -3164.2614    74.689264   -3089.5721 
 1022800    672.29552   -3167.5684    80.122737   -3087.4456 
 1023000    656.85413   -3163.8232    78.282466   -3085.5407 
 1023200    666.16794   -3168.2418    79.392465   -3088.8493 
 1023400    663.83005   -3165.7857    79.113841   -3086.6719 
 1023600    655.06874   -3166.6791    78.069686   -3088.6094 
 1023800    649.50525   -3164.6317    77.406641   -3087.2251 
 1024000    672.89152     -3166.88    80.193767   -3086.6862 
 1024200     642.4775   -3168.7125    76.569089   -3092.1434 
 1024400    682.16559   -3167.6124    81.299031   -3086.3134 
 1024600    671.45491   -3163.1708    80.022556   -3083.1482 
 1024800    622.52682   -3166.3831     74.19141   -3092.1916 
 1025000    683.52557   -3166.7887    81.461111   -3085.3276 
 1025200    671.65957   -3164.7838    80.046946   -3084.7368 
 1025400    662.19216   -3170.1558    78.918641   -3091.2371 
 1025600    669.26577   -3165.4118    79.761658   -3085.6501 
 1025800    668.91326    -3164.462    79.719647   -3084.7424 
 1026000    658.80061   -3168.5898    78.514442   -3090.0753 
 1026200    656.56584    -3167.565    78.248108   -3089.3169 
 1026400    671.13717   -3164.4667    79.984687    -3084.482 
 1026600    663.00693   -3166.8337    79.015743   -3087.8179 
 1026800     635.2135   -3167.3178    75.703381   -3091.6144 
 1027000     680.7088   -3163.1875    81.125413   -3082.0621 
 1027200    670.86572   -3168.4458    79.952337   -3088.4935 
 1027400      616.238    -3169.367    73.441922   -3095.9251 
 1027600    687.76914    -3166.822     81.96685   -3084.8552 
 1027800    633.72602   -3161.6769    75.526106   -3086.1508 
 1028000    656.58396   -3169.1832    78.250267   -3090.9329 
 1028200     678.4693   -3168.8459    80.858515   -3087.9874 
 1028400    678.55586   -3168.6672    80.868831   -3087.7983 
 1028600    671.12707   -3164.2088    79.983483   -3084.2253 
 1028800    696.78312   -3165.6864    83.041117   -3082.6453 
 1029000     678.0845   -3172.6549    80.812655   -3091.8423 
 1029200    647.88003   -3167.5677    77.212951   -3090.3547 
 1029400    663.16907   -3164.1132    79.035066   -3085.0781 
 1029600    635.00585   -3165.6486    75.678634     -3089.97 
 1029800    655.23588    -3164.257    78.089606   -3086.1673 
 1030000    666.29785   -3167.4721    79.407948   -3088.0641 
 1030200    647.66386   -3169.8192    77.187189    -3092.632 
 1030400    658.60533   -3164.8291    78.491169   -3086.3379 
 1030600    652.85912   -3161.7038    77.806349   -3083.8974 
 1030800    647.85485   -3168.2251    77.209951   -3091.0151 
 1031000    662.41958   -3166.0527    78.945744    -3087.107 
 1031200    668.61278   -3163.3147    79.683836   -3083.6308 
 1031400     641.7479    -3164.859    76.482138   -3088.3768 
 1031600    663.11446   -3163.8667    79.028558   -3084.8381 
 1031800    656.94044   -3166.7778    78.292752   -3088.4851 
 1032000     639.6581   -3164.9744    76.233079   -3088.7414 
 1032200    668.01781    -3163.299    79.612929    -3083.686 
 1032400    646.57905    -3165.207    77.057903   -3088.1491 
 1032600    656.52619   -3168.7598    78.243383   -3090.5165 
 1032800    650.60313   -3164.1699    77.537485   -3086.6324 
 1033000    668.73412   -3165.9961    79.698297   -3086.2979 
 1033200    657.75211   -3166.4168    78.389484   -3088.0273 
 1033400    664.85742   -3165.6567    79.236281   -3086.4204 
 1033600    645.18127   -3166.3658    76.891319   -3089.4744 
 1033800    683.52614    -3166.448    81.461178   -3084.9868 
 1034000     688.7967   -3168.2016    82.089313   -3086.1123 
 1034200     659.9011   -3170.6171    78.645596   -3091.9715 
 1034400    675.34198   -3166.1941    80.485807   -3085.7083 
 1034600    654.74994    -3159.822    78.031692   -3081.7903 
 1034800    636.99009   -3167.9527    75.915112   -3092.0376 
 1035000    681.22445   -3168.5892    81.186867   -3087.4023 
 1035200    670.72707   -3163.2981    79.935813   -3083.3622 
 1035400    657.10565   -3166.6198    78.312441   -3088.3074 
 1035600    650.95262   -3166.7749    77.579136   -3089.1958 
 1035800    661.49798     -3167.66    78.835909   -3088.8241 
 1036000    649.71817   -3164.7507    77.432017   -3087.3187 
 1036200    675.04809   -3164.9749    80.450782   -3084.5241 
 1036400    663.74486   -3169.8469    79.103688   -3090.7432 
 1036600    676.76373   -3166.7688    80.655249   -3086.1135 
 1036800    657.21532   -3161.7709    78.325511   -3083.4454 
 1037000    660.70774   -3166.7595     78.74173   -3088.0178 
 1037200    672.35093   -3165.0993    80.129341   -3084.9699 
 1037400    680.25268   -3167.6038    81.071054   -3086.5328 
 1037600    643.65846     -3166.88    76.709834   -3090.1702 
 1037800    672.52392    -3162.355    80.149958   -3082.2051 
 1038000    666.55708   -3168.9484    79.438842   -3089.5095 
 1038200    667.77155   -3170.6243     79.58358   -3091.0407 
 1038400    690.19957   -3166.4883    82.256503   -3084.2318 
 1038600    642.35503   -3163.9258    76.554493   -3087.3713 
 1038800    655.84056   -3168.6235    78.161671   -3090.4618 
 1039000    689.48051   -3167.3794    82.170808   -3085.2086 
 1039200    670.22407   -3167.8447    79.875866   -3087.9688 
 1039400    647.49153   -3166.5952    77.166651   -3089.4285 
 1039600    664.59867   -3165.0112    79.205444   -3085.8058 
 1039800    651.73004   -3166.8862    77.671787   -3089.2145 
 1040000    656.98542   -3164.3846    78.298112   -3086.0865 
 1040200    676.10309   -3166.7646    80.576515   -3086.1881 
 1040400    673.98943   -3167.5017    80.324614    -3087.177 
 1040600    655.01203   -3164.6141    78.062928   -3086.5512 
 1040800    663.81911   -3164.9257    79.112537   -3085.8132 
 1041000    662.76059   -3167.4811    78.986385   -3088.4948 
 1041200    687.46719   -3167.5365    81.930864   -3085.6057 
 1041400    664.28485   -3164.7295    79.168043   -3085.5615 
 1041600    668.38367   -3162.8753    79.656531   -3083.2187 
 1041800    647.32612   -3167.4157    77.146937   -3090.2688 
 1042000    665.21159   -3171.2321     79.27849   -3091.9536 
 1042200    691.04405   -3164.6187    82.357147   -3082.2616 
 1042400    683.96982   -3167.2476    81.514055   -3085.7335 
 1042600    633.02145   -3166.7926    75.442138   -3091.3504 
 1042800    675.04079    -3164.188    80.449912   -3083.7381 
 1043000    672.55927   -3162.4641     80.15417   -3082.3099 
 1043200    639.12875   -3167.3966    76.169993   -3091.2266 
 1043400     679.5802   -3168.2059     80.99091    -3087.215 
 1043600    689.31265   -3162.7019    82.150802   -3080.5511 
 1043800     648.9561   -3166.4074    77.341195   -3089.0662 
 1044000     656.8224   -3168.3304    78.278684   -3090.0517 
 1044200     681.5907   -3164.5287    81.230517   -3083.2982 
 1044400    666.06506   -3163.7994    79.380204   -3084.4192 
 1044600    658.15181   -3167.3176     78.43712   -3088.8804 
 1044800    672.60248   -3169.0411     80.15932   -3088.8817 
 1045000    667.95723   -3161.3572    79.605709   -3081.7515 
 1045200    660.85299   -3161.0363     78.75904   -3082.2773 
 1045400    667.39797   -3169.7542    79.539057   -3090.2151 
 1045600    672.25268   -3165.9275    80.117632   -3085.8098 
 1045800    690.42542   -3162.5885     82.28342   -3080.3051 
 1046000    623.31141   -3163.5552    74.284916   -3089.2703 
 1046200    645.59511   -3166.2003    76.940639   -3089.2596 
 1046400    692.41152   -3165.3192    82.520119   -3082.7991 
 1046600    645.56037   -3164.5895      76.9365    -3087.653 
 1046800    673.27786   -3168.7424     80.23981   -3088.5026 
 1047000    682.38965   -3168.9493    81.325734   -3087.6236 
 1047200     652.2295   -3163.0594    77.731312   -3085.3281 
 1047400    678.75246   -3165.0051    80.892262   -3084.1128 
 1047600    640.16284   -3164.5606    76.293233   -3088.2674 
 1047800    677.99646   -3167.2521    80.802163   -3086.4499 
 1048000    683.83929   -3167.4045    81.498499    -3085.906 
 1048200    657.65194   -3165.4217    78.377547   -3087.0442 
 1048400    687.97276   -3167.1597    81.991118   -3085.1686 
 1048600    657.34704   -3165.3637     78.34121   -3087.0225 
 1048800    668.49259   -3167.9136    79.669512    -3088.244 
 1049000    701.35136   -3168.1542     83.58555   -3084.5687 
 1049200    650.40916   -3164.6203    77.514367   -3087.1059 
 1049400    679.17098   -3165.1242     80.94214   -3084.1821 
 1049600    649.72544   -3166.8593    77.432883   -3089.4264 
 1049800    661.50941   -3168.6463    78.837271   -3089.8091 
 1050000    676.83881   -3161.1965    80.664196   -3080.5323 
 1050200    658.13905   -3163.7397    78.435599   -3085.3041 
 1050400    656.14184   -3167.5772    78.197576   -3089.3797 
 1050600     674.6707   -3165.4522    80.405806   -3085.0464 
 1050800    667.05267   -3163.9816    79.497905   -3084.4837 
 1051000    665.58599   -3162.9099     79.32311   -3083.5868 
 1051200     660.6468   -3165.8334    78.734468   -3087.0989 
 1051400     628.4422    -3164.304    74.896393   -3089.4076 
 1051600    693.51858   -3162.8471    82.652056    -3080.195 
 1051800    670.41023   -3162.9412    79.898052   -3083.0431 
 1052000    643.13654   -3168.2956    76.647633   -3091.6479 
 1052200     676.4788    -3163.052    80.621291   -3082.4307 
 1052400    670.92699   -3162.0763    79.959638   -3082.1167 
 1052600    631.54861   -3166.6724    75.266607   -3091.4058 
 1052800    688.03916   -3163.5083     81.99903   -3081.5092 
 1053000    677.80331   -3163.2831    80.779143    -3082.504 
 1053200    660.13383   -3167.4653    78.673333    -3088.792 
 1053400    699.67091   -3167.1442    83.385278   -3083.7589 
 1053600    675.33891   -3164.1876    80.485442   -3083.7021 
 1053800    648.73408    -3163.898    77.314735   -3086.5833 
 1054000    692.61002   -3167.7175    82.543775   -3085.1738 
 1054200    683.58424   -3166.1246    81.468102   -3084.6565 
 1054400    662.19245   -3161.9819    78.918675   -3083.0632 
 1054600    687.55248   -3164.1703    81.941029   -3082.2293 
 1054800    666.23737   -3168.6965     79.40074   -3089.2957 
 1055000    681.53147   -3165.8141    81.223458   -3084.5907 
 1055200    697.91252   -3164.5094    83.175717   -3081.3337 
 1055400    683.65459   -3168.3597    81.476486   -3086.8832 
 1055600     669.9292   -3164.6945    79.840724   -3084.8538 
 1055800    707.33961   -3166.4305    84.299217   -3082.1313 
 1056000    672.76168   -3166.2516    80.178293   -3086.0733 
 1056200    675.80879   -3165.0552    80.541442   -3084.5138 
 1056400    667.64149   -3166.2696    79.568079   -3086.7015 
 1056600    658.37062   -3165.5401    78.463198   -3087.0769 
 1056800    689.14924    -3164.155    82.131327   -3082.0237 
 1057000    685.37212    -3170.718    81.681178   -3089.0368 
 1057200     659.9062   -3167.8228    78.646205   -3089.1766 
 1057400    664.97447   -3159.0208     79.25023   -3079.7706 
 1057600     679.0497    -3164.203    80.927686   -3083.2753 
 1057800    660.72675   -3168.0301    78.743996   -3089.2861 
 1058000    651.94342    -3165.831    77.697217   -3088.1338 
 1058200    694.22448   -3162.8277    82.736184   -3080.0915 
 1058400    657.32439   -3162.6883     78.33851   -3084.3498 
 1058600    643.69406   -3166.7174    76.714077   -3090.0034 
 1058800    676.61892   -3165.0584    80.637991   -3084.4204 
 1059000    682.46377   -3162.6626    81.334568    -3081.328 
 1059200    679.04739   -3164.4355     80.92741   -3083.5081 
 1059400    675.19728    -3167.611    80.468563   -3087.1425 
 1059600    686.90432   -3169.7847    81.863782    -3087.921 
 1059800    666.13431   -3163.0869    79.388457   -3083.6984 
 1060000    667.27967    -3162.293    79.524959    -3082.768 
 1060200    652.06123   -3165.4911    77.711258   -3087.7798 
 1060400    650.93596   -3163.9056     77.57715   -3086.3284 
 1060600    673.40254   -3165.0356    80.254669    -3084.781 
 1060800    664.21061    -3162.228    79.159195   -3083.0688 
 1061000    693.06817   -3164.9137    82.598376   -3082.3153 
 1061200    639.55702   -3166.7372    76.221034   -3090.5162 
 1061400    667.49657   -3161.9754    79.550809   -3082.4246 
 1061600     698.9205   -3160.4547    83.295846   -3077.1588 
 1061800    642.08212   -3167.0934     76.52197   -3090.5715 
 1062000    662.39271   -3165.9467    78.942542   -3087.0042 
 1062200    680.32377   -3161.8848    81.079527   -3080.8052 
 1062400    646.01487     -3166.62    76.990666   -3089.6293 
 1062600    677.76308   -3167.1617    80.774349   -3086.3874 
 1062800    680.35151   -3164.7952    81.082832   -3083.7123 
 1063000     652.9963   -3164.9668    77.822698   -3087.1441 
 1063200    683.81961   -3167.3435    81.496153   -3085.8473 
 1063400    665.84174   -3169.0688     79.35359   -3089.7152 
 1063600    652.34826    -3167.713    77.745466   -3089.9675 
 1063800    670.09746   -3162.0494    79.860777   -3082.1886 
 1064000    675.86882   -3167.3937    80.548595   -3086.8451 
 1064200    646.23501   -3166.0506    77.016902   -3089.0337 
 1064400    683.92436   -3165.5649    81.508638   -3084.0563 
 1064600    658.42771   -3167.4962    78.470001   -3089.0262 
 1064800    665.29503   -3167.2572    79.288434   -3087.9688 
 1065000    690.90237   -3165.2071    82.340262   -3082.8669 
 1065200    656.03803   -3167.7407    78.185205   -3089.5555 
 1065400    667.17628   -3167.8481    79.512638   -3088.3355 
 1065600    712.04803   -3167.0012    84.860356   -3082.1408 
 1065800    663.92895   -3164.8776    79.125627    -3085.752 
 1066000    654.53144   -3163.7079    78.005652   -3085.7023 
 1066200    681.90715   -3166.1405     81.26823   -3084.8723 
 1066400    649.49724   -3166.0715    77.405687   -3088.6658 
 1066600    691.50212   -3166.1566    82.411739   -3083.7449 
 1066800    669.58873   -3164.1911    79.800148    -3084.391 
 1067000    690.03602   -3168.4659    82.237012   -3086.2289 
 1067200    667.46525   -3165.1049    79.547076   -3085.5578 
 1067400    679.68368   -3164.5993    81.003242   -3083.5961 
 1067600    672.90934   -3165.3021    80.195891   -3085.1062 
 1067800    652.34347     -3166.13    77.744894   -3088.3851 
 1068000    649.09387   -3164.1524    77.357615   -3086.7948 
 1068200    677.83753   -3162.3515    80.783222   -3081.5683 
 1068400    694.92673   -3167.6602    82.819876   -3084.8403 
 1068600    644.09864   -3169.6394    76.762294   -3092.8771 
 1068800    670.48486   -3162.4611    79.906947   -3082.5542 
 1069000    669.07154   -3157.8874     79.73851   -3078.1489 
 1069200    667.03621   -3164.3312    79.495944   -3084.8352 
 1069400    651.97803   -3165.8931    77.701342   -3088.1917 
 1069600    678.71691   -3165.2829    80.888024   -3084.3949 
 1069800    653.58259   -3160.5861     77.89257   -3082.6935 
 1070000    693.39822   -3164.5481    82.637711   -3081.9104 
 1070200    625.15157    -3163.803    74.504223   -3089.2987 
 1070400    671.75911   -3165.0903    80.058809   -3085.0315 
 1070600     689.2749   -3164.0044    82.146303   -3081.8581 
 1070800    657.67466   -3166.1184    78.380254   -3087.7381 
 1071000    674.30011   -3165.0938    80.361639   -3084.7322 
 1071200    690.71207   -3161.8851    82.317582   -3079.5675 
 1071400    682.42729   -3168.5799    81.330219   -3087.2497 
 1071600    648.75537   -3169.7148    77.317272   -3092.3975 
 1071800     696.5201   -3163.7843    83.009771   -3080.7745 
 1072000    677.48798   -3161.5517    80.741564   -3080.8102 
 1072200    645.74529   -3166.4667    76.958538   -3089.5082 
 1072400     662.7416   -3165.3426    78.984121   -3086.3585 
 1072600    680.02297   -3165.8457    81.043678    -3084.802 
 1072800    687.83153   -3165.8284    81.974285   -3083.8542 
 1073000    671.37105   -3163.2097    80.012561   -3083.1971 
 1073200    654.91901   -3163.4904    78.051842   -3085.4386 
 1073400    655.48027   -3164.9829    78.118732   -3086.8642 
 1073600    700.13647    -3166.902    83.440762   -3083.4612 
 1073800     682.7348   -3167.0717    81.366869   -3085.7048 
 1074000    675.68307    -3162.969    80.526458   -3082.4425 
 1074200    702.11664   -3165.7427    83.676754    -3082.066 
 1074400    661.38711   -3164.7988    78.822696   -3085.9761 
 1074600    714.34326   -3166.6472    85.133897   -3081.5133 
 1074800    682.57878    -3169.415    81.348274   -3088.0668 
 1075000     656.2866   -3167.4245    78.214828   -3089.2097 
 1075200     685.7462   -3163.5728     81.72576    -3081.847 
 1075400    675.47294   -3165.6466    80.501415   -3085.1452 
 1075600     670.9895   -3169.8124    79.967089   -3089.8453 
 1075800    668.67536   -3166.0704    79.691294   -3086.3791 
 1076000    691.57189    -3166.357    82.420053   -3083.9369 
 1076200    682.56012   -3166.6187    81.346051   -3085.2726 
 1076400    675.25092   -3167.0108    80.474956   -3086.5358 
 1076600    677.46975   -3165.9366     80.73939   -3085.1972 
 1076800    672.16178   -3164.9655    80.106798   -3084.8587 
 1077000    656.16534   -3165.5029    78.200377   -3087.3026 
 1077200    665.40126   -3164.5334    79.301094   -3085.2323 
 1077400    685.66874   -3164.5955    81.716528   -3082.8789 
 1077600    671.60166   -3164.7681    80.040044    -3084.728 
 1077800     675.0578    -3163.116    80.451939    -3082.664 
 1078000     681.5451    -3166.056    81.225082   -3084.8309 
 1078200    673.10874   -3165.0001    80.219655   -3084.7804 
 1078400    688.37226   -3161.7149    82.038729   -3079.6762 
 1078600    674.32538   -3165.8289    80.364651   -3085.4642 
 1078800    672.67278   -3165.1808    80.167698   -3085.0132 
 1079000    684.57542   -3161.9242    81.586229    -3080.338 
 1079200    693.20996   -3165.8753    82.615275   -3083.2601 
 1079400    655.85367   -3160.2987    78.163232   -3082.1355 
 1079600    695.20869   -3161.7078    82.853479   -3078.8543 
 1079800    674.07456   -3165.3376    80.334759   -3085.0029 
 1080000    663.27295   -3162.8997    79.047447   -3083.8523 
 1080200    715.81099   -3160.6675    85.308817   -3075.3587 
 1080400    654.79537   -3166.0257    78.037106   -3087.9886 
 1080600    695.35008   -3170.4388    82.870331   -3087.5685 
 1080800    679.96123   -3161.7222     81.03632   -3080.6859 
 1081000    676.51091   -3163.6954    80.625118   -3083.0703 
 1081200    641.13695   -3162.6648    76.409326   -3086.2555 
 1081400    695.75907   -3164.0094    82.919072   -3081.0903 
 1081600    670.29998   -3167.7606    79.884913   -3087.8757 
 1081800    668.75515   -3164.5234    79.700804   -3084.8226 
 1082000    693.67802   -3161.3952    82.671058   -3078.7242 
 1082200    698.33202    -3169.101    83.225711   -3085.8753 
 1082400    662.28171   -3165.4403    78.929313   -3086.5109 
 1082600    712.15597   -3166.3229     84.87322   -3081.4497 
 1082800    677.67623   -3165.3301    80.763998   -3084.5661 
 1083000     665.2306   -3162.8111    79.280755   -3083.5303 
 1083200    666.09348   -3162.4852    79.383591   -3083.1016 
 1083400    705.20261   -3166.5244    84.044533   -3082.4798 
 1083600    681.44419   -3165.6882    81.213056   -3084.4752 
 1083800    694.43861   -3165.5172    82.761703   -3082.7555 
 1084000    671.88693   -3161.7927    80.074042   -3081.7186 
 1084200    680.53397   -3163.7137    81.104578   -3082.6092 
 1084400    682.27339   -3165.1839    81.311878    -3083.872 
 1084600    702.12496    -3165.802    83.677746   -3082.1243 
 1084800    677.81157   -3168.4296    80.780128   -3087.6495 
 1085000    650.67938   -3163.5038    77.546572   -3085.9572 
 1085200      680.417   -3159.6372    81.090638   -3078.5466 
 1085400    678.52195   -3166.4008    80.864789    -3085.536 
 1085600    691.18721   -3168.1102    82.374208    -3085.736 
 1085800     708.5797   -3167.0568    84.447008   -3082.6098 
 1086000    708.45615   -3167.4075    84.432284   -3082.9752 
 1086200    683.75862   -3163.0113    81.488885   -3081.5225 
 1086400    672.30944   -3166.1813    80.124396   -3086.0569 
 1086600    652.84719   -3161.3721    77.804927   -3083.5672 
 1086800    678.30245   -3159.7385    80.838631   -3078.8999 
 1087000    651.69994   -3166.6724      77.6682   -3089.0042 
 1087200    675.20554   -3166.5055    80.469547   -3086.0359 
 1087400    721.95821   -3164.9692     86.04143   -3078.9278 
 1087600     666.9184   -3165.8626    79.481903   -3086.3807 
 1087800     674.5751   -3164.7899    80.394412   -3084.3954 
 1088000     697.5599   -3164.4612    83.133692   -3081.3276 
 1088200    675.45086   -3162.9984    80.498784   -3082.4996 
 1088400    662.86137   -3165.5734    78.998395    -3086.575 
 1088600    655.91287   -3163.4133    78.170288    -3085.243 
 1088800    693.61606   -3163.0006    82.663673   -3080.3369 
 1089000    682.45915   -3164.1857    81.334017   -3082.8517 
 1089200    652.22167   -3162.5104    77.730379   -3084.7801 
 1089400    717.67847   -3167.4228     85.53138   -3081.8914 
 1089600      678.842   -3166.3382    80.902933   -3085.4352 
 1089800    680.39136   -3164.7755    81.087582   -3083.6879 
 1090000    694.43819   -3166.7257    82.761653   -3083.9641 
 1090200    682.41077   -3161.9698    81.328251   -3080.6416 
 1090400    698.77131   -3165.9448    83.278065   -3082.6667 
 1090600    687.54833   -3169.2063    81.940534   -3087.2658 
 1090800    685.17322   -3164.5989    81.657474   -3082.9414 
 1091000    704.74116   -3163.3813    83.989539   -3079.3918 
 1091200    649.06654   -3167.1536    77.354357   -3089.7993 
 1091400    666.20709   -3164.6612    79.397131   -3085.2641 
 1091600    709.07364   -3162.5989    84.505874    -3078.093 
 1091800    664.47054   -3166.8046    79.190173   -3087.6144 
 1092000    674.53009   -3163.7649    80.389048   -3083.3759 
 1092200     675.5355   -3160.8765    80.508872   -3080.3676 
 1092400    655.43009   -3165.4393    78.112751   -3087.3266 
 1092600    652.91642   -3160.2626    77.813177   -3082.4494 
 1092800    694.55756   -3164.2677    82.775879   -3081.4918 
 1093000    684.55646   -3169.1076     81.58397   -3087.5236 
 1093200    691.79415   -3168.3153    82.446542   -3085.8687 
 1093400    674.58795   -3164.2657    80.395944   -3083.8698 
 1093600    676.12487    -3163.691     80.57911   -3083.1119 
 1093800    680.41987    -3161.907    81.090979    -3080.816 
 1094000    667.47253   -3162.2082    79.547944   -3082.6603 
 1094200    677.06069   -3164.9628    80.690639   -3084.2722 
 1094400    719.08078   -3164.7331    85.698504   -3079.0346 
 1094600    690.60852   -3168.2004    82.305241   -3085.8952 
 1094800    661.15141   -3166.1913    78.794607   -3087.3967 
 1095000    705.87533   -3163.5088    84.124707   -3079.3841 
 1095200    667.42614   -3167.7035    79.542415   -3088.1611 
 1095400     664.7788   -3163.0172    79.226911   -3083.7903 
 1095600    694.21196    -3159.839    82.734691   -3077.1043 
 1095800    630.25197   -3164.7907    75.112077   -3089.6786 
 1096000    669.00183   -3164.6662    79.730202    -3084.936 
 1096200    714.71859   -3161.0334    85.178628   -3075.8548 
 1096400      679.086   -3166.8473    80.932012   -3085.9153 
 1096600    685.93403   -3169.2355    81.748145   -3087.4873 
 1096800    674.44366   -3161.6518    80.378748    -3081.273 
 1097000    691.33662   -3162.7763    82.392015   -3080.3842 
 1097200    690.40371   -3164.7797    82.280832   -3082.4989 
 1097400    687.23012   -3167.4239     81.90261   -3085.5212 
 1097600    702.59728   -3163.2031    83.734036   -3079.4691 
 1097800    670.50519   -3161.5247     79.90937   -3081.6153 
 1098000     668.4555   -3164.6276    79.665092   -3084.9625 
 1098200    703.06767    -3164.511    83.790096   -3080.7209 
 1098400    677.47903   -3164.1466    80.740496   -3083.4061 
 1098600     679.5434   -3165.4804    80.986524   -3084.4939 
 1098800    706.01426   -3162.3842    84.141265   -3078.2429 
 1099000    658.77809    -3162.231    78.511759   -3083.7193 
 1099200    686.29305   -3164.4648    81.790932   -3082.6739 
 1099400    663.03013   -3160.7429    79.018507   -3081.7244 
 1099600    662.98687   -3162.6112    79.013352   -3083.5979 
 1099800    677.15009   -3165.9083    80.701295    -3085.207 
 1100000    705.81947   -3163.3846    84.118049   -3079.2666 
 1100200    677.64943   -3161.8552    80.760805   -3081.0944 
 1100400    686.64626   -3164.9651    81.833028   -3083.1321 
 1100600    680.52416   -3163.9202    81.103409   -3082.8168 
 1100800    704.38805   -3161.8926    83.947457   -3077.9451 
 1101000     664.0917   -3163.8518    79.145023   -3084.7068 
 1101200    688.57873   -3166.4499    82.063335   -3084.3865 
 1101400    707.04564   -3160.7158    84.264182   -3076.4517 
 1101600    695.17234   -3168.7347    82.849148   -3085.8856 
 1101800    672.70025   -3165.2783    80.170972   -3085.1073 
 1102000    712.95308    -3160.912    84.968218   -3075.9437 
 1102200    649.48965    -3164.224    77.404782   -3086.8193 
 1102400    681.85103   -3164.1464    81.261543   -3082.8849 
 1102600     698.5323   -3165.1666    83.249581    -3081.917 
 1102800    671.85092    -3165.515    80.069751   -3085.4453 
 1103000    704.20792   -3162.8279    83.925989   -3078.9019 
 1103200    682.61104   -3164.3687    81.352119   -3083.0166 
 1103400    705.87869   -3166.5047    84.125107   -3082.3796 
 1103600     687.6828   -3157.3336     81.95656    -3075.377 
 1103800    660.50452   -3161.7538    78.717512   -3083.0363 
 1104000     672.8487   -3163.1282    80.188664   -3082.9395 
 1104200    709.79453    -3162.057    84.591789   -3077.4652 
 1104400    650.13174   -3159.6824    77.481305   -3082.2011 
 1104600    679.46187   -3161.1207    80.976807   -3080.1439 
 1104800    701.32713   -3165.0727    83.582663   -3081.4901 
 1105000     659.4538   -3165.4099    78.592289   -3086.8176 
 1105200    712.61911   -3160.3467    84.928416   -3075.4183 
 1105400    696.35336   -3163.9005    82.989899   -3080.9106 
 1105600    657.40619   -3166.0891    78.348259   -3087.7408 
 1105800     703.0111   -3162.9509    83.783354   -3079.1675 
 1106000    660.32221   -3160.0126    78.695783   -3081.3168 
 1106200    677.10121   -3166.0543    80.695469   -3085.3588 
 1106400    699.50017   -3163.4504    83.364929   -3080.0855 
 1106600    683.87684   -3161.5204    81.502974   -3080.0175 
 1106800    703.39625     -3166.57    83.829256   -3082.7407 
 1107000    664.69258   -3162.7307    79.216635    -3083.514 
 1107200     683.7129   -3159.2097    81.483435   -3077.7262 
 1107400    682.42619    -3163.388    81.330089   -3082.0579 
 1107600    670.22888     -3164.12    79.876439   -3084.2436 
 1107800    716.98111   -3166.0164     85.44827   -3080.5681 
 1108000    706.05884   -3166.6855    84.146577   -3082.5389 
 1108200    707.20733   -3166.7797    84.283452   -3082.4963 
 1108400    691.49344   -3162.6453    82.410704   -3080.2345 
 1108600    692.42846   -3163.5265    82.522137   -3081.0044 
 1108800    693.70168   -3167.0436    82.673877   -3084.3697 
 1109000    698.67023   -3166.4074    83.266018   -3083.1414 
 1109200    695.06398   -3162.2949    82.836233   -3079.4587 
 1109400    670.86224   -3161.9367    79.951922   -3081.9848 
 1109600    716.93237   -3168.6847    85.442461   -3083.2423 
 1109800    705.66234   -3164.9549    84.099324   -3080.8556 
 1110000     707.3281   -3164.9032    84.297845   -3080.6053 
 1110200    672.63768   -3163.5559    80.163516   -3083.3923 
 1110400    686.49348   -3166.9704     81.81482   -3085.1556 
 1110600    723.32431   -3166.9325    86.204239   -3080.7282 
 1110800    690.39654   -3161.9481    82.279978   -3079.6682 
 1111000    679.91445   -3166.1411    81.030745   -3085.1103 
 1111200     666.4786   -3165.3615    79.429489    -3085.932 
 1111400    719.43553   -3159.7089    85.740782   -3073.9682 
 1111600    707.50867   -3165.5322    84.319365   -3081.2128 
 1111800    666.49092   -3168.0934    79.430957   -3088.6624 
 1112000    699.21895   -3159.4767    83.331413   -3076.1452 
 1112200    707.44227   -3162.5996    84.311452   -3078.2881 
 1112400    687.51587   -3166.7603    81.936665   -3084.8236 
 1112600    671.84469   -3164.1683    80.069008   -3084.0993 
 1112800    733.07257   -3167.1848    87.366015   -3079.8188 
 1113000    693.06762   -3160.7866    82.598312   -3078.1882 
 1113200    681.63735   -3161.4877    81.236077   -3080.2516 
 1113400    679.51703   -3165.0734    80.983381     -3084.09 
 1113600    699.90385    -3163.753    83.413038   -3080.3399 
 1113800    689.33771   -3164.5452    82.153788   -3082.3914 
 1114000    671.53572    -3161.982    80.032186   -3081.9498 
 1114200    680.60042   -3162.1212    81.112498   -3081.0087 
 1114400    665.59281   -3162.4684    79.323923   -3083.1445 
 1114600    692.94924   -3164.8901    82.584204   -3082.3059 
 1114800    670.07982     -3160.46    79.858674   -3080.6013 
 1115000    735.07726   -3166.9282    87.604931   -3079.3233 
 1115200    683.85429   -3166.0442    81.500286   -3084.5439 
 1115400    702.04059   -3163.4656    83.667691    -3079.798 
 1115600    692.11295   -3161.6908    82.484536   -3079.2062 
 1115800    679.85632   -3164.1663    81.023816   -3083.1425 
 1116000    698.52101   -3163.5314    83.248234   -3080.2832 
 1116200    674.61409   -3162.3812     80.39906   -3081.9821 
 1116400    711.51837   -3163.9612    84.797232    -3079.164 
 1116600    703.29392    -3164.426     83.81706   -3080.6089 
 1116800    671.79547   -3162.9167    80.063143   -3082.8536 
 1117000    725.18977   -3164.6328    86.426561   -3078.2062 
 1117200    668.89701   -3164.4163    79.717709   -3084.6986 
 1117400    673.07734   -3161.5522    80.215913   -3081.3363 
 1117600    725.22898   -3159.6348    86.431233   -3073.2036 
 1117800    677.86724   -3162.4474    80.786763   -3081.6606 
 1118000    708.92563   -3165.9436    84.488235   -3081.4554 
 1118200    714.31593   -3166.1611    85.130639   -3081.0305 
 1118400    692.14026   -3162.5902    82.487791   -3080.1024 
 1118600    713.41375   -3160.7853    85.023119   -3075.7622 
 1118800    670.68765   -3160.3931    79.931115    -3080.462 
 1119000     711.8767   -3168.8523    84.839938   -3084.0124 
 1119200    668.19151   -3161.9377     79.63363   -3082.3041 
 1119400    705.01915    -3162.023    84.022669   -3078.0004 
 1119600    672.71085   -3162.6744    80.172235   -3082.5022 
 1119800    699.20469   -3164.9073    83.329714   -3081.5775 
 1120000    684.19584    -3164.222    81.540992    -3082.681 
 1120200    667.59637   -3164.0095    79.562702   -3084.4468 
 1120400    721.79709   -3163.1235    86.022228   -3077.1013 
 1120600     680.7414   -3164.0591    81.129299   -3082.9298 
 1120800    651.40094   -3164.4652    77.632566   -3086.8327 
 1121000     727.0785   -3160.5064    86.651655   -3073.8547 
 1121200    696.95085   -3163.7796    83.061106   -3080.7185 
 1121400    640.30145   -3166.1455    76.309753   -3089.8357 
 1121600    719.09214    -3159.935    85.699858   -3074.2352 
 1121800    729.43322   -3162.8994    86.932286   -3075.9671 
 1122000    625.48838   -3165.6006    74.544363   -3091.0563 
 1122200    735.28407   -3163.5678    87.629577   -3075.9382 
 1122400    677.44174   -3157.5576    80.736052   -3076.8216 
 1122600     683.3968   -3169.5409    81.445764   -3088.0952 
 1122800    699.65967   -3162.6772    83.383938   -3079.2932 
 1123000    711.72321   -3162.4155    84.821644   -3077.5938 
 1123200    685.12325   -3166.4675    81.651518    -3084.816 
 1123400    686.41336     -3162.28     81.80527   -3080.4748 
 1123600    713.94176   -3164.7826    85.086047   -3079.6966 
 1123800    709.97609   -3166.7376    84.613426   -3082.1242 
 1124000    707.89679   -3162.9054     84.36562   -3078.5397 
 1124200    701.90579   -3162.5949    83.651626   -3078.9432 
 1124400    665.07748    -3163.298    79.262507   -3084.0355 
 1124600    685.62404   -3163.6467    81.711202   -3081.9355 
 1124800    706.52611   -3160.6232    84.202266   -3076.4209 
 1125000    692.45075   -3164.4266    82.524794   -3081.9018 
 1125200    683.48082   -3164.9636    81.455777   -3083.5078 
 1125400    687.64857   -3158.8554     81.95248   -3076.9029 
 1125600    712.49875   -3161.6024    84.914071   -3076.6883 
 1125800    668.61314   -3162.0514    79.683879   -3082.3675 
 1126000    691.05048   -3165.5553    82.357912   -3083.1974 
 1126200    713.30625   -3166.6751    85.010307   -3081.6647 
 1126400    691.67217   -3164.0195    82.432005   -3081.5875 
 1126600    665.92329   -3161.0741    79.363309   -3081.7108 
 1126800    698.22654   -3165.1246     83.21314   -3081.9115 
 1127000    712.16539   -3164.3343    84.874343   -3079.4599 
 1127200    709.69583    -3161.256    84.580025    -3076.676 
 1127400    671.45969   -3164.5919    80.023125   -3084.5687 
 1127600    684.58549    -3166.276    81.587429   -3084.6885 
 1127800    681.82537   -3158.0518    81.258485   -3076.7933 
 1128000    699.98321   -3165.6132    83.422497   -3082.1907 
 1128200    690.22845   -3166.3352    82.259945   -3084.0752 
 1128400    707.11687   -3160.4151    84.272671   -3076.1424 
 1128600    687.00412   -3163.2026    81.875677   -3081.3269 
 1128800    671.19888   -3164.3233    79.992042   -3084.3313 
 1129000    717.96454   -3165.4301    85.565473   -3079.8646 
 1129200    728.80739   -3161.5949      86.8577   -3074.7372 
 1129400     657.6121   -3163.8428    78.372799     -3085.47 
 1129600     674.7086   -3165.9847    80.410323   -3085.5744 
 1129800    707.59256   -3158.7226    84.329363   -3074.3932 
 1130000    702.50607   -3159.4603    83.723166   -3075.7371 
 1130200    699.92595   -3165.7624    83.415673   -3082.3467 
 1130400    684.79484   -3166.2269     81.61238   -3084.6145 
 1130600    709.87995   -3160.1334    84.601969   -3075.5314 
 1130800    672.27208   -3158.2921    80.119944   -3078.1721 
 1131000      681.459   -3167.7104    81.214821   -3086.4956 
 1131200    694.18332   -3163.1806    82.731278   -3080.4493 
 1131400     702.2716   -3157.1814    83.695222   -3073.4862 
 1131600    681.78811   -3165.6871    81.254043   -3084.4331 
 1131800    657.76643   -3161.9715    78.391191   -3083.5803 
 1132000    727.61458   -3160.0862    86.715544   -3073.3706 
 1132200      692.897   -3166.1157    82.577978   -3083.5378 
 1132400    717.42869   -3165.2024    85.501611   -3079.7008 
 1132600    698.82928   -3161.8185    83.284974   -3078.5335 
 1132800    679.01205   -3168.1394    80.923198   -3087.2162 
 1133000     720.2962   -3164.3886    85.843355   -3078.5453 
 1133200    714.08268   -3161.9304    85.102842   -3076.8276 
 1133400    672.45922   -3164.8965    80.142246   -3084.7542 
 1133600     711.8056   -3163.6147    84.831463   -3078.7833 
 1133800    704.44704   -3164.2812    83.954486   -3080.3267 
 1134000    697.44115   -3164.0687     83.11954   -3080.9491 
 1134200    712.61205   -3162.7451    84.927574   -3077.8175 
 1134400    700.52358    -3166.982    83.486897   -3083.4951 
 1134600    688.82215   -3161.8391    82.092346   -3079.7468 
 1134800    725.48817   -3161.3361    86.462123   -3074.8739 
 1135000    665.66986   -3163.6323    79.333105   -3084.2992 
 1135200    714.88017   -3163.9076    85.197884   -3078.7097 
 1135400     708.2999   -3163.4997    84.413662   -3079.0861 
 1135600    646.21541   -3162.0218    77.014566   -3085.0073 
 1135800    700.06498   -3162.0652    83.432242   -3078.6329 
 1136000    689.41811   -3164.5028    82.163371   -3082.3394 
 1136200    710.63578   -3168.3405    84.692047   -3083.6484 
 1136400     732.1191   -3162.6514    87.252383    -3075.399 
 1136600    688.92398   -3161.9077    82.104481   -3079.8033 
 1136800    663.51193   -3164.0883    79.075927   -3085.0124 
 1137000    723.87628   -3164.6166    86.270021   -3078.3466 
 1137200    711.15491   -3163.4131    84.753916   -3078.6592 
 1137400    701.73511   -3166.1253    83.631284    -3082.494 
 1137600    680.93738   -3163.1381    81.152655   -3081.9855 
 1137800    705.56381    -3162.479     84.08758   -3078.3914 
 1138000    664.80427   -3159.8601    79.229946   -3080.6302 
 1138200    701.54019   -3164.2939    83.608054   -3080.6858 
 1138400    683.58434   -3163.5403    81.468114   -3082.0722 
 1138600    663.08791   -3162.1491    79.025394   -3083.1237 
 1138800    692.17802   -3161.0999    82.492291   -3078.6076 
 1139000    705.81255   -3161.9542    84.117225    -3077.837 
 1139200    684.71728   -3164.9981    81.603136    -3083.395 
 1139400    703.00251   -3164.8827     83.78233   -3081.1004 
 1139600    699.10637   -3160.1558    83.317996   -3076.8379 
 1139800    706.79485    -3163.357    84.234293   -3079.1227 
 1140000    674.63013   -3165.1404     80.40097   -3084.7394 
 1140200    697.08816   -3161.9639    83.077471   -3078.8864 
 1140400    697.15651   -3158.8688    83.085616   -3075.7832 
 1140600    697.51869   -3164.3685    83.128781   -3081.2397 
 1140800    700.75371   -3166.5004    83.514323   -3082.9861 
 1141000    698.15335   -3160.8632    83.204417   -3077.6587 
 1141200    720.30598   -3163.0981     85.84452   -3077.2535 
 1141400    698.15564   -3168.4796     83.20469   -3085.2749 
 1141600    672.56512   -3162.0124    80.154867   -3081.8575 
 1141800    728.26165   -3160.7253    86.792661   -3073.9327 
 1142000     694.5553   -3167.8427     82.77561   -3085.0671 
 1142200    692.84038   -3168.0861    82.571229   -3085.5149 
 1142400    719.42341   -3163.0287    85.739338   -3077.2894 
 1142600    722.76095   -3162.0023    86.137099   -3075.8652 
 1142800      678.943   -3165.3573     80.91497   -3084.4424 
 1143000     701.8562   -3168.3688    83.645716   -3084.7231 
 1143200    714.42069   -3160.4814    85.143124   -3075.3382 
 1143400    709.91022   -3162.6775    84.605576    -3078.072 
 1143600    713.80257   -3168.0162    85.069459   -3082.9467 
 1143800    706.39413   -3164.0219    84.186536   -3079.8354 
 1144000    717.93232   -3163.3799    85.561633   -3077.8183 
 1144200    669.28959   -3159.2811    79.764496   -3079.5166 
 1144400    680.03129   -3159.8929     81.04467   -3078.8482 
 1144600    692.47882   -3164.2578     82.52814   -3081.7297 
 1144800    730.66583   -3162.9402    87.079186    -3075.861 
 1145000     700.4001   -3158.2987     83.47218   -3074.8265 
 1145200    690.33634   -3165.1619    82.272803    -3082.889 
 1145400    695.39475   -3165.3617    82.875654    -3082.486 
 1145600    720.56957   -3158.5233    85.875934   -3072.6474 
 1145800    703.64218   -3162.3768    83.858564   -3078.5183 
 1146000     698.0463   -3167.6468     83.19166   -3084.4551 
 1146200    703.77936    -3165.529    83.874914   -3081.6541 
 1146400    679.74457   -3160.5065    81.010499    -3079.496 
 1146600    721.46297   -3162.8221    85.982408   -3076.8396 
 1146800    729.40408   -3163.5022    86.928813   -3076.5734 
 1147000    662.80975   -3165.4115    78.992244   -3086.4193 
 1147200    710.34303   -3160.3349    84.657158   -3075.6777 
 1147400    698.37723   -3158.0978    83.231099   -3074.8667 
 1147600    684.03512   -3167.0889    81.521838   -3085.5671 
 1147800    711.39314   -3163.9465    84.782308   -3079.1642 
 1148000    724.82524   -3161.9522    86.383116    -3075.569 
 1148200    692.89474   -3166.3608    82.577708   -3083.7831 
 1148400    667.31344   -3160.3057    79.528983   -3080.7767 
 1148600    743.50676   -3163.3772     88.60954   -3074.7676 
 1148800     703.7232   -3168.0702     83.86822   -3084.2019 
 1149000    706.89365   -3162.3517    84.246068   -3078.1056 
 1149200    742.54185   -3163.0666    88.494544   -3074.5721 
 1149400    665.35239   -3163.1612    79.295269   -3083.8659 
 1149600    728.49989    -3163.249    86.821054    -3076.428 
 1149800    676.13952   -3160.1832    80.580857   -3079.6023 
 1150000    672.04509   -3163.6291    80.092892   -3083.5362 
 1150200     727.1837   -3163.0988    86.664193   -3076.4346 
 1150400    699.81793   -3163.1641    83.402799   -3079.7613 
 1150600    693.19464   -3163.9067    82.613449   -3081.2933 
 1150800    722.04188   -3163.5808    86.051402   -3077.5294 
 1151000    691.88775   -3161.9061    82.457698   -3079.4484 
 1151200    707.42225   -3163.1221    84.309065   -3078.8131 
 1151400    695.40093   -3158.7252     82.87639   -3075.8488 
 1151600    689.03094   -3160.3473    82.117229   -3078.2301 
 1151800     671.4746   -3154.7159    80.024902    -3074.691 
 1152000    701.70427   -3158.5124    83.627608   -3074.8848 
 1152200    686.74093   -3158.8703     81.84431    -3077.026 
 1152400     699.3003   -3156.6238    83.341108   -3073.2827 
 1152600    682.34328     -3153.26    81.320207   -3071.9397 
 1152800    691.32061   -3160.0206    82.390107   -3077.6305 
 1153000    656.05998   -3159.7628     78.18782   -3081.5749 
 1153200    706.17554   -3158.1693    84.160485   -3074.0088 
 1153400    729.03291   -3161.8428    86.884578   -3074.9582 
 1153600    679.17496   -3162.5867    80.942614    -3081.644 
 1153800    691.65935   -3159.8499    82.430476   -3077.4194 
 1154000    695.40778   -3159.3213    82.877207   -3076.4441 
 1154200    695.18293   -3162.2692    82.850409   -3079.4188 
 1154400    704.36141   -3162.4191    83.944281   -3078.4748 
 1154600    712.35357   -3159.9828     84.89677    -3075.086 
 1154800    739.82139   -3161.1071    88.170325   -3072.9368 
 1155000    668.99104   -3164.0412    79.728917   -3084.3123 
 1155200    726.37253   -3165.4785    86.567519    -3078.911 
 1155400    704.90247   -3155.3521    84.008764   -3071.3434 
 1155600    684.95356   -3161.7028    81.631295   -3080.0716 
 1155800    705.49372   -3163.1245    84.079227   -3079.0453 
 1156000    692.81163   -3159.2842    82.567804   -3076.7164 
 1156200     704.5131   -3162.0904    83.962359    -3078.128 
 1156400    698.66647   -3161.0952     83.26557   -3077.8296 
 1156600    709.12945   -3162.3217    84.512526   -3077.8091 
 1156800    704.50225   -3162.1255    83.961066   -3078.1644 
 1157000    697.59797   -3160.5195    83.138229   -3077.3813 
 1157200    696.36122   -3165.0965    82.990835   -3082.1057 
 1157400    703.42374   -3163.1499    83.832531   -3079.3174 
 1157600    717.99946   -3158.5105    85.569635   -3072.9408 
 1157800    719.97525   -3165.2445    85.805105   -3079.4394 
 1158000    679.44571   -3163.0168    80.974881   -3082.0419 
 1158200    711.58597   -3161.3698    84.805288   -3076.5645 
 1158400    682.87638   -3160.4477    81.383741   -3079.0639 
 1158600    696.78471   -3161.6203    83.041307    -3078.579 
 1158800    719.32327   -3162.1789    85.727404   -3076.4515 
 1159000    694.50154   -3164.4532    82.769203    -3081.684 
 1159200    742.92198   -3166.2623    88.539847   -3077.7225 
 1159400     709.0838   -3165.1505    84.507085   -3080.6434 
 1159600    668.35806   -3160.4035    79.653479     -3080.75 
 1159800    720.98647   -3161.3435     85.92562   -3075.4179 
 1160000    704.31964   -3162.5681    83.939303   -3078.6288 
 1160200    712.57518   -3162.6635    84.923181   -3077.7404 
 1160400    702.75509   -3163.1537    83.752844   -3079.4008 
 1160600    716.54831   -3166.6308     85.39669   -3081.2341 
 1160800    723.54708   -3162.7772    86.230788   -3076.5464 
 1161000    723.84704   -3164.0587    86.266537   -3077.7921 
 1161200    679.32026   -3163.8987    80.959931   -3082.9388 
 1161400    697.92689   -3156.3711    83.177429   -3073.1937 
 1161600    710.14877   -3160.6449    84.634006   -3076.0109 
 1161800    697.66744   -3163.1395    83.146508    -3079.993 
 1162000    743.30906   -3163.0965    88.585978   -3074.5106 
 1162200    671.33074    -3164.878    80.007757   -3084.8702 
 1162400    710.81327   -3161.5937    84.713199   -3076.8805 
 1162600    734.45205   -3160.6676    87.530419   -3073.1372 
 1162800    672.48819   -3163.4208    80.145699   -3083.2751 
 1163000     692.8391   -3161.8081    82.571077    -3079.237 
 1163200    718.18866   -3158.7619    85.592184   -3073.1698 
 1163400    698.44242   -3162.4006    83.238869   -3079.1617 
 1163600    684.28238   -3166.0313    81.551305     -3084.48 
 1163800    686.82098   -3162.9829     81.85385   -3081.1291 
 1164000    736.44827   -3163.3043    87.768324    -3075.536 
 1164200    696.76775   -3161.1009    83.039284   -3078.0616 
 1164400    679.02297   -3163.0235      80.9245    -3082.099 
 1164600    690.89195   -3162.4704     82.33902   -3080.1313 
 1164800    707.72153     -3158.09    84.344733   -3073.7453 
 1165000    698.68259   -3161.3763    83.267491   -3078.1088 
 1165200    691.04064    -3165.774     82.35674   -3083.4172 
 1165400    709.23852   -3161.1677    84.525525   -3076.6422 
 1165600    732.74468   -3160.3812    87.326938   -3073.0543 
 1165800    677.39249   -3160.7329    80.730183   -3080.0027 
 1166000     729.3135   -3166.0378    86.918017   -3079.1198 
 1166200    718.02324   -3159.3905    85.572468    -3073.818 
 1166400    731.89147   -3163.0167    87.225254   -3075.7915 
 1166600    674.23039   -3161.9892    80.353331   -3081.6358 
 1166800    710.22189   -3158.1407    84.642721    -3073.498 
 1167000    703.95137   -3160.1693    83.895414   -3076.2739 
 1167200    691.03794   -3164.9962    82.356419   -3082.6398 
 1167400    718.01181   -3158.3494    85.571106   -3072.7783 
 1167600    725.85909   -3164.1975    86.506328   -3077.6912 
 1167800    688.09092   -3163.2278    82.005199   -3081.2226 
 1168000    730.61825   -3160.2889    87.073515   -3073.2154 
 1168200    684.65796   -3165.2467    81.596066   -3083.6506 
 1168400    677.15555   -3161.2265    80.701945   -3080.5246 
 1168600    729.49873   -3157.4251    86.940092    -3070.485 
 1168800    670.75088   -3159.3802     79.93865   -3079.4415 
 1169000    688.75476   -3160.1631    82.084314   -3078.0788 
 1169200    718.87276   -3157.8728    85.673712   -3072.1991 
 1169400    674.01589    -3161.596    80.327768   -3081.2682 
 1169600    707.54965   -3165.1857    84.324248   -3080.8615 
 1169800    736.93365   -3156.4471    87.826171   -3068.6209 
 1170000    677.76695   -3159.1435     80.77481   -3078.3687 
 1170200    680.63251   -3163.6012    81.116322   -3082.4849 
 1170400     721.2777   -3160.0514    85.960328    -3074.091 
 1170600    700.54128   -3160.9967    83.489006   -3077.5077 
 1170800    697.77755   -3162.5346    83.159631    -3079.375 
 1171000    720.56489   -3163.6041    85.875377   -3077.7287 
 1171200    722.61244    -3162.407      86.1194   -3076.2876 
 1171400    720.83524   -3161.1119    85.907597   -3075.2043 
 1171600    702.81595   -3158.0886    83.760097   -3074.3285 
 1171800    712.13171   -3165.7973    84.870329    -3080.927 
 1172000    699.48972   -3164.1046    83.363684   -3080.7409 
 1172200    722.38845   -3157.0043    86.092705   -3070.9116 
 1172400    687.23129   -3162.3424     81.90275   -3080.4397 
 1172600    691.04049   -3165.7491    82.356722   -3083.3924 
 1172800    752.67223   -3164.0648    89.701861   -3074.3629 
 1173000    705.80172   -3160.3442    84.115934   -3076.2283 
 1173200     728.3396    -3163.346    86.801951   -3076.5441 
 1173400    708.41379   -3164.5357    84.427235   -3080.1085 
 1173600    728.44255   -3165.0638    86.814219   -3078.2496 
 1173800    713.93313   -3161.7781    85.085019   -3076.6931 
 1174000    681.82917   -3160.6579    81.258937    -3079.399 
 1174200    698.62535   -3161.7485     83.26067   -3078.4879 
 1174400    716.64188   -3164.5758    85.407841   -3079.1679 
 1174600    688.35309   -3162.1091    82.036444   -3080.0726 
 1174800    734.53441   -3159.1101    87.540234   -3071.5699 
 1175000    723.71121   -3163.4201    86.250349   -3077.1698 
 1175200     690.5042   -3166.5195    82.292808   -3084.2267 
 1175400    737.17805   -3162.6742    87.855298   -3074.8189 
 1175600    720.10929   -3162.4168     85.82108   -3076.5957 
 1175800    721.96928   -3166.6473    86.042749   -3080.6045 
 1176000    732.12584   -3164.5905    87.253186   -3077.3373 
 1176200    691.35413   -3160.8566    82.394101   -3078.4625 
 1176400    755.52216   -3167.3489     90.04151   -3077.3074 
 1176600     700.3551   -3162.7371    83.466818   -3079.2703 
 1176800    709.38852   -3161.1681    84.543401   -3076.6247 
 1177000    737.62743   -3160.6428    87.908854   -3072.7339 
 1177200    697.46602   -3165.3261    83.122504   -3082.2036 
 1177400    704.91464   -3161.7285    84.010214   -3077.7183 
 1177600    740.49635   -3159.3663    88.250766   -3071.1155 
 1177800    676.05846   -3162.6559    80.571196   -3082.0847 
 1178000    687.12032   -3157.0529    81.889525   -3075.1634 
 1178200    748.73711   -3156.5208    89.232882   -3067.2879 
 1178400     671.8365   -3164.6084    80.068033   -3084.5403 
 1178600    685.51034   -3164.4367    81.697651   -3082.7391 
 1178800    735.75248   -3155.9789    87.685402   -3068.2935 
 1179000    720.46784    -3159.427     85.86381   -3073.5632 
 1179200     704.7018   -3164.2702    83.984848   -3080.2853 
 1179400    738.07417   -3163.2557    87.962095   -3075.2936 
 1179600    723.70987    -3162.417    86.250189   -3076.1668 
 1179800    688.20121   -3159.5297    82.018343   -3077.5113 
 1180000    726.35755    -3156.555    86.565734   -3069.9893 
 1180200    687.72205   -3159.7375    81.961238   -3077.7763 
 1180400    697.56863   -3161.0436    83.134732   -3077.9089 
 1180600    725.00817   -3154.3456    86.404918   -3067.9407 
 1180800    695.27254   -3159.4132    82.861089   -3076.5521 
 1181000    705.05576   -3161.8146    84.027033   -3077.7876 
 1181200    738.24846   -3158.7874    87.982867   -3070.8046 
 1181400    701.62858   -3160.3542    83.618589   -3076.7356 
 1181600    716.94254   -3158.4897    85.443673    -3073.046 
 1181800    737.96337    -3157.718     87.94889   -3069.7691 
 1182000    674.85002   -3160.4111    80.427177   -3079.9839 
 1182200    699.49739   -3155.3632    83.364597   -3071.9986 
 1182400    715.98726   -3157.0891    85.329825   -3071.7593 
 1182600    670.36445   -3162.2923    79.892597   -3082.3997 
 1182800    737.54976   -3161.7797    87.899597   -3073.8801 
 1183000    711.41138   -3156.4374    84.784481   -3071.6529 
 1183200    709.33261   -3163.4711    84.536738   -3078.9343 
 1183400    711.70903   -3160.2853    84.819954   -3075.4653 
 1183600    752.58542   -3162.7417    89.691515   -3073.0502 
 1183800     698.5784   -3163.0335    83.255075   -3079.7784 
 1184000    695.10471   -3158.3826    82.841087   -3075.5415 
 1184200    746.21005   -3162.1124    88.931712   -3073.1807 
 1184400    721.03336   -3164.9603    85.931208   -3079.0291 
 1184600    718.84689   -3167.9305     85.67063   -3082.2599 
 1184800    733.87738   -3162.3009    87.461931    -3074.839 
 1185000    725.99636   -3160.7508    86.522689   -3074.2281 
 1185200    691.87379   -3155.4374    82.456034   -3072.9814 
 1185400    748.36913   -3161.6106    89.189027   -3072.4216 
 1185600    703.62668   -3160.0352    83.856718   -3076.1785 
 1185800     712.1665   -3161.0357    84.874475   -3076.1613 
 1186000    736.23394   -3164.3385    87.742781   -3076.5957 
 1186200      711.612   -3166.1539     84.80839   -3081.3455 
 1186400    740.61545   -3161.4773     88.26496   -3073.2123 
 1186600    723.64833   -3160.3662    86.242855   -3074.1234 
 1186800    690.35435   -3163.4869     82.27495   -3081.2119 
 1187000    709.26863   -3159.6975    84.529113   -3075.1684 
 1187200    738.61143   -3161.7842    88.026125   -3073.7581 
 1187400    692.66288   -3159.7667    82.550075   -3077.2167 
 1187600    714.00843   -3161.2847    85.093993   -3076.1907 
 1187800    718.80953   -3161.3748    85.666177   -3075.7087 
 1188000    729.43705   -3163.5786    86.932741   -3076.6459 
 1188200    701.99522   -3165.7519    83.662283   -3082.0896 
 1188400     729.1117   -3163.5103    86.893967   -3076.6164 
 1188600    731.08725   -3160.8922     87.12941   -3073.7628 
 1188800    707.75097   -3164.1319    84.348241   -3079.7837 
 1189000    703.20548   -3165.1524     83.80652   -3081.3459 
 1189200    728.49526   -3162.3446    86.820502   -3075.5241 
 1189400    684.18048   -3160.0037    81.539161   -3078.4645 
 1189600     699.5819   -3159.9967    83.374669   -3076.6221 
 1189800    727.11705   -3162.4727    86.656249   -3075.8164 
 1190000    704.93159   -3162.4384    84.012234   -3078.4261 
 1190200    713.38502   -3162.3199    85.019696   -3077.3002 
 1190400     703.3989   -3160.8501    83.829571   -3077.0205 
 1190600    720.51653    -3161.816    85.869614   -3075.9464 
 1190800    728.47716   -3160.2417    86.818345   -3073.4234 
 1191000    716.26452   -3161.8372    85.362868   -3076.4744 
 1191200    706.51531   -3162.0528    84.200978   -3077.8518 
 1191400    737.72493    -3159.911    87.920474   -3071.9906 
 1191600    692.70621   -3159.0838    82.555239   -3076.5285 
 1191800    706.50232   -3160.8716    84.199431   -3076.6722 
 1192000    722.87558   -3161.0929     86.15076   -3074.9422 
 1192200     707.2398   -3162.7514    84.287321   -3078.4641 
 1192400    723.44417   -3157.3109    86.218523   -3071.0924 
 1192600    744.31858    -3163.958     88.70629   -3075.2517 
 1192800    709.98521   -3164.2593    84.614513   -3079.6448 
 1193000    746.70633   -3158.5066    88.990857   -3069.5157 
 1193200    687.80678   -3158.4682    81.971336   -3076.4968 
 1193400    714.53516   -3163.1331    85.156767   -3077.9763 
 1193600    715.97091   -3155.7989    85.327877    -3070.471 
 1193800    724.55639   -3160.3336    86.351076   -3073.9825 
 1194000    713.53279   -3158.6396    85.037306   -3073.6023 
 1194200     705.6372   -3158.4833    84.096327    -3074.387 
 1194400    699.11478   -3158.7973    83.318998   -3075.4783 
 1194600    745.18763   -3157.9827    88.809863   -3069.1728 
 1194800    722.42515   -3160.4437    86.097079   -3074.3466 
 1195000    675.06871   -3160.7309     80.45324   -3080.2776 
 1195200     737.0128    -3156.571    87.835604   -3068.7354 
 1195400    693.33493   -3157.5161    82.630169   -3074.8859 
 1195600    682.26519   -3158.5896    81.310901   -3077.2787 
 1195800    759.30619   -3159.0545    90.492482    -3068.562 
 1196000    693.52933   -3160.2183    82.653337    -3077.565 
 1196200    689.28469   -3164.3127     82.14747   -3082.1652 
 1196400    782.17298   -3159.3469    93.217697   -3066.1292 
 1196600     716.8172   -3156.4765    85.428735   -3071.0478 
 1196800    697.95051   -3165.0379    83.180244   -3081.8577 
 1197000     739.4692   -3159.9467    88.128352   -3071.8184 
 1197200    744.88229   -3158.8207    88.773473   -3070.0472 
 1197400    710.53086   -3161.8339    84.679542   -3077.1544 
 1197600    715.31566   -3157.5552    85.249785   -3072.3054 
 1197800    719.62168   -3161.4386    85.762967   -3075.6756 
 1198000    713.46212   -3161.8491    85.028885   -3076.8202 
 1198200    740.15553   -3156.8485    88.210148   -3068.6383 
 1198400    699.45039   -3158.5494    83.358996   -3075.1904 
 1198600    694.96579   -3161.3889    82.824532   -3078.5644 
 1198800     765.1534   -3160.8937     91.18934   -3069.7044 
 1199000    703.58475   -3161.3986    83.851721   -3077.5469 
 1199200    717.71547   -3158.0767    85.535789   -3072.5409 
 1199400    722.28482   -3156.9918    86.080355   -3070.9114 
 1199600    695.95203   -3162.4987    82.942069   -3079.5566 
 1199800    733.82943    -3161.068    87.456216   -3073.6118 
 1200000    710.42138    -3158.908    84.666496   -3074.2415 
 1200200    711.80649   -3163.7825     84.83157    -3078.951 
 1200400    742.49136   -3158.9374    88.488526   -3070.4489 
 1200600    692.48455   -3157.3891    82.528823   -3074.8603 
 1200800    698.98802   -3162.5011    83.303891   -3079.1972 
 1201000    747.26502   -3159.0408    89.057441   -3069.9834 
 1201200    724.70656   -3157.8058    86.368972   -3071.4368 
 1201400    695.65704   -3161.3909    82.906913   -3078.4839 
 1201600    743.48584    -3159.282    88.607047   -3070.6749 
 1201800    712.38566   -3158.8693    84.900594   -3073.9687 
 1202000    735.70906   -3163.5987    87.680227   -3075.9185 
 1202200    740.56746   -3159.1804    88.259241   -3070.9211 
 1202400    684.24956   -3156.6872    81.547393   -3075.1398 
 1202600    742.34033   -3160.3689    88.470527   -3071.8983 
 1202800    719.23476   -3160.7703    85.716855   -3075.0534 
 1203000    741.04595   -3163.6937    88.316266   -3075.3774 
 1203200    737.11363   -3161.6726     87.84762   -3073.8249 
 1203400     726.7546   -3161.2215    86.613053   -3074.6085 
 1203600    698.08758    -3157.688     83.19658   -3074.4914 
 1203800    704.30953   -3154.6703    83.938098   -3070.7322 
 1204000    725.69152   -3155.3137    86.486358   -3068.8273 
 1204200    710.08837   -3161.5828    84.626808    -3076.956 
 1204400    718.89138   -3159.2751    85.675931   -3073.5992 
 1204600    735.91078   -3160.4644    87.704267   -3072.7602 
 1204800     702.4287   -3159.8401    83.713945   -3076.1262 
 1205000    697.17791   -3155.1135    83.088167   -3072.0253 
 1205200    732.87642    -3157.515    87.342638   -3070.1724 
 1205400    725.46236   -3160.2995    86.459047   -3073.8404 
 1205600    719.24161   -3160.4029    85.717671   -3074.6852 
 1205800    729.95156   -3158.3593    86.994061   -3071.3652 
 1206000    702.60073   -3157.6741    83.734447   -3073.9396 
 1206200    734.45367   -3160.0787    87.530612   -3072.5481 
 1206400    721.56626   -3158.7498    85.994719   -3072.7551 
 1206600    730.81962   -3159.9037    87.097514   -3072.8061 
 1206800    720.21696   -3156.7609    85.833912    -3070.927 
 1207000      713.243   -3159.1602     85.00277   -3074.1574 
 1207200    696.72426    -3151.475    83.034102   -3068.4409 
 1207400    721.80089   -3154.2682    86.022681   -3068.2455 
 1207600      663.494    -3156.581    79.073791   -3077.5073 
 1207800    720.82652   -3157.7003    85.906558   -3071.7938 
 1208000    738.42194   -3155.3006    88.003542   -3067.2971 
 1208200    721.46073   -3158.9504    85.982141   -3072.9682 
 1208400    711.17909   -3162.0489    84.756798   -3077.2921 
 1208600    708.42188   -3156.7656    84.428199   -3072.3374 
 1208800    716.88151   -3156.0072    85.436399   -3070.5708 
 1209000    701.28976   -3156.4561    83.578209   -3072.8779 
 1209200    747.74902   -3162.6727    89.115123   -3073.5576 
 1209400    719.96045   -3160.2308    85.803342   -3074.4274 
 1209600    755.87164   -3162.8755    90.083159   -3072.7923 
 1209800    724.18563   -3161.5858    86.306889   -3075.2789 
 1210000    729.87712   -3159.2772    86.985189    -3072.292 
 1210200    728.15665    -3158.321    86.780147   -3071.5409 
 1210400    727.93339   -3161.3139    86.753539   -3074.5604 
 1210600    722.37646   -3159.2604    86.091276   -3073.1691 
 1210800    719.23166    -3159.165    85.716485   -3073.4485 
 1211000    726.07274    -3157.312    86.531791   -3070.7802 
 1211200     695.7012   -3160.5334    82.912176   -3077.6212 
 1211400    692.32578   -3158.4834    82.509901   -3075.9735 
 1211600    737.02752   -3155.0427    87.837358   -3067.2054 
 1211800    710.07585   -3156.5995    84.625315   -3071.9742 
 1212000     706.7133   -3158.6903    84.224574   -3074.4658 
 1212200    726.55947   -3161.5472    86.589798   -3074.9574 
 1212400    726.19434   -3159.0061    86.546282   -3072.4598 
 1212600    733.18695   -3156.7266    87.379647   -3069.3469 
 1212800    703.13095   -3160.0667    83.797637   -3076.2691 
 1213000    719.54529    -3165.029    85.753863   -3079.2752 
 1213200    727.12277   -3157.0471    86.656932   -3070.3901 
 1213400    767.07528   -3161.6683    91.418386   -3070.2499 
 1213600    702.85956   -3163.1597    83.765294   -3079.3944 
 1213800    733.67952   -3161.8831    87.438351   -3074.4447 
 1214000    743.49638   -3158.8104    88.608303   -3070.2021 
 1214200    713.32976   -3162.0165     85.01311   -3077.0034 
 1214400    733.52089   -3164.3653    87.419445   -3076.9458 
 1214600    757.03411   -3162.8789    90.221701   -3072.6572 
 1214800    719.52902   -3160.6425    85.751924   -3074.8905 
 1215000    721.91787   -3159.2278    86.036622   -3073.1912 
 1215200    722.91316   -3157.3622    86.155239    -3071.207 
 1215400    710.89931   -3162.9464    84.723454   -3078.2229 
 1215600    711.99324   -3158.0951    84.853827   -3073.2413 
 1215800    738.61376   -3157.2687    88.026402   -3069.2422 
 1216000    723.07194    -3163.849    86.174162   -3077.6748 
 1216200    701.32757   -3161.1565    83.582714   -3077.5738 
 1216400    714.28246   -3157.3364    85.126651   -3072.2097 
 1216600    735.61903   -3163.9696    87.669497   -3076.3001 
 1216800    737.55319   -3160.4279    87.900006   -3072.5279 
 1217000    764.28125   -3164.0741    91.085399   -3072.9887 
 1217200    704.97631   -3164.3681    84.017563   -3080.3505 
 1217400    724.81031   -3160.0744    86.381337   -3073.6931 
 1217600    753.47102   -3161.4747    89.797059   -3071.6777 
 1217800    701.07557   -3160.7506    83.552682   -3077.1979 
 1218000    732.61096   -3163.7585    87.311002   -3076.4475 
 1218200     718.2557   -3164.5683    85.600173   -3078.9681 
 1218400     720.3557   -3162.5206    85.850447   -3076.6702 
 1218600    719.61239   -3159.4964     85.76186   -3073.7345 
 1218800    693.38682   -3160.8917    82.636353   -3078.2554 
 1219000    727.68991   -3161.8001    86.724522   -3075.0755 
 1219200    745.43266   -3161.8665    88.839064   -3073.0275 
 1219400    714.67698   -3164.1479    85.173669   -3078.9742 
 1219600    725.29289   -3162.9745     86.43885   -3076.5357 
 1219800    748.21891   -3163.8106    89.171123   -3074.6395 
 1220000    707.76709   -3160.8984    84.350162   -3076.5482 
 1220200     755.5635   -3162.5867    90.046436   -3072.5403 
 1220400    711.50539   -3163.6346    84.795685   -3078.8389 
 1220600     716.3681   -3164.5343    85.375213   -3079.1591 
 1220800    740.70517   -3157.0474    88.275652   -3068.7717 
 1221000    727.74898   -3163.9445    86.731562    -3077.213 
 1221200      712.233   -3166.2637    84.882401   -3081.3813 
 1221400    724.35319   -3159.9786    86.326859   -3073.6518 
 1221600    736.21652   -3162.6243    87.740705   -3074.8836 
 1221800    725.08627   -3163.7135    86.414226   -3077.2993 
 1222000    743.20508   -3160.4567    88.573586   -3071.8831 
 1222200    700.75916    -3157.912    83.514973   -3074.3971 
 1222400    731.76261   -3161.4872    87.209897   -3074.2773 
 1222600    727.99934   -3162.4373    86.761399   -3075.6759 
 1222800    730.03424   -3162.4228    87.003914   -3075.4189 
 1223000     726.8879   -3162.6763     86.62894   -3076.0473 
 1223200    729.28207   -3162.2749    86.914272   -3075.3607 
 1223400    724.74791   -3163.8566    86.373901   -3077.4827 
 1223600    730.37972   -3162.1525    87.045087   -3075.1075 
 1223800    740.75665   -3162.5143    88.281787   -3074.2325 
 1224000    716.80823   -3161.1148    85.427666   -3075.6872 
 1224200    755.86249    -3164.452    90.082069     -3074.37 
 1224400    717.21553   -3159.8392    85.476207    -3074.363 
 1224600    727.01841   -3164.2519    86.644493   -3077.6074 
 1224800    691.95869   -3159.2661    82.466152   -3076.7999 
 1225000    749.18978   -3162.3548     89.28683    -3073.068 
 1225200    719.92503   -3166.4848     85.79912   -3080.6857 
 1225400    718.36009   -3158.6962    85.612614   -3073.0836 
 1225600    711.11218   -3159.5554    84.748824   -3074.8066 
 1225800    748.50106   -3163.5901     89.20475   -3074.3854 
 1226000    749.31619   -3163.7733    89.301895   -3074.4714 
 1226200    737.39302   -3166.1223    87.880918   -3078.2414 
 1226400    745.08572   -3161.6581    88.797717   -3072.8603 
 1226600    767.38773    -3162.012    91.455623   -3070.5564 
 1226800    708.36866   -3166.3128    84.421856   -3081.8909 
 1227000    745.21776   -3164.2344    88.813453   -3075.4209 
 1227200    743.14225   -3158.0864    88.566098   -3069.5203 
 1227400    711.54733   -3160.7047    84.800683    -3075.904 
 1227600    708.56112   -3161.5048    84.444794     -3077.06 
 1227800    751.27791   -3160.5571    89.535689   -3071.0214 
 1228000    737.06272   -3158.6161    87.841553   -3070.7745 
 1228200      742.985   -3163.6699    88.547358   -3075.1226 
 1228400    745.39853   -3163.8697    88.834997   -3075.0347 
 1228600    698.16276   -3156.3167     83.20554   -3073.1111 
 1228800    726.87758   -3160.6175     86.62771   -3073.9898 
 1229000    725.51359   -3160.4603    86.465152   -3073.9951 
 1229200    731.95909   -3161.3011    87.233313   -3074.0678 
 1229400    713.62078   -3160.9846    85.047793   -3075.9368 
 1229600    735.12158   -3162.7657    87.610212   -3075.1554 
 1229800    744.17063   -3160.6347    88.688658    -3071.946 
 1230000    733.30095   -3161.8236    87.393234   -3074.4304 
 1230200    692.09692   -3162.9691    82.482626   -3080.4864 
 1230400     752.4158   -3162.0464    89.671301   -3072.3751 
 1230600     738.6301   -3159.9855    88.028351   -3071.9572 
 1230800    711.56068   -3159.1788    84.802274   -3074.3765 
 1231000    728.05739    -3160.728    86.768318   -3073.9596 
 1231200    719.86119   -3160.7908    85.791511   -3074.9993 
 1231400    743.84286   -3157.7107    88.649595   -3069.0611 
 1231600    723.62501   -3158.8712    86.240076   -3072.6311 
 1231800    705.73699   -3162.3075     84.10822   -3078.1993 
 1232000    731.74401   -3157.4701     87.20768   -3070.2624 
 1232200     735.6055   -3157.7722    87.667885   -3070.1043 
 1232400    733.96137   -3163.1455     87.47194   -3075.6736 
 1232600     711.5696     -3161.14    84.803337   -3076.3367 
 1232800    771.69642   -3162.2222    91.969123   -3070.2531 
 1233000     697.6344   -3155.4824     83.14257   -3072.3398 
 1233200     714.8245   -3158.3815     85.19125   -3073.1903 
 1233400    728.94468   -3162.1263    86.874062   -3075.2522 
 1233600    717.54746   -3158.1616    85.515767   -3072.6458 
 1233800    724.97622   -3159.0303     86.40111   -3072.6292 
 1234000    729.13469   -3163.7531    86.896707   -3076.8564 
 1234200    729.94471   -3162.7098    86.993244   -3075.7166 
 1234400    756.51154   -3161.5507    90.159422   -3071.3912 
 1234600    712.11352    -3161.514    84.868161   -3076.6458 
 1234800    733.99338   -3160.7892    87.475756   -3073.3135 
 1235000    730.85215   -3161.3548    87.101391   -3074.2534 
 1235200    753.59729   -3160.2735    89.812107   -3070.4614 
 1235400    732.67461   -3155.2336    87.318587    -3067.915 
 1235600     688.8926   -3159.1331    82.100742   -3077.0324 
 1235800    753.78927   -3160.7016    89.834988   -3070.8666 
 1236000    717.31825   -3157.9388     85.48845   -3072.4504 
 1236200    703.10917    -3158.882    83.795041    -3075.087 
 1236400    764.49137   -3163.8106     91.11044   -3072.7001 
 1236600    729.09107   -3163.1127    86.891509   -3076.2212 
 1236800    698.97141   -3160.5791    83.301912   -3077.2772 
 1237000    752.50667   -3155.5507     89.68213   -3065.8686 
 1237200    731.96575   -3165.7175    87.234108   -3078.4834 
 1237400    685.72908   -3160.9551     81.72372   -3079.2314 
 1237600    780.08723   -3156.1105    92.969122   -3063.1414 
 1237800    720.25183   -3161.3762    85.838067   -3075.5381 
 1238000    734.91757   -3167.7481    87.585899   -3080.1622 
 1238200    764.83848   -3164.5517    91.151809   -3073.3999 
 1238400    743.26363    -3163.968    88.580565   -3075.3874 
 1238600    724.99297   -3159.6432    86.403107   -3073.2401 
 1238800    743.05203   -3158.7104    88.555346   -3070.1551 
 1239000    726.25747   -3162.4808    86.553807    -3075.927 
 1239200    722.71971   -3163.0693    86.132184   -3076.9371 
 1239400    722.88042   -3159.4949    86.151337   -3073.3436 
 1239600    722.98149   -3158.9216    86.163382   -3072.7582 
 1239800    742.44443   -3159.5584    88.482933   -3071.0754 
 1240000    738.36346   -3159.6115    87.996573   -3071.6149 
 1240200    734.99559   -3163.8262    87.595197    -3076.231 
 1240400    750.66763   -3157.0177    89.462957   -3067.5548 
 1240600    713.89598   -3159.4442     85.08059   -3074.3636 
 1240800    727.84092   -3166.2753    86.742518   -3079.5328 
 1241000    741.08567   -3157.6381       88.321   -3069.3171 
 1241200    719.79377   -3160.6664    85.783476   -3074.8829 
 1241400    743.03165   -3161.3527    88.552918   -3072.7998 
 1241600     740.7156   -3160.2389    88.276896    -3071.962 
 1241800    709.95281   -3161.0605    84.610652   -3076.4498 
 1242000    728.28579   -3160.2208    86.795537   -3073.4252 
 1242200    739.29599   -3160.8672     88.10771   -3072.7595 
 1242400    717.70068   -3162.5381    85.534027   -3077.0041 
 1242600    744.18648   -3159.2211    88.690548   -3070.5306 
 1242800    760.66745   -3157.8057    90.654714    -3067.151 
 1243000    678.71547   -3162.1156    80.887853   -3081.2277 
 1243200    737.41994   -3160.5389    87.884126   -3072.6548 
 1243400    776.70911   -3156.8553    92.566525   -3064.2887 
 1243600    712.55604   -3166.9673    84.920899   -3082.0464 
 1243800    768.72194   -3165.9397    91.614631    -3074.325 
 1244000    768.27558   -3158.6537    91.561435   -3067.0922 
 1244200    686.90263   -3160.4571    81.863581   -3078.5935 
 1244400    725.21315   -3159.2556    86.429347   -3072.8263 
 1244600     746.8786   -3162.5847    89.011388   -3073.5733 
 1244800     707.1084    -3162.197    84.271662   -3077.9253 
 1245000    783.35171   -3163.8657    93.358176   -3070.5076 
 1245200    712.80344   -3160.1027    84.950385   -3075.1524 
 1245400     756.1555   -3161.2903     90.11699   -3071.1733 
 1245600     785.4097   -3160.9583    93.603442   -3067.3549 
 1245800    711.48065    -3163.481    84.792737   -3078.6882 
 1246000    745.98797   -3160.1635    88.905246   -3071.2582 
 1246200    766.30396   -3160.4357    91.326462   -3069.1093 
 1246400    715.41089   -3162.2871    85.261135    -3077.026 
 1246600    780.42926   -3160.5706    93.009884   -3067.5607 
 1246800    731.84811     -3161.29    87.220087   -3074.0699 
 1247000    703.70915   -3164.9831    83.866546   -3081.1166 
 1247200    773.75021   -3159.2945    92.213889   -3067.0806 
 1247400    747.97982   -3160.0004    89.142629   -3070.8578 
 1247600    735.39128   -3168.8625    87.642354   -3081.2202 
 1247800    741.18692   -3160.6471    88.333066   -3072.3141 
 1248000    736.60814   -3158.1366    87.787377   -3070.3493 
 1248200    728.72209   -3162.1243    86.847535   -3075.2768 
 1248400    717.60674   -3161.9462    85.522832   -3076.4234 
 1248600    729.35405   -3159.3681    86.922851   -3072.4452 
 1248800    740.89818   -3156.7687    88.298655   -3068.4701 
 1249000    733.78088   -3160.1736    87.450431   -3072.7232 
 1249200    725.38908   -3166.5651    86.450313   -3080.1147 
 1249400    743.51866   -3163.0952    88.610958   -3074.4843 
 1249600    772.57423   -3162.2957    92.073739    -3070.222 
 1249800    709.86182   -3163.1249    84.599808   -3078.5251 
 1250000    750.84694   -3161.0874    89.484327   -3071.6031 
 1250200    752.44638   -3158.3968    89.674945   -3068.7218 
 1250400    693.55249   -3164.9574    82.656097   -3082.3013 
 1250600     764.4679   -3161.7066    91.107644    -3070.599 
 1250800    778.88167   -3159.9843    92.825446   -3067.1589 
 1251000    690.17166   -3165.7044    82.253177   -3083.4512 
 1251200    751.17679   -3161.1748    89.523638   -3071.6512 
 1251400     751.3102   -3157.4445    89.539537    -3067.905 
 1251600    706.44619    -3160.835    84.192741   -3076.6422 
 1251800    736.74476   -3162.7297    87.803659    -3074.926 
 1252000    711.50512   -3159.5085    84.795653   -3074.7129 
 1252200    728.51526   -3156.7894    86.822885   -3069.9665 
 1252400    735.42536   -3161.0339    87.646416   -3073.3875 
 1252600    709.96506   -3161.2597    84.612112   -3076.6476 
 1252800    736.04791   -3158.4637     87.72061    -3070.743 
 1253000    723.20552   -3160.4422    86.190082   -3074.2521 
 1253200    711.23628   -3164.8119    84.763613   -3080.0483 
 1253400    762.03431   -3159.2296    90.817613    -3068.412 
 1253600     757.8474    -3163.705    90.318626   -3073.3864 
 1253800    715.99091   -3163.4005     85.33026   -3078.0703 
 1254000    756.60636   -3159.7266    90.170722   -3069.5559 
 1254200    736.24785   -3160.1786    87.744438   -3072.4341 
 1254400    731.35859   -3165.6844    87.161747   -3078.5226 
 1254600       748.78   -3156.3202    89.237994   -3067.0822 
 1254800    742.44566   -3158.6516     88.48308   -3070.1685 
 1255000    715.08397   -3161.6469    85.222173   -3076.4247 
 1255200    761.05459   -3161.2433    90.700852   -3070.5425 
 1255400    766.54429   -3163.6565    91.355103   -3072.3014 
 1255600    713.52644   -3160.5406    85.036549   -3075.5041 
 1255800    763.85453   -3160.7342    91.034543   -3069.6997 
 1256000    727.29995     -3160.36    86.678047    -3073.682 
 1256200    736.19114   -3162.1934     87.73768   -3074.4557 
 1256400    762.98526   -3163.0926    90.930946   -3072.1617 
 1256600    767.26001   -3167.2091    91.440401   -3075.7687 
 1256800    748.27921   -3161.7571    89.178311   -3072.5788 
 1257000    751.55211   -3162.5002    89.568368   -3072.9319 
 1257200    743.41466   -3164.5954    88.598563   -3075.9968 
 1257400    748.51494   -3160.5586    89.206404   -3071.3522 
 1257600    719.51166   -3158.8928    85.749855    -3073.143 
 1257800    724.16718   -3160.4534     86.30469   -3074.1487 
 1258000    753.35338   -3158.6992    89.783038   -3068.9162 
 1258200    755.21104   -3163.8897    90.004431   -3073.8852 
 1258400     746.1635   -3163.1212    88.926164   -3074.1951 
 1258600    746.62593   -3159.8261    88.981276   -3070.8448 
 1258800     740.6696   -3159.7447    88.271413   -3071.4733 
 1259000    720.85029   -3164.6992     85.90939   -3078.7898 
 1259200    748.71664   -3161.4973    89.230442   -3072.2669 
 1259400    752.55096    -3157.779    89.687408   -3068.0916 
 1259600    757.71671   -3164.7215    90.303051   -3074.4185 
 1259800    755.64011    -3159.751    90.055566   -3069.6954 
 1260000    760.18736   -3157.3103    90.597498   -3066.7128 
 1260200    726.80979    -3162.223    86.619631   -3075.6034 
 1260400    744.71392   -3161.5338    88.753407   -3072.7804 
 1260600    746.20329   -3161.3348    88.930907   -3072.4039 
 1260800    722.26763   -3162.1022    86.078306   -3076.0239 
 1261000    767.71276   -3164.0429    91.494359   -3072.5485 
 1261200    749.97179   -3162.6716    89.380029   -3073.2915 
 1261400    716.44773   -3160.5272    85.384702   -3075.1425 
 1261600    762.66967   -3159.8903    90.893335   -3068.9969 
 1261800    754.26419   -3164.4409    89.891587   -3074.5494 
 1262000    708.74345   -3163.0862    84.466524   -3078.6197 
 1262200    791.54276   -3161.5364    94.334368    -3067.202 
 1262400    741.77367   -3157.9142    88.402994   -3069.5112 
 1262600    715.20945   -3162.9466    85.237127   -3077.7095 
 1262800    747.62749   -3158.1994     89.10064   -3069.0988 
 1263000    734.68751   -3160.2722     87.55848   -3072.7137 
 1263200    739.83038   -3165.8002    88.171397   -3077.6288 
 1263400    798.91283   -3159.9095    95.212716   -3064.6968 
 1263600    731.24595   -3158.9236    87.148323   -3071.7753 
 1263800    680.88064   -3163.0692    81.145894   -3081.9233 
 1264000    814.09366   -3157.1287    97.021935   -3060.1068 
 1264200    745.23083   -3158.6654    88.815011   -3069.8504 
 1264400    719.42922   -3161.0561     85.74003    -3075.316 
 1264600    783.84189   -3159.9742    93.416594   -3066.5576 
 1264800    705.10034   -3158.5142    84.032346   -3074.4819 
 1265000    764.20002   -3162.5894    91.075718   -3071.5137 
 1265200    759.64731   -3159.8136    90.533135   -3069.2805 
 1265400    737.12857   -3161.9664    87.849401    -3074.117 
 1265600    766.99244   -3159.7329    91.408512   -3068.3244 
 1265800     751.4589   -3157.0951    89.557259   -3067.5378 
 1266000    724.42466   -3161.7109    86.335376   -3075.3755 
 1266200    756.48799   -3158.2755    90.156615   -3068.1189 
 1266400    758.74108   -3157.7773    90.425133   -3067.3521 
 1266600    709.60914   -3159.9826    84.569695   -3075.4129 
 1266800    742.99455   -3157.4255    88.548495    -3068.877 
 1267000    746.10732    -3161.937    88.919469   -3073.0175 
 1267200     733.6125   -3161.5359    87.430363   -3074.1056 
 1267400    790.28698   -3157.5469    94.184706   -3063.3622 
 1267600    726.15227    -3161.081     86.54127   -3074.5397 
 1267800    735.09615   -3161.5417    87.607182   -3073.9345 
 1268000    762.07416   -3157.6902    90.822363   -3066.8678 
 1268200    714.12913   -3156.6618    85.108377   -3071.5535 
 1268400    739.21303   -3157.2587    88.097823   -3069.1609 
 1268600    783.05048   -3161.9894    93.322275   -3068.6672 
 1268800    736.61301   -3162.5515    87.787958   -3074.7635 
 1269000    772.74774   -3160.0464    92.094417    -3067.952 
 1269200    769.67369   -3158.8786    91.728058   -3067.1506 
 1269400    684.19664   -3163.1922    81.541087   -3081.6511 
 1269600    716.14863   -3158.0761    85.349057   -3072.7271 
 1269800    771.21376   -3150.7134    91.911601   -3058.8018 
 1270000     707.9921   -3156.6596    84.376979   -3072.2826 
 1270200    760.42855   -3167.5426    90.626243   -3076.9164 
 1270400    750.68213   -3156.5141    89.464685   -3067.0494 
 1270600    725.57759   -3153.6278    86.472779    -3067.155 
 1270800    735.37462   -3159.4452    87.640369   -3071.8048 
 1271000    734.07736   -3156.2892    87.485765   -3068.8034 
 1271200    755.89983   -3162.5051    90.086519   -3072.4186 
 1271400     750.4954   -3160.7688    89.442431   -3071.3264 
 1271600    757.75455   -3155.3993    90.307561   -3065.0917 
 1271800    736.70294   -3158.5823    87.798675   -3070.7836 
 1272000    716.79366    -3161.548     85.42593    -3076.122 
 1272200    749.79398   -3157.8671    89.358838   -3068.5082 
 1272400    744.70246   -3153.7546    88.752041   -3065.0026 
 1272600    730.74886   -3161.4601    87.089081   -3074.3711 
 1272800    749.34663   -3158.8731    89.305523   -3069.5676 
 1273000    774.83585   -3158.0645    92.343274   -3065.7212 
 1273200    716.63799   -3162.4675    85.407378   -3077.0601 
 1273400    738.54158   -3160.7601    88.017801   -3072.7423 
 1273600    780.28662    -3157.334    92.992884   -3064.3412 
 1273800    759.27692   -3161.6763    90.488994   -3071.1873 
 1274000    759.66686   -3160.9542    90.535465   -3070.4187 
 1274200    757.33554    -3164.356    90.257624   -3074.0984 
 1274400    726.34314   -3160.5614    86.564017   -3073.9974 
 1274600    759.57519   -3156.6646    90.524541     -3066.14 
 1274800    748.39912   -3159.2232    89.192601   -3070.0306 
 1275000    695.92432   -3159.5503    82.938767   -3076.6116 
 1275200    787.54833   -3155.6691     93.85832   -3061.8108 
 1275400    758.97151   -3159.2431    90.452596   -3068.7905 
 1275600    725.63971   -3164.8804    86.480183   -3078.4002 
 1275800     787.9085    -3157.178    93.901244   -3063.2768 
 1276000    742.95385   -3158.6587    88.543645    -3070.115 
 1276200    725.34007   -3161.0987    86.444473   -3074.6543 
 1276400    791.39511   -3157.3778     94.31677    -3063.061 
 1276600    743.84403   -3164.0735    88.649735   -3075.4238 
 1276800    710.71371   -3159.7778    84.701335   -3075.0764 
 1277000    788.26313   -3153.6108    93.943508   -3059.6672 
 1277200    713.93814   -3161.5749    85.085615   -3076.4893 
 1277400    728.74478   -3159.5102    86.850239     -3072.66 
 1277600    806.20193   -3154.1438    96.081415   -3058.0624 
 1277800       734.53   -3160.4111    87.539708   -3072.8714 
 1278000    725.29169   -3158.1865    86.438707   -3071.7478 
 1278200    798.82571   -3153.0577    95.202334   -3057.8554 
 1278400    727.53544   -3161.9811    86.706113   -3075.2749 
 1278600    702.79141   -3155.8631    83.757172   -3072.1059 
 1278800    780.24589   -3149.2468     92.98803   -3056.2588 
 1279000    726.04404   -3157.6663    86.528371    -3071.138 
 1279200     743.5675   -3160.2203    88.616779   -3071.6035 
 1279400    776.41235   -3157.3912    92.531158     -3064.86 
 1279600    718.00801   -3160.8405    85.570654   -3075.2698 
 1279800    779.44426   -3163.0394    92.892494   -3070.1469 
 1280000    753.42804   -3160.7505    89.791936   -3070.9586 
 1280200    737.25738   -3159.1666    87.864752   -3071.3018 
 1280400    764.02762   -3157.6148    91.055172   -3066.5596 
 1280600    745.32218   -3159.8925    88.825898   -3071.0666 
 1280800    744.47876   -3164.3452     88.72538   -3075.6198 
 1281000    773.80113   -3156.7795    92.219958   -3064.5596 
 1281200    755.29261   -3158.3062    90.014152    -3068.292 
 1281400    730.18152   -3162.2841    87.021466   -3075.2626 
 1281600    777.39326   -3155.4397     92.64806   -3062.7916 
 1281800    749.17962   -3160.2005    89.285619   -3070.9149 
 1282000    721.60741   -3160.6465    85.999622   -3074.6468 
 1282200    775.62431   -3158.7651     92.43724   -3066.3279 
 1282400    746.33375    -3161.873    88.946454   -3072.9266 
 1282600    728.00793   -3158.8077    86.762423   -3072.0453 
 1282800    742.65253   -3154.7602    88.507734   -3066.2524 
 1283000    724.12982   -3157.1794    86.300238   -3070.8791 
 1283200    738.50002   -3156.8518    88.012847    -3068.839 
 1283400    755.27885    -3161.374    90.012512   -3071.3615 
 1283600    726.22345   -3158.2341    86.549752   -3071.6843 
 1283800    802.02553   -3156.5244    95.583682   -3060.9407 
 1284000    770.78913   -3165.1132    91.860995   -3073.2522 
 1284200     710.2898   -3159.6892    84.650814   -3075.0384 
 1284400    780.60678   -3155.2355    93.031041   -3062.2044 
 1284600    729.91311   -3156.5947    86.989478   -3069.6052 
 1284800    761.68389   -3165.4255    90.775851   -3074.6496 
 1285000    782.62725   -3160.8937    93.271836   -3067.6219 
 1285200    765.69524   -3162.2161    91.253916   -3070.9622 
 1285400    730.10456   -3160.9606    87.012295   -3073.9483 
 1285600    763.95864   -3159.4606    91.046951   -3068.4136 
 1285800    776.66317    -3158.172    92.561049    -3065.611 
 1286000    755.75986   -3161.8645    90.069838   -3071.7947 
 1286200    741.41023   -3160.0308     88.35968   -3071.6711 
 1286400    726.61098   -3157.9767    86.595937   -3071.3808 
 1286600    747.64946   -3157.0977    89.103258   -3067.9944 
 1286800    721.00868   -3154.5985    85.928267   -3068.6703 
 1287000    722.70828   -3161.0764    86.130822   -3074.9455 
 1287200     782.2848   -3160.0725    93.231024   -3066.8415 
 1287400     767.6064   -3157.3333    91.481683   -3065.8516 
 1287600     737.3071   -3163.4287    87.870678    -3075.558 
 1287800    725.82894   -3160.2406    86.502736   -3073.7379 
 1288000    773.10848   -3156.4151     92.13741   -3064.2777 
 1288200    756.92319   -3162.8452    90.208482   -3072.6367 
 1288400    729.49641     -3165.16    86.939816   -3078.2202 
 1288600    779.64919   -3161.5936    92.916917   -3068.6766 
 1288800    760.02974    -3158.511    90.578713   -3067.9323 
 1289000    732.00224   -3160.6875    87.238456   -3073.4491 
 1289200    756.82285   -3161.2906    90.196522   -3071.0941 
 1289400    735.03899   -3159.2695    87.600369   -3071.6691 
 1289600    743.01361   -3157.4511    88.550767   -3068.9003 
 1289800    756.72657    -3156.109    90.185048    -3065.924 
 1290000    750.21796    -3163.681    89.409366   -3074.2716 
 1290200    771.74176   -3161.6795    91.974527    -3069.705 
 1290400    761.73725   -3151.4443     90.78221   -3060.6621 
 1290600    730.30676   -3159.2426    87.036392   -3072.2062 
 1290800     723.2426   -3159.2824    86.194501   -3073.0879 
 1291000    772.96192   -3153.9019    92.119943    -3061.782 
 1291200    733.10174     -3161.28    87.369492   -3073.9105 
 1291400    727.80732   -3162.9656    86.738515    -3076.227 
 1291600    761.37372   -3156.1245    90.738886   -3065.3856 
 1291800    760.34124   -3161.0351    90.615838   -3070.4193 
 1292000    729.39855   -3164.1245    86.928154   -3077.1964 
 1292200    778.20706    -3158.305    92.745047     -3065.56 
 1292400    774.04059   -3159.1701    92.248496   -3066.9216 
 1292600    739.28723   -3163.0325    88.106665   -3074.9258 
 1292800    755.68086   -3158.7722    90.060423   -3068.7117 
 1293000    760.63866   -3160.0392    90.651283   -3069.3879 
 1293200     728.2292   -3157.9456    86.788793   -3071.1568 
 1293400    792.33364   -3158.8988    94.428622   -3064.4702 
 1293600     739.2661   -3157.8232    88.104147   -3069.7191 
 1293800     748.2019   -3157.6674    89.169096   -3068.4983 
 1294000    765.53126   -3156.4255    91.234372   -3065.1911 
 1294200    727.15183   -3162.4799    86.660394   -3075.8195 
 1294400    736.88047   -3155.9341    87.819833   -3068.1143 
 1294600    806.82931   -3161.3139    96.156186   -3065.1577 
 1294800    716.98897   -3164.3595    85.449206   -3078.9103 
 1295000    767.19041   -3160.7062    91.432107   -3069.2741 
 1295200    733.54106   -3154.8709    87.421849   -3067.4491 
 1295400    766.39888   -3161.0797    91.337774   -3069.7419 
 1295600    775.08347    -3159.543    92.372784   -3067.1702 
 1295800    735.34903   -3161.2408     87.63732   -3073.6035 
 1296000    752.81268    -3160.241    89.718599   -3070.5224 
 1296200    758.96367   -3151.6569    90.451661   -3061.2053 
 1296400    746.18958   -3157.3747    88.929272   -3068.4454 
 1296600    736.72281   -3162.4787    87.801043   -3074.6777 
 1296800     770.7497   -3161.4129    91.856295   -3069.5566 
 1297000    778.34318   -3160.8191    92.761269   -3068.0578 
 1297200    773.81109   -3160.8065    92.221145   -3068.5854 
 1297400    763.92162   -3157.4068    91.042538   -3066.3642 
 1297600    739.06387   -3160.5794    88.080046   -3072.4994 
 1297800    758.84969   -3158.3014    90.438077   -3067.8633 
 1298000    789.70503   -3157.0538     94.11535   -3062.9385 
 1298200    747.58123   -3161.6537    89.095126   -3072.5585 
 1298400    726.61215   -3159.3553    86.596076   -3072.7593 
 1298600    802.91149    -3161.387    95.689268   -3065.6978 
 1298800     735.3995   -3159.1228    87.643334   -3071.4794 
 1299000    742.64772    -3159.851    88.507161   -3071.3439 
 1299200    754.48931   -3156.5835    89.918416   -3066.6651 
 1299400    730.39354   -3157.4185    87.046734   -3070.3717 
 1299600    758.14149   -3157.2473    90.353676   -3066.8937 
 1299800    739.45366   -3155.2248      88.1265   -3067.0983 
 1300000    726.09456   -3155.8433    86.534391   -3069.3089 
 1300200    802.88968   -3159.5252    95.686669   -3063.8385 
 1300400    758.26752   -3159.5051    90.368695   -3069.1364 
 1300600    770.94954   -3161.5872    91.880111   -3069.7071 
 1300800    761.59949   -3161.9532    90.765792   -3071.1874 
 1301000    734.31341    -3159.207    87.513896   -3071.6931 
 1301200    772.63373   -3152.1066     92.08083   -3060.0258 
 1301400    745.91991   -3156.7377    88.897134   -3067.8406 
 1301600    722.40028   -3162.4111    86.094115    -3076.317 
 1301800    762.65483   -3154.0649    90.891566   -3063.1733 
 1302000    821.95038   -3158.7357    97.958282   -3060.7775 
 1302200    719.15094   -3166.3762    85.706866   -3080.6694 
 1302400    741.41294   -3160.8773    88.360003   -3072.5173 
 1302600    778.43514   -3151.9928     92.77223   -3059.2206 
 1302800     730.6861    -3153.708    87.081602   -3066.6264 
 1303000    767.49942    -3162.231    91.468934   -3070.7621 
 1303200    773.69083   -3158.8617    92.206812   -3066.6549 
 1303400    761.89786   -3158.5435    90.801351   -3067.7422 
 1303600    761.67134   -3159.0768    90.774356   -3068.3024 
 1303800    776.83625   -3158.3884    92.581677   -3065.8067 
 1304000    732.50942   -3159.3237      87.2989   -3072.0248 
 1304200    760.91706   -3157.4395    90.684462   -3066.7551 
 1304400    744.83882   -3157.7322    88.768291   -3068.9639 
 1304600    733.71496   -3161.6531    87.442574   -3074.2105 
 1304800    792.47757   -3158.4528    94.445776    -3064.007 
 1305000    753.64667   -3160.4614    89.817992   -3070.6434 
 1305200    746.36362   -3160.5971    88.950014   -3071.6471 
 1305400    801.76026   -3156.5417    95.552067   -3060.9897 
 1305600    750.29824   -3158.3657    89.418934   -3068.9467 
 1305800     720.0838   -3161.1687    85.818042   -3075.3507 
 1306000    790.63098   -3155.6057    94.225704     -3061.38 
 1306200     771.3649   -3155.5857    91.929613   -3063.6561 
 1306400    741.69343   -3163.4932    88.393431   -3075.0998 
 1306600    751.63196   -3159.6036    89.577884   -3070.0258 
 1306800    760.25899   -3155.3885    90.606034   -3064.7824 
 1307000    725.29174   -3159.3311    86.438713   -3072.8924 
 1307200    758.23138   -3156.9277    90.364388   -3066.5633 
 1307400    774.43555   -3161.9254    92.295566   -3069.6298 
 1307600    729.84835   -3164.0472     86.98176   -3077.0655 
 1307800    808.32016   -3162.5912    96.333861   -3066.2573 
 1308000     728.9099   -3155.6158    86.869918   -3068.7458 
 1308200    750.19935   -3161.0408    89.407148   -3071.6336 
 1308400    789.86408   -3159.3017    94.134305   -3065.1674 
 1308600    764.02825   -3158.5862    91.055247   -3067.5309 
 1308800    716.97547     -3160.84    85.447597   -3075.3924 
 1309000    786.32999   -3157.8857    93.713121   -3064.1726 
 1309200    774.77719   -3156.0169    92.336283   -3063.6806 
 1309400    723.64876   -3163.6858    86.242907   -3077.4429 
 1309600     755.4227   -3160.5905    90.029655   -3070.5609 
 1309800    769.35612   -3160.6319    91.690211   -3068.9417 
 1310000    743.22709   -3155.7693     88.57621    -3067.193 
 1310200    783.26926   -3157.3464    93.348349    -3063.998 
 1310400    761.46667   -3162.0246    90.749964   -3071.2746 
 1310600    746.25664   -3162.4671    88.937264   -3073.5298 
 1310800    756.86644   -3157.1121    90.201718   -3066.9104 
 1311000    700.95712    -3156.006    83.538565   -3072.4674 
 1311200    717.38641   -3159.2273    85.496572   -3073.7308 
 1311400     788.6511   -3162.0038    93.989746   -3068.0141 
 1311600    771.55109   -3156.3625    91.951803   -3064.4107 
 1311800    757.21865   -3161.5674    90.243694   -3071.3237 
 1312000    774.01907   -3162.8841    92.245932   -3070.6381 
 1312200    760.50596   -3158.2775    90.635468   -3067.6421 
 1312400    756.00287   -3157.7284      90.0988   -3067.6296 
 1312600    736.85989   -3154.1266     87.81738   -3066.3093 
 1312800    759.39497   -3156.3267    90.503063   -3065.8236 
 1313000    769.69018   -3159.4984    91.730024   -3067.7684 
 1313200    746.95832   -3157.4559    89.020889    -3068.435 
 1313400     768.2815   -3153.8062     91.56214    -3062.244 
 1313600    791.92143   -3162.7945    94.379497    -3068.415 
 1313800    724.55412    -3159.427    86.350805   -3073.0762 
 1314000    778.93024   -3152.9694    92.831234   -3060.1382 
 1314200      756.926   -3155.7749    90.208817   -3065.5661 
 1314400     745.8728   -3160.1241     88.89152   -3071.2325 
 1314600    749.09572   -3154.1814     89.27562   -3064.9058 
 1314800    774.75658   -3158.1185    92.333826   -3065.7847 
 1315000    718.35451   -3158.4084    85.611949   -3072.7965 
 1315200    770.16974   -3158.2493    91.787176   -3066.4621 
 1315400    752.41918   -3155.7145    89.671703   -3066.0428 
 1315600    744.11981   -3157.9515    88.682602   -3069.2689 
 1315800    782.80037   -3154.5974    93.292468    -3061.305 
 1316000    765.90127   -3162.7049    91.278469   -3071.4264 
 1316200    761.45188   -3161.7423    90.748201   -3070.9941 
 1316400    774.64422   -3152.2299    92.320436   -3059.9095 
 1316600    774.51262   -3160.2881    92.304752   -3067.9834 
 1316800    761.99282   -3162.5655    90.812669   -3071.7528 
 1317000    778.37908   -3159.7497    92.765548   -3066.9842 
 1317200    764.58242   -3155.7648    91.121292   -3064.6436 
 1317400    732.98871   -3156.8212    87.356022   -3069.4652 
 1317600    770.94724   -3159.0895    91.879837   -3067.2097 
 1317800    757.25075   -3156.5181    90.247519   -3066.2705 
 1318000    753.80551   -3156.6116    89.836922   -3066.7747 
 1318200    765.20073   -3156.6755    91.194981   -3065.4805 
 1318400    773.97416   -3157.9247    92.240579   -3065.6841 
 1318600     768.4915    -3162.615    91.587168   -3071.0278 
 1318800    752.32152   -3160.4025    89.660064   -3070.7424 
 1319000    793.79086   -3156.2073    94.602291    -3061.605 
 1319200    766.66561   -3156.9914    91.369562   -3065.6219 
 1319400    735.15455   -3161.2331    87.614141   -3073.6189 
 1319600    775.82842   -3157.3313    92.461566   -3064.8698 
 1319800    769.40883   -3156.1321    91.696493   -3064.4356 
 1320000    781.04928   -3158.6136    93.083776   -3065.5298 
 1320200    757.39062   -3158.5053    90.264188   -3068.2411 
 1320400    747.83833   -3157.3766    89.125767   -3068.2509 
 1320600    794.17784   -3158.9288    94.648411   -3064.2804 
 1320800     773.5298   -3157.1258    92.187622   -3064.9382 
 1321000    735.19243    -3154.294    87.618656   -3066.6753 
 1321200    740.27863   -3151.3579    88.224818    -3063.133 
 1321400     745.1344    -3152.784    88.803519   -3063.9805 
 1321600    773.57263   -3156.4761    92.192726   -3064.2833 
 1321800    751.64644   -3157.4111     89.57961   -3067.8315 
 1322000    758.70861    -3155.644    90.421264   -3065.2228 
 1322200     750.0856   -3156.2082    89.393592   -3066.8146 
 1322400    765.80983    -3158.148    91.267572   -3066.8805 
 1322600    746.65076   -3155.6461    88.984235   -3066.6619 
 1322800    766.81449   -3158.2681    91.387306   -3066.8807 
 1323000    778.54896   -3157.0931    92.785794   -3064.3073 
 1323200    727.93506   -3155.7482    86.753739   -3068.9944 
 1323400    761.55307   -3161.8714     90.76026   -3071.1111 
 1323600    763.77286   -3156.8845    91.024811   -3065.8597 
 1323800    744.49022   -3154.9138    88.726746    -3066.187 
 1324000    757.87712   -3156.4926    90.322169   -3066.1705 
 1324200    752.62408   -3155.7004    89.696123   -3066.0043 
 1324400    771.18916   -3162.1709    91.908669   -3070.2623 
 1324600    727.65439    -3157.242    86.720288   -3070.5217 
 1324800    815.10854   -3157.4116    97.142887   -3060.2687 
 1325000    739.59926   -3156.4311    88.143852   -3068.2872 
 1325200    745.03902   -3161.2026    88.792152   -3072.4104 
 1325400    784.69639   -3156.6467    93.518431   -3063.1283 
 1325600    782.49627   -3158.1744    93.256226   -3064.9182 
 1325800    765.10865   -3161.4625    91.184007   -3070.2785 
 1326000    749.91889   -3157.5463    89.373724   -3068.1725 
 1326200    783.89938   -3158.6901    93.423446   -3065.2667 
 1326400    744.37237   -3156.7049    88.712702   -3067.9922 
 1326600    742.63841   -3160.1668    88.506052   -3071.6608 
 1326800    773.47118   -3157.8295    92.180635   -3065.6488 
 1327000    767.28159   -3156.3031    91.442973   -3064.8602 
 1327200    758.01318   -3158.8326    90.338384   -3068.4942 
 1327400    762.76007   -3158.5862    90.904108   -3067.6821 
 1327600    736.91208    -3155.211      87.8236   -3067.3874 
 1327800    756.17745   -3154.0402    90.119605   -3063.9206 
 1328000    773.92177   -3155.4377    92.234335   -3063.2034 
 1328200    745.74429   -3161.6627    88.876204   -3072.7865 
 1328400    755.16413   -3157.6194     89.99884   -3067.6205 
 1328600    794.03287   -3152.4072    94.631134   -3057.7761 
 1328800    741.87155   -3159.9179    88.414659   -3071.5032 
 1329000    769.30798   -3160.1071    91.684474   -3068.4226 
 1329200    786.32595   -3156.6446    93.712639    -3062.932 
 1329400    761.97301   -3161.4818    90.810308   -3070.6715 
 1329600    781.15076   -3157.8096    93.095871   -3064.7137 
 1329800    796.59721   -3159.5437    94.936745    -3064.607 
 1330000    757.31922   -3162.4455    90.255679   -3072.1898 
 1330200    775.98977    -3159.742    92.480795   -3067.2612 
 1330400    779.41955   -3159.9287    92.889549   -3067.0392 
 1330600    759.97662   -3157.7594    90.572383    -3067.187 
 1330800    739.69212   -3155.9616    88.154919   -3067.8066 
 1331000    767.73448     -3157.19    91.496947    -3065.693 
 1331200    786.37938   -3160.1509    93.719006   -3066.4319 
 1331400    766.88501   -3160.0039    91.395709   -3068.6082 
 1331600    772.30506   -3160.9059    92.041659   -3068.8642 
 1331800    760.15691   -3155.9744    90.593869   -3065.3805 
 1332000     789.4735   -3157.1854    94.087757   -3063.0976 
 1332200    756.26973   -3156.4789    90.130603   -3066.3483 
 1332400    758.11908   -3156.3246    90.351005   -3065.9736 
 1332600     789.6871    -3156.956    94.113213   -3062.8428 
 1332800    763.87978   -3154.8454    91.037553   -3063.8079 
 1333000     758.3209    -3155.545    90.375057   -3065.1699 
 1333200    759.23215    -3156.445    90.483658   -3065.9613 
 1333400    787.14133   -3155.5363    93.809814   -3061.7265 
 1333600      756.077   -3153.1402    90.107634   -3063.0326 
 1333800    754.64082   -3155.4868    89.936473   -3065.5503 
 1334000    778.63881   -3158.4415    92.796502    -3065.645 
 1334200    787.31563   -3157.8149    93.830587   -3063.9843 
 1334400    753.20524   -3156.5911    89.765384   -3066.8257 
 1334600    756.60678   -3154.9225    90.170772   -3064.7517 
 1334800    786.78401   -3159.7415     93.76723   -3065.9743 
 1335000     765.1078   -3157.2619    91.183905    -3066.078 
 1335200    795.53249   -3158.2234    94.809854   -3063.4135 
 1335400    769.31832   -3156.8239    91.685706   -3065.1382 
 1335600    768.96129   -3155.4654    91.643156   -3063.8223 
 1335800    751.94794   -3155.2384    89.615542   -3065.6229 
 1336000    735.62951   -3152.6933    87.670746   -3065.0225 
 1336200    787.98175   -3155.5517    93.909973   -3061.6417 
 1336400    747.74667   -3154.8621    89.114844   -3065.7472 
 1336600    746.79688   -3157.9327    89.001649   -3068.9311 
 1336800    800.55152   -3160.3062    95.408012   -3064.8982 
 1337000    746.37923   -3155.5854    88.951875   -3066.6335 
 1337200    766.33261   -3155.2393    91.329876   -3063.9094 
 1337400    792.58855   -3154.9147    94.459003   -3060.4557 
 1337600    723.79851   -3158.4565    86.260753   -3072.1957 
 1337800    795.95569   -3158.9982    94.860291   -3064.1379 
 1338000    762.50956   -3155.0592    90.874253    -3064.185 
 1338200    769.23446   -3158.4304    91.675712   -3066.7547 
 1338400    761.02708   -3158.3875    90.697574     -3067.69 
 1338600    765.41494   -3153.9659     91.22051   -3062.7454 
 1338800    784.95497   -3157.7434    93.549248   -3064.1941 
 1339000    753.03418    -3160.795    89.744997     -3071.05 
 1339200    778.19136   -3158.2785    92.743175   -3065.5353 
 1339400    762.51568   -3151.7323    90.874982   -3060.8574 
 1339600    780.63019   -3159.1732     93.03383   -3066.1393 
 1339800    707.65454   -3159.2493     84.33675   -3074.9125 
 1340000    794.21495   -3155.1446    94.652833   -3060.4918 
 1340200     782.8911   -3152.0763     93.30328    -3058.773 
 1340400    779.07967   -3162.7258    92.849043   -3069.8768 
 1340600    778.42294   -3158.9355    92.770775   -3066.1648 
 1340800    776.47478   -3155.9251    92.538598   -3063.3866 
 1341000    760.28637   -3157.7978    90.609297   -3067.1885 
 1341200    781.18164    -3158.861    93.099551   -3065.7615 
 1341400    771.08679   -3160.9619    91.896469   -3069.0654 
 1341600    735.95951   -3153.6199    87.710075   -3065.9099 
 1341800    828.36855   -3150.6745    98.723186   -3051.9513 
 1342000    742.91337   -3156.0648     88.53882    -3067.526 
 1342200    748.62041   -3161.3602    89.218974   -3072.1412 
 1342400    816.53771   -3154.6852    97.313212    -3057.372 
 1342600    785.24866   -3155.8767     93.58425   -3062.2925 
 1342800    764.62652   -3157.2406    91.126548   -3066.1141 
 1343000     780.2922   -3155.4935    92.993549   -3062.4999 
 1343200    779.37511   -3155.2923    92.884253    -3062.408 
 1343400    789.62561   -3153.1435    94.105885   -3059.0376 
 1343600    747.40965   -3156.7269    89.074678   -3067.6523 
 1343800    753.98685   -3155.1322    89.858534   -3065.2737 
 1344000    799.27316   -3152.7057    95.255659   -3057.4501 
 1344200    762.72329   -3154.9402    90.899724   -3064.0405 
 1344400    775.75615   -3163.8879    92.452953   -3071.4349 
 1344600    783.05394   -3156.2131    93.322688   -3062.8904 
 1344800    803.79483   -3154.1708    95.794543   -3058.3763 
 1345000    749.20647   -3157.4773    89.288819   -3068.1885 
 1345200    750.43497   -3154.7457     89.43523   -3065.3104 
 1345400    801.72167   -3157.3718    95.547468   -3061.8244 
 1345600    790.23191   -3156.7414    94.178142   -3062.5633 
 1345800    778.86174    -3156.277     92.82307    -3063.454 
 1346000    737.88169   -3160.7658    87.939156   -3072.8266 
 1346200    776.93757   -3153.9508    92.593752    -3061.357 
 1346400    788.37052   -3152.9213    93.956307    -3058.965 
 1346600     752.4232   -3159.0936    89.672181   -3069.4214 
 1346800    757.80961   -3155.1571    90.314122   -3064.8429 
 1347000    805.99312   -3154.3567     96.05653   -3058.3001 
 1347200    782.10409   -3155.7911    93.209487   -3062.5816 
 1347400    766.34509   -3158.3211    91.331363   -3066.9897 
 1347600    764.71744    -3157.937    91.137384   -3066.7996 
 1347800    808.84849   -3156.6607    96.396826   -3060.2639 
 1348000    772.56519   -3153.5914    92.072661   -3061.5188 
 1348200    765.31592   -3159.4202    91.208709   -3068.2115 
 1348400     749.9439   -3153.9837    89.376704    -3064.607 
 1348600    805.81832   -3152.3787    96.035698    -3056.343 
 1348800    722.40067   -3151.3701    86.094161   -3065.2759 
 1349000    782.10578    -3159.587    93.209688   -3066.3773 
 1349200    804.84584     -3156.81      95.9198   -3060.8902 
 1349400     771.6727   -3154.6711    91.966296   -3062.7048 
 1349600    744.57931   -3158.2927    88.737364   -3069.5554 
 1349800    762.27654   -3153.1183    90.846483   -3062.2718 
 1350000    787.18233   -3151.7148    93.814701   -3057.9001 
 1350200    755.85566   -3161.3771    90.081255   -3071.2958 
 1350400    770.13492   -3158.9945    91.783027   -3067.2114 
 1350600    798.92955   -3155.3631    95.214709   -3060.1484 
 1350800    742.72747   -3160.8606    88.516666   -3072.3439 
 1351000     807.4448   -3158.2843    96.229538   -3062.0548 
 1351200     794.7231   -3156.5851    94.713393   -3061.8717 
 1351400    750.91296   -3162.7909    89.492195   -3073.2987 
 1351600    827.16099   -3160.4082    98.579271    -3061.829 
 1351800     785.6838   -3158.1657    93.636109   -3064.5296 
 1352000    790.16711   -3163.4347     94.17042   -3069.2643 
 1352200    784.82583    -3156.494    93.533858   -3062.9602 
 1352400    771.95973   -3154.8028    92.000504   -3062.8023 
 1352600    758.83553   -3151.3944     90.43639    -3060.958 
 1352800    767.23293   -3153.4306    91.437173   -3061.9934 
 1353000    776.59612   -3160.7609    92.553059   -3068.2078 
 1353200    766.44709   -3155.3112    91.343519   -3063.9677 
 1353400    797.74002   -3153.7592    95.072944   -3058.6862 
 1353600    789.67564   -3160.6957    94.111848   -3066.5838 
 1353800    768.84616   -3157.1145    91.629435    -3065.485 
 1354000    768.56316   -3154.2768    91.595708   -3062.6811 
 1354200    750.80357    -3154.972    89.479158   -3065.4929 
 1354400    776.18149   -3152.3084    92.503643   -3059.8047 
 1354600    774.50747   -3154.5656    92.304138   -3062.2615 
 1354800    760.83431    -3159.555      90.6746   -3068.8804 
 1355000    775.19925   -3155.2928    92.386583   -3062.9062 
 1355200    796.32515   -3154.3541    94.904323   -3059.4498 
 1355400     792.9669    -3159.475    94.504093   -3064.9709 
 1355600     734.4315    -3152.972    87.527969    -3065.444 
 1355800    767.60347   -3152.7822    91.481334   -3061.3009 
 1356000    751.01811   -3154.2628    89.504727   -3064.7581 
 1356200    754.22811   -3156.2289    89.887287   -3066.3416 
 1356400    776.40435   -3154.4903    92.530204   -3061.9601 
 1356600    791.45765   -3155.9468    94.324224   -3061.6226 
 1356800    762.92476   -3156.5089    90.923735   -3065.5851 
 1357000    773.81385   -3160.5027    92.221473   -3068.2812 
 1357200    806.36892   -3154.0356    96.101317   -3057.9343 
 1357400    788.74711   -3151.2314    94.001188   -3057.2302 
 1357600    765.74106   -3159.6928    91.259376   -3068.4334 
 1357800    792.74129   -3157.6128    94.477206   -3063.1356 
 1358000    788.05244   -3154.0686    93.918398   -3060.1502 
 1358200    752.95834   -3157.0967    89.735959   -3067.3608 
 1358400    763.68442   -3153.7493     91.01427   -3062.7351 
 1358600    773.19051   -3154.0024    92.147185   -3061.8552 
 1358800    735.20982   -3152.2384    87.620728   -3064.6177 
 1359000    788.72127   -3156.8935    93.998108   -3062.8954 
 1359200    763.95561   -3157.1998     91.04659   -3066.1532 
 1359400    781.67425   -3154.3408    93.158259   -3061.1825 
 1359600    810.75015   -3151.8463    96.623463   -3055.2229 
 1359800    746.23561   -3157.1223    88.934758   -3068.1875 
 1360000    801.64558   -3161.0118      95.5384   -3065.4734 
 1360200     782.5867   -3151.7928    93.267003   -3058.5257 
 1360400    747.04832   -3150.2688    89.031616   -3061.2371 
 1360600    793.86983   -3159.0147    94.611702    -3064.403 
 1360800    781.12322   -3159.7246    93.092589    -3066.632 
 1361000    803.58247   -3157.2518    95.769234   -3061.4826 
 1361200    764.50231    -3156.398    91.111744   -3065.2862 
 1361400    747.57236   -3158.1432    89.094069   -3069.0491 
 1361600    779.81769   -3157.0588    92.936999   -3064.1218 
 1361800     816.3417    -3156.175    97.289852   -3058.8851 
 1362000    721.55312   -3157.7396    85.993152   -3071.7465 
 1362200    795.95166   -3157.8399     94.85981   -3062.9801 
 1362400    805.73272   -3152.4309    96.025496   -3056.4054 
 1362600    771.06811   -3154.2039    91.894243   -3062.3096 
 1362800    769.45166   -3154.8581    91.701597   -3063.1565 
 1363000     796.0865   -3154.4453     94.87588   -3059.5694 
 1363200    779.00985   -3156.0147    92.840721    -3063.174 
 1363400    745.25705   -3157.3404    88.818135   -3068.5222 
 1363600    780.39501   -3156.6475    93.005803   -3063.6417 
 1363800    775.51064   -3156.5613    92.423693   -3064.1376 
 1364000    797.36245    -3160.231    95.027945    -3065.203 
 1364200    781.56579   -3159.4204    93.145333   -3066.2751 
 1364400    747.51693   -3155.4255    89.087463    -3066.338 
 1364600    787.02885   -3152.0557    93.796409   -3058.2593 
 1364800    748.40187   -3153.2647    89.192929   -3064.0718 
 1365000    784.30378   -3160.6979    93.471641   -3067.2263 
 1365200    801.12022   -3153.1555    95.475788   -3057.6797 
 1365400    781.29263   -3154.2631    93.112779   -3061.1503 
 1365600    795.86492   -3159.1978    94.849473   -3064.3483 
 1365800    781.26371   -3153.6115    93.109332   -3060.5022 
 1366000    780.99448   -3156.6433    93.077246   -3063.5661 
 1366200    785.93077   -3156.2092    93.665543   -3062.5437 
 1366400    792.71778   -3153.2028    94.474403   -3058.7284 
 1366600    777.23332   -3156.8411    92.628998   -3064.2121 
 1366800    803.73509   -3159.1392    95.787423   -3063.3517 
 1367000    788.45555   -3159.6704     93.96644   -3065.7039 
 1367200    750.29342   -3157.0273     89.41836   -3067.6089 
 1367400    809.09589   -3155.4238    96.426312   -3058.9975 
 1367600    789.17282   -3156.3864    94.051923   -3062.3345 
 1367800    772.40822   -3154.5823    92.053954   -3062.5283 
 1368000    789.60196   -3149.8953    94.103066   -3055.7923 
 1368200    778.32707   -3160.8789     92.75935   -3068.1196 
 1368400    775.63442   -3159.7997    92.438446   -3067.3613 
 1368600    849.10662    -3155.426     101.1947   -3054.2313 
 1368800    756.26154   -3158.6198    90.129627   -3068.4902 
 1369000     776.2705    -3158.831    92.514252   -3066.3168 
 1369200    792.90948   -3153.2858     94.49725   -3058.7886 
 1369400    776.42878   -3154.9073    92.533116   -3062.3742 
 1369600    780.33601   -3154.6394    92.998771   -3061.6406 
 1369800    800.72391   -3160.3655    95.428557    -3064.937 
 1370000    762.77214    -3156.413    90.905547   -3065.5074 
 1370200    778.38538   -3152.2515    92.766298   -3059.4853 
 1370400    795.19784   -3156.8425    94.769972   -3062.0726 
 1370600    779.36675   -3154.3439    92.883256   -3061.4607 
 1370800    789.22784   -3155.5839     94.05848   -3061.5254 
 1371000    782.98681     -3160.44    93.314688   -3067.1253 
 1371200    797.60289   -3158.4808    95.056601   -3063.4242 
 1371400    780.03534   -3154.5752    92.962938   -3061.6123 
 1371600    783.45179    -3157.671    93.370103   -3064.3009 
 1371800    773.22276     -3155.78    92.151028    -3063.629 
 1372000    790.47606    -3156.736     94.20724   -3062.5288 
 1372200    773.73796   -3155.0343     92.21243   -3062.8218 
 1372400    796.88977   -3153.7277    94.971612   -3058.7561 
 1372600    778.58373   -3158.0778    92.789938   -3065.2879 
 1372800    801.92116   -3159.6665    95.571243   -3064.0952 
 1373000    757.41492   -3154.9731    90.267084   -3064.7061 
 1373200    812.21784   -3157.5774    96.798379   -3060.7791 
 1373400    787.57041    -3155.304    93.860951   -3061.4431 
 1373600     741.3364    -3158.464    88.350881   -3070.1131 
 1373800    794.70307   -3158.3505    94.711007   -3063.6395 
 1374000    816.65844    -3157.201      97.3276   -3059.8734 
 1374200    795.00224   -3161.0669     94.74666   -3066.3203 
 1374400      788.609   -3158.4229    93.984728   -3064.4382 
 1374600    793.82513   -3157.7056    94.606376   -3063.0993 
 1374800    778.60218   -3154.4052    92.792136    -3061.613 
 1375000    786.43189   -3155.5982    93.725264    -3061.873 
 1375200    778.79538   -3155.2716    92.815162   -3062.4565 
 1375400    802.51452   -3161.3718    95.641958   -3065.7298 
 1375600    784.12986   -3157.8648    93.450914   -3064.4139 
 1375800    792.00886   -3150.4014    94.389916   -3056.0115 
 1376000    786.25132   -3154.4775    93.703744   -3060.7738 
 1376200    752.34274   -3158.8585    89.662593   -3069.1959 
 1376400    784.41986   -3156.1105    93.485475   -3062.6251 
 1376600    795.00773   -3157.1235    94.747315   -3062.3762 
 1376800     766.9239   -3159.6029    91.400345   -3068.2026 
 1377000    812.07364   -3160.4287    96.781194   -3063.6475 
 1377200    758.57371   -3162.7397    90.405186   -3072.3345 
 1377400    807.12457   -3157.9663    96.191374   -3061.7749 
 1377600    812.79123   -3154.0308    96.866714   -3057.1641 
 1377800    727.11637   -3157.3908    86.656168   -3070.7346 
 1378000    783.42393   -3155.4658    93.366783    -3062.099 
 1378200     797.5377   -3155.8707    95.048831   -3060.8219 
 1378400    756.18194   -3160.0209     90.12014   -3069.9007 
 1378600    822.56023   -3160.8772    98.030963   -3062.8462 
 1378800    792.93902   -3156.3399    94.500771   -3061.8391 
 1379000    786.29206   -3161.0283      93.7086   -3067.3197 
 1379200     821.4173   -3155.8123     97.89475   -3057.9176 
 1379400    809.91503   -3155.5288    96.523935   -3059.0049 
 1379600    755.84464   -3160.1984    90.079942   -3070.1185 
 1379800    813.63334   -3156.9618    96.967076   -3059.9948 
 1380000    784.82941   -3153.1579    93.534285   -3059.6236 
 1380200    786.43588   -3157.5763     93.72574   -3063.8505 
 1380400    796.99024   -3156.9331    94.983587   -3061.9495 
 1380600    756.68865   -3156.0581    90.180529   -3065.8776 
 1380800    787.75924   -3156.1333    93.883456   -3062.2498 
 1381000    768.50536   -3154.1996    91.588819   -3062.6108 
 1381200    776.76271   -3159.8584    92.572913   -3067.2855 
 1381400    800.49974     -3157.08    95.401841   -3061.6782 
 1381600    776.92094   -3151.8949     92.59177   -3059.3031 
 1381800    776.16819   -3156.7293    92.502059   -3064.2273 
 1382000    793.47749   -3159.7783    94.564944   -3065.2133 
 1382200    797.04835    -3152.756    94.990512   -3057.7655 
 1382400    794.44004   -3155.4709    94.679659   -3060.7912 
 1382600    806.01424   -3160.4649    96.059048   -3064.4058 
 1382800    814.18683   -3158.3033    97.033039   -3061.2702 
 1383000    777.39259   -3154.0491     92.64798   -3061.4012 
 1383200    782.24597   -3154.2774    93.226396    -3061.051 
 1383400    777.58419   -3156.8503    92.670815   -3064.1795 
 1383600    749.89861   -3161.3734    89.371307   -3072.0021 
 1383800    796.19802   -3154.4157    94.889171   -3059.5265 
 1384000    777.88884   -3153.7295    92.707122   -3061.0224 
 1384200    762.12763   -3161.4189    90.828735   -3070.5902 
 1384400    772.43625   -3152.3633    92.057294    -3060.306 
 1384600    801.65032   -3151.2901    95.538965   -3055.7512 
 1384800    765.66419   -3156.4973    91.250215   -3065.2471 
 1385000    782.76683   -3157.0824     93.28847   -3063.7939 
 1385200    846.99179    -3160.163    100.94266   -3059.2203 
 1385400    783.87328   -3159.0686    93.420336   -3065.6483 
 1385600    828.80662   -3159.5633    98.775394   -3060.7879 
 1385800    775.17236   -3155.5659    92.383378   -3063.1825 
 1386000    773.64446   -3161.4738    92.201286   -3069.2725 
 1386200    784.47436   -3155.5354    93.491971   -3062.0434 
 1386400     791.5233   -3151.9799    94.332048   -3057.6478 
 1386600    769.85238   -3161.8148    91.749354   -3070.0655 
 1386800    796.06736   -3158.8816    94.873599    -3064.008 
 1387000    796.06441   -3151.1604    94.873248   -3056.2872 
 1387200    764.74076   -3154.0671    91.140163   -3062.9269 
 1387400     779.7779   -3158.5202    92.932257   -3065.5879 
 1387600    776.57014   -3155.3901    92.549963   -3062.8401 
 1387800    770.37529   -3154.4834    91.811674   -3062.6717 
 1388000    802.18381   -3155.9479    95.602544   -3060.3453 
 1388200    783.00815   -3153.9725     93.31723   -3060.6552 
 1388400    774.10891   -3157.1956    92.256639   -3064.9389 
 1388600     766.1598   -3156.5421     91.30928   -3065.2329 
 1388800    825.53413   -3156.3996    98.385385   -3058.0142 
 1389000    784.41413   -3156.0955    93.484793   -3062.6107 
 1389200    749.18017   -3156.7746    89.285684    -3067.489 
 1389400    771.85358   -3154.2539    91.987854   -3062.2661 
 1389600    794.22807   -3155.2992    94.654397   -3060.6448 
 1389800    802.87444   -3156.7597    95.684853   -3061.0749 
 1390000    781.05944   -3157.0183    93.084987   -3063.9334 
 1390200    769.42455   -3154.3934    91.698367   -3062.6951 
 1390400    796.78606   -3152.5947    94.959253   -3057.6354 
 1390600    803.08317   -3159.0482    95.709729   -3063.3384 
 1390800    754.38301   -3154.5125    89.905748   -3064.6067 
 1391000    806.08224   -3154.6263    96.067152   -3058.5592 
 1391200    780.02366   -3153.3253    92.961545   -3060.3637 
 1391400    813.76479   -3155.7176    96.982742   -3058.7349 
 1391600    818.17896   -3157.1561    97.508812   -3059.6473 
 1391800    785.49632    -3160.039    93.613766   -3066.4252 
 1392000    782.09022   -3157.7631    93.207834   -3064.5553 
 1392200    812.53841   -3158.6371    96.836584   -3061.8005 
 1392400    784.70183   -3153.8925     93.51908   -3060.3734 
 1392600    782.45932    -3161.783    93.251823   -3068.5312 
 1392800    771.24477   -3154.7027    91.915297   -3062.7874 
 1393000    782.79219   -3152.5423    93.291493   -3059.2508 
 1393200    793.78317   -3151.8999    94.601375   -3057.2985 
 1393400    837.05092   -3158.4935    99.757932   -3058.7355 
 1393600     773.7621   -3157.9391    92.215306   -3065.7238 
 1393800    822.63809   -3156.1251    98.040242   -3058.0849 
 1394000    798.41779   -3149.6207    95.153718   -3054.4669 
 1394200    775.09285   -3158.8471    92.373902   -3066.4732 
 1394400    786.89637   -3159.9683    93.780621   -3066.1876 
 1394600    790.54355     -3152.02    94.215284   -3057.8047 
 1394800    812.48954   -3147.8499    96.830759   -3051.0191 
 1395000    758.32656   -3153.9683    90.375732   -3063.5926 
 1395200    781.97193   -3163.1793    93.193737   -3069.9856 
 1395400    797.52004   -3149.9104    95.046726   -3054.8637 
 1395600    784.90244   -3150.2277    93.542988   -3056.6847 
 1395800    744.08546   -3161.2402    88.678508   -3072.5617 
 1396000    820.17538   -3164.7824    97.746741   -3067.0357 
 1396200    819.84202    -3156.848    97.707013    -3059.141 
 1396400    792.32735   -3156.7748    94.427873    -3062.347 
 1396600    806.34145   -3160.1685    96.098043   -3064.0705 
 1396800    764.38594   -3155.6183    91.097876   -3064.5204 
 1397000    809.61438   -3157.0485    96.488105   -3060.5604 
 1397200    789.26015   -3154.2638     94.06233   -3060.2015 
 1397400    779.92464   -3162.7451    92.949745   -3069.7954 
 1397600    814.15134   -3157.8384    97.028809   -3060.8096 
 1397800    811.55695   -3147.7276    96.719616   -3051.0079 
 1398000     771.4635   -3160.3674    91.941364    -3068.426 
 1398200    769.51155   -3160.1439    91.708735   -3068.4352 
 1398400    815.51788   -3151.7938    97.191671   -3054.6021 
 1398600    773.36768   -3154.7723    92.168301    -3062.604 
 1398800     759.2386   -3156.1477    90.484427   -3065.6633 
 1399000    783.66962   -3159.1699    93.396064   -3065.7739 
 1399200    808.78403   -3155.8391    96.389145   -3059.4499 
 1399400    804.33082   -3158.3278    95.858421   -3062.4694 
 1399600    765.34748   -3158.0256    91.212469   -3066.8131 
 1399800     807.4787   -3154.2609    96.233579   -3058.0273 
 1400000    789.25366   -3155.7302    94.061557   -3061.6686 
 1400200    768.50644   -3160.5955    91.588948   -3069.0065 
 1400400    784.17652    -3151.197    93.456475   -3057.7405 
 1400600    801.08119   -3150.1632    95.471137   -3054.6921 
 1400800    799.66169   -3159.8597    95.301964   -3064.5577 
 1401000    805.85707   -3157.1617    96.040316   -3061.1214 
 1401200    797.66645   -3151.8691    95.064176    -3056.805 
 1401400    803.37856   -3157.8635    95.744932   -3062.1185 
 1401600    787.89412    -3158.818     93.89953   -3064.9184 
 1401800    799.58859   -3157.6279    95.293252   -3062.3347 
 1402000      806.012   -3157.0839    96.058781   -3061.0251 
 1402200    803.74816   -3158.3045    95.788981   -3062.5155 
 1402400    796.26078   -3162.0486    94.896651    -3067.152 
 1402600    773.83599   -3154.0673    92.224112   -3061.8432 
 1402800    845.91644   -3156.2186    100.81451   -3055.4041 
 1403000    771.24626   -3155.0491    91.915474   -3063.1336 
 1403200    823.74708   -3161.6915    98.172409   -3063.5191 
 1403400    789.22214   -3154.7664      94.0578   -3060.7086 
 1403600    784.96562   -3152.0378    93.550518   -3058.4873 
 1403800    765.13136   -3151.0746    91.186713   -3059.8879 
 1404000    807.72101   -3158.8266    96.262456   -3062.5641 
 1404200    780.04438   -3158.0144    92.964015   -3065.0504 
 1404400    785.42921   -3152.4521    93.605768   -3058.8463 
 1404600    829.04327   -3157.4478    98.803598   -3058.6442 
 1404800    760.64361   -3156.6126    90.651873   -3065.9607 
 1405000    838.76987   -3156.6015    99.962793   -3056.6387 
 1405200    791.17305   -3152.5226    94.290306   -3058.2323 
 1405400    787.82761   -3153.9892    93.891604   -3060.0976 
 1405600    813.77689   -3157.1093    96.984184   -3060.1251 
 1405800    760.70381   -3157.1761    90.659047   -3066.5171 
 1406000    799.99513    -3152.553    95.341703   -3057.2113 
 1406200    789.76008    -3150.701    94.121912   -3056.5791 
 1406400    793.92199   -3155.7544    94.617918   -3061.1365 
 1406600    778.20954   -3154.0317    92.745343   -3061.2864 
 1406800    820.98199   -3153.5191    97.842872   -3055.6762 
 1407000    798.36114   -3151.1658    95.146967   -3056.0188 
 1407200     754.5371   -3154.8461    89.924113    -3064.922 
 1407400    765.24176   -3155.7724    91.199871   -3064.5725 
 1407600    813.51404   -3152.0641    96.952857   -3055.1112 
 1407800    776.43697   -3153.8871    92.534091    -3061.353 
 1408000    776.41615   -3155.7766    92.531611    -3063.245 
 1408200     847.6564   -3157.0251    101.02187   -3056.0032 
 1408400    775.19535   -3154.4128    92.386118   -3062.0267 
 1408600     779.3135   -3155.6228    92.876911   -3062.7459 
 1408800    814.78293     -3156.51    97.104081    -3059.406 
 1409000    775.70927   -3151.9008    92.447366   -3059.4535 
 1409200    790.69694   -3154.1646    94.233564    -3059.931 
 1409400    791.47371   -3158.2574    94.326137   -3063.9313 
 1409600    811.43933   -3153.8434    96.705597   -3057.1378 
 1409800    811.68689   -3154.7113    96.735101   -3057.9762 
 1410000    761.35905   -3159.2681    90.737138   -3068.5309 
 1410200     821.3398   -3156.2425    97.885514    -3058.357 
 1410400    806.50206   -3153.9365    96.117185   -3057.8193 
 1410600    788.76974   -3160.7605    94.003885   -3066.7566 
 1410800    797.65062   -3155.3908    95.062288   -3060.3285 
 1411000    799.51329   -3156.6237    95.284278   -3061.3394 
 1411200     780.1753   -3154.6213    92.979618   -3061.6417 
 1411400     817.3706   -3154.8799    97.412474   -3057.4674 
 1411600    795.71697   -3154.5994    94.831841   -3059.7675 
 1411800    799.50477   -3153.2777    95.283263   -3057.9945 
 1412000    766.17667   -3151.2794    91.311292   -3059.9681 
 1412200    766.07827   -3153.6626    91.299565    -3062.363 
 1412400    779.10391   -3153.6745    92.851931   -3060.8226 
 1412600     816.5834   -3157.4647    97.318657   -3060.1461 
 1412800    758.34908   -3155.0369    90.378416   -3064.6585 
 1413000     796.0871   -3155.3367    94.875952   -3060.4608 
 1413200     801.7844   -3156.0897    95.554944   -3060.5348 
 1413400    799.14584   -3154.7416    95.240486   -3059.5011 
 1413600    818.91494   -3157.6758    97.596525   -3060.0793 
 1413800    770.47573   -3153.4626    91.823644   -3061.6389 
 1414000    843.70335   -3156.0656    100.55075   -3055.5148 
 1414200    809.75541   -3155.4447    96.504912   -3058.9398 
 1414400    772.20779   -3155.8747    92.030067   -3063.8446 
 1414600    809.29848   -3152.5944    96.450456   -3056.1439 
 1414800     796.0311   -3151.3892    94.869278   -3056.5199 
 1415000    793.55667   -3153.5086    94.574381   -3058.9342 
 1415200    807.34268   -3154.6142    96.217367   -3058.3968 
 1415400    762.64274   -3153.2594    90.890125   -3062.3692 
 1415600    826.03863   -3154.1468    98.445511   -3055.7013 
 1415800    833.83029    -3155.497    99.374104   -3056.1229 
 1416000    756.89716    -3157.754    90.205379   -3067.5486 
 1416200    825.06793   -3156.3129    98.329825    -3057.983 
 1416400    812.60341   -3149.3149     96.84433   -3052.4706 
 1416600    783.79037   -3153.3874    93.410454    -3059.977 
 1416800    809.79484   -3156.6729    96.509611   -3060.1632 
 1417000    798.92428   -3154.9605    95.214081   -3059.7465 
 1417200    803.48634   -3153.9166    95.757777   -3058.1588 
 1417400    794.85828   -3157.8235    94.729504    -3063.094 
 1417600    782.56933   -3158.2564    93.264933   -3064.9915 
 1417800    805.01656   -3151.5965    95.940146   -3055.6564 
 1418000    813.71102   -3154.6094    96.976332   -3057.6331 
 1418200    778.41078   -3153.8144    92.769326   -3061.0451 
 1418400    801.16465   -3155.4986    95.481083   -3060.0175 
 1418600      773.294   -3151.6147    92.159519   -3059.4552 
 1418800    778.23484   -3151.7787    92.748358   -3059.0303 
 1419000    818.49986   -3155.0678    97.547056   -3057.5208 
 1419200    770.98393   -3153.4698     91.88421   -3061.5855 
 1419400    778.99958   -3152.1905    92.839498    -3059.351 
 1419600    828.43101   -3155.1136     98.73063    -3056.383 
 1419800    792.05329   -3156.6029    94.395211   -3062.2077 
 1420000    782.80718   -3155.6346     93.29328   -3062.3413 
 1420200    792.32589   -3151.1533    94.427699   -3056.7256 
 1420400     788.8046   -3153.8755    94.008039   -3059.8674 
 1420600    785.61709   -3154.8079    93.628159   -3061.1797 
 1420800    803.82935   -3151.0388    95.798656   -3055.2402 
 1421000    790.12139   -3156.0447    94.164971   -3061.8797 
 1421200    799.75329   -3155.1937    95.312881   -3059.8808 
 1421400    838.98503   -3153.8112    99.988435   -3053.8227 
 1421600    804.38616   -3158.8474    95.865016   -3062.9824 
 1421800    786.89049   -3153.9048     93.77992   -3060.1248 
 1422000    834.97392    -3151.952    99.510399   -3052.4416 
 1422200    785.59707   -3156.7701    93.625773   -3063.1444 
 1422400       810.22   -3159.7259     96.56028   -3063.1656 
 1422600    828.13816   -3151.1857    98.695729   -3052.4899 
 1422800    776.03122   -3153.1353    92.485735   -3060.6496 
 1423000    777.52037   -3154.3534    92.663209   -3061.6902 
 1423200    800.51511   -3151.3196    95.403672    -3055.916 
 1423400    776.53366   -3152.0391    92.545615   -3059.4935 
 1423600    815.33845   -3152.7544    97.170286   -3055.5841 
 1423800    793.65313   -3146.4231    94.585876   -3051.8373 
 1424000    756.71234   -3150.7489    90.183353   -3060.5655 
 1424200    815.17751    -3155.036    97.151106   -3057.8849 
 1424400    805.22292   -3151.7194     95.96474   -3055.7547 
 1424600    771.01723   -3152.0867    91.888178   -3060.1985 
 1424800    786.76705   -3150.5111    93.765209   -3056.7458 
 1425000    793.78988   -3152.6012    94.602174    -3057.999 
 1425200    825.45238   -3157.2416    98.375644    -3058.866 
 1425400    785.89923   -3155.2914    93.661783   -3061.6296 
 1425600    798.62024   -3149.7816    95.177847   -3054.6038 
 1425800    815.40399   -3153.6812    97.178097   -3056.5031 
 1426000    761.75213   -3157.9439    90.783984   -3067.1599 
 1426200    815.95886    -3156.407    97.244226   -3059.1628 
 1426400    813.21353   -3154.7674    96.917043   -3057.8503 
 1426600    763.73268   -3155.8268    91.020021   -3064.8068 
 1426800     818.3911   -3155.3479    97.534095   -3057.8138 
 1427000    781.18411   -3153.4759    93.099846    -3060.376 
 1427200    771.12487   -3155.2419    91.901006   -3063.3409 
 1427400    830.80263   -3155.5736    99.013274   -3056.5603 
 1427600    777.60003   -3158.0567    92.672702    -3065.384 
 1427800    810.00908   -3158.2027    96.535143   -3061.6676 
 1428000    840.88882   -3151.4868    100.21532   -3051.2715 
 1428200    779.90735   -3159.2256    92.947683   -3066.2779 
 1428400    799.61896   -3155.8771    95.296871   -3060.5802 
 1428600     836.2823   -3149.0652     99.66633   -3049.3989 
 1428800    790.28536   -3155.6479    94.184513   -3061.4634 
 1429000    781.61976   -3158.2851    93.151766   -3065.1334 
 1429200    807.22659   -3150.8157    96.203533   -3054.6122 
 1429400     798.8666   -3150.9564    95.207206   -3055.7492 
 1429600    815.59355   -3156.3201    97.200689   -3059.1194 
 1429800    797.14871   -3151.9833    95.002472   -3056.9808 
 1430000    769.15897   -3149.3832    91.666716   -3057.7165 
 1430200     795.4569   -3151.6839    94.800846   -3056.8831 
 1430400     805.0911   -3154.9211     95.94903   -3058.9721 
 1430600    814.78283   -3155.8184    97.104069   -3058.7144 
 1430800    791.34388   -3150.3931    94.310665   -3056.0825 
 1431000    831.59492    -3153.445    99.107698   -3054.3373 
 1431200    791.62174   -3154.2101     94.34378   -3059.8664 
 1431400    780.75488   -3150.1916    93.048691   -3057.1429 
 1431600    828.13972   -3157.0422    98.695915   -3058.3462 
 1431800    774.44619   -3152.7801    92.296834   -3060.4833 
 1432000    811.44948   -3150.0984    96.706807   -3053.3916 
 1432200    802.16949   -3151.2673    95.600838   -3055.6664 
 1432400    781.92958   -3154.6304    93.188689   -3061.4417 
 1432600    827.66641   -3153.5646    98.639506   -3054.9251 
 1432800    797.86399   -3150.3381    95.087718   -3055.2504 
 1433000    810.12998   -3153.4482    96.549552   -3056.8986 
 1433200    825.28969   -3147.8134    98.356254   -3049.4572 
 1433400    777.37441   -3147.6355    92.645814   -3054.9897 
 1433600    796.29907   -3153.8439    94.901214   -3058.9427 
 1433800    827.76696   -3148.5403     98.65149   -3049.8888 
 1434000    807.72101   -3152.5687    96.262457   -3056.3062 
 1434200    776.86661   -3154.7481    92.585295   -3062.1628 
 1434400    827.92433   -3150.7937    98.670245   -3052.1235 
 1434600    791.34272   -3150.5865    94.310527    -3056.276 
 1434800    791.03941   -3153.2059    94.274379   -3058.9315 
 1435000    844.21144   -3148.7842    100.61131   -3048.1729 
 1435200    785.66751   -3151.7756    93.634167   -3058.1414 
 1435400    787.17517   -3153.6703    93.813847   -3059.8565 
 1435600    824.61882   -3149.1536    98.276301   -3050.8773 
 1435800    805.66739   -3151.1156     96.01771   -3055.0979 
 1436000    793.70647   -3153.3768    94.592234   -3058.7845 
 1436200    807.13274   -3150.1196    96.192348   -3053.9273 
 1436400    788.53677    -3149.134    93.976119   -3055.1579 
 1436600    761.41969   -3148.7879    90.744365   -3058.0435 
 1436800     842.6257   -3150.9168    100.42232   -3050.4944 
 1437000    766.10145   -3151.9329    91.302326   -3060.6306 
 1437200    790.39115    -3153.841    94.197121   -3059.6438 
 1437400    867.15274   -3149.4162     103.3454   -3046.0708 
 1437600     768.8116   -3154.5504    91.625317   -3062.9251 
 1437800    805.21756   -3153.8137      95.9641   -3057.8496 
 1438000    824.58937   -3146.9034    98.272792   -3048.6306 
 1438200    757.12713   -3153.5127    90.232787   -3063.2799 
 1438400    849.57933   -3151.3564    101.25104   -3050.1054 
 1438600    819.20436   -3149.9422    97.631017   -3052.3112 
 1438800    758.41302   -3150.7758    90.386035   -3060.3897 
 1439000    861.55753   -3145.7739    102.67858   -3043.0953 
 1439200    787.59164   -3153.6053    93.863482   -3059.7418 
 1439400      773.984   -3156.1226    92.241751   -3063.8808 
 1439600    818.69438   -3145.6364    97.570239   -3048.0662 
 1439800    795.39332   -3148.6372    94.793269   -3053.8439 
 1440000    807.25491   -3151.8677    96.206907   -3055.6608 
 1440200    841.86611   -3154.8672     100.3318   -3054.5354 
 1440400    769.87999    -3152.476    91.752645   -3060.7234 
 1440600    806.75613   -3147.8745    96.147464    -3051.727 
 1440800    838.28212   -3151.6535    99.904664   -3051.7489 
 1441000    758.34236   -3155.3548    90.377615   -3064.9771 
 1441200    808.35171   -3150.4685    96.337622   -3054.1308 
 1441400    835.79932   -3150.6238    99.608769   -3051.0151 
 1441600    768.47486   -3148.6613    91.585184   -3057.0761 
 1441800    815.22354   -3150.1066    97.156591     -3052.95 
 1442000    775.60895   -3149.8411     92.43541   -3057.4057 
 1442200    778.79164   -3151.7407    92.814717    -3058.926 
 1442400    814.42707   -3148.0066     97.06167   -3050.9449 
 1442600    834.63903   -3151.0334    99.470488   -3051.5629 
 1442800    764.81392   -3151.5582    91.148882   -3060.4094 
 1443000    787.91138   -3151.0323    93.901588   -3057.1307 
 1443200    826.80625   -3150.0203    98.536994   -3051.4833 
 1443400    766.52914   -3149.0323    91.353298    -3057.679 
 1443600    818.58772   -3155.0102    97.557527   -3057.4527 
 1443800    807.98554   -3147.0919    96.293982    -3050.798 
 1444000    820.46887    -3147.645    97.781719   -3049.8633 
 1444200    824.03564   -3157.8226    98.206799   -3059.6158 
 1444400     809.1204   -3153.4653    96.429233   -3057.0361 
 1444600    831.18913    -3150.709    99.059336   -3051.6497 
 1444800    817.53241   -3151.0572    97.431758   -3053.6255 
 1445000    790.01651    -3157.174    94.152472   -3063.0215 
 1445200    822.39743   -3152.0773    98.011561   -3054.0658 
 1445400    803.00824   -3148.1022    95.700798   -3052.4014 
 1445600    783.44947   -3152.2632    93.369826   -3058.8934 
 1445800    818.44838   -3150.8074    97.540921   -3053.2665 
 1446000    822.02672    -3149.876     97.96738   -3051.9086 
 1446200    790.38136   -3151.4518    94.195955   -3057.2558 
 1446400    800.24943   -3149.6368    95.372009   -3054.2648 
 1446600    815.66074   -3152.2465    97.208697   -3055.0378 
 1446800    831.27692   -3153.0107    99.069799   -3053.9409 
 1447000    790.39078   -3146.8534    94.197076   -3052.6564 
 1447200    838.20745   -3150.6947    99.895765   -3050.7989 
 1447400    793.92742   -3152.2167    94.618566   -3057.5982 
 1447600    803.47272   -3149.1763    95.756154   -3053.4201 
 1447800     818.2817    -3144.928    97.521057   -3047.4069 
 1448000    806.52397   -3147.3973    96.119795   -3051.2775 
 1448200    779.54204   -3151.4202    92.904147   -3058.5161 
 1448400    810.39801   -3151.0706    96.581495   -3054.4891 
 1448600    824.39315   -3150.9827    98.249406   -3052.7333 
 1448800    784.82705   -3149.1917    93.534003   -3055.6577 
 1449000    827.88182   -3149.5823    98.665178   -3050.9171 
 1449200    776.56944   -3152.2042    92.549879   -3059.6543 
 1449400    821.86039   -3152.1374    97.947558   -3054.1898 
 1449600    807.88806   -3143.6113    96.282365    -3047.329 
 1449800    799.47516   -3149.6879    95.279734   -3054.4081 
 1450000    821.39431   -3154.1798    97.892011   -3056.2878 
 1450200    825.57681   -3149.9782    98.390472   -3051.5877 
 1450400    790.22552   -3150.8062    94.177381   -3056.6288 
 1450600    804.88359   -3150.8015    95.924299   -3054.8772 
 1450800    827.21072    -3149.763    98.585199   -3051.1778 
 1451000    798.09377   -3151.9506    95.115103   -3056.8355 
 1451200    791.59391   -3148.7613    94.340463   -3054.4209 
 1451400    854.93905   -3149.3649     101.8898   -3047.4751 
 1451600    782.95274   -3148.7502    93.310628   -3055.4396 
 1451800    813.29469   -3153.9771    96.926716   -3057.0504 
 1452000    840.84688   -3152.6488    100.21033   -3052.4384 
 1452200    824.21976   -3151.9492    98.228742   -3053.7205 
 1452400    781.25932   -3147.9853    93.108809   -3054.8765 
 1452600    808.45455   -3150.4168    96.349879   -3054.0669 
 1452800    764.94157    -3147.331    91.164094   -3056.1669 
 1453000    825.60149   -3150.9328    98.393413   -3052.5394 
 1453200    817.11516   -3148.9795    97.382031   -3051.5975 
 1453400    782.39594   -3148.3672    93.244269   -3055.1229 
 1453600     826.3322   -3153.8038    98.480498   -3055.3233 
 1453800    785.06074   -3151.5488    93.561854    -3057.987 
 1454000    780.76819   -3147.1348    93.050277   -3054.0845 
 1454200    835.35231   -3146.7707    99.555495   -3047.2152 
 1454400    800.10139   -3157.6412    95.354367   -3062.2869 
 1454600    769.45398   -3150.7819    91.701874     -3059.08 
 1454800    867.65549   -3147.9649    103.40532   -3044.5596 
 1455000    813.97486   -3154.7632    97.007777   -3057.7555 
 1455200     790.1455   -3159.1909    94.167845   -3065.0231 
 1455400    799.04369   -3149.7485    95.228312   -3054.5201 
 1455600    819.61389   -3150.8168    97.679825   -3053.1369 
 1455800     820.6043   -3151.6811    97.797859   -3053.8832 
 1456000    821.36464    -3155.575    97.888475   -3057.6866 
 1456200    785.80924   -3155.9764    93.651059   -3062.3253 
 1456400    832.43746    -3150.731    99.208109   -3051.5229 
 1456600     830.7515   -3151.5066    99.007181   -3052.4994 
 1456800    811.66385   -3158.6489    96.732356   -3061.9166 
 1457000    836.76681   -3154.2989    99.724073   -3054.5748 
 1457200    833.22239   -3149.1049    99.301656   -3049.8032 
 1457400    813.62599   -3153.4426    96.966199   -3056.4764 
 1457600    808.36935   -3154.6426    96.339724   -3058.3029 
 1457800    792.07443   -3148.5347    94.397731    -3054.137 
 1458000    818.95894   -3149.4441    97.601769   -3051.8423 
 1458200    790.09615   -3152.1676    94.161964   -3058.0056 
 1458400     829.3236   -3154.9508    98.837006   -3056.1137 
 1458600    822.54183    -3150.364     98.02877   -3052.3352 
 1458800    795.29361    -3151.543    94.781385   -3056.7616 
 1459000     806.1003   -3150.1742    96.069303   -3054.1049 
 1459200    799.70082   -3143.6113    95.306627   -3048.3047 
 1459400    790.91153   -3146.9519    94.259139   -3052.6928 
 1459600    823.90507   -3150.0003    98.191238   -3051.8091 
 1459800    806.67604   -3153.8019     96.13792    -3057.664 
 1460000    779.95728   -3150.2004    92.953635   -3057.2468 
 1460200    858.07353   -3151.5937    102.26336   -3049.3303 
 1460400    781.83686   -3153.9225    93.177639   -3060.7449 
 1460600    786.37206   -3151.4646    93.718134   -3057.7465 
 1460800    819.00711   -3146.4364    97.607509   -3048.8289 
 1461000    782.97973   -3148.1897    93.313844   -3054.8758 
 1461200    813.49935   -3155.2197    96.951106   -3058.2686 
 1461400    817.59893   -3151.3938    97.439686   -3053.9541 
 1461600    782.74182   -3147.2126     93.28549   -3053.9271 
 1461800    827.57178   -3151.2572    98.628228    -3052.629 
 1462000    771.27076   -3149.5179    91.918394   -3057.5996 
 1462200    830.38594   -3151.1423    98.963614   -3052.1787 
 1462400    808.75384   -3149.0788    96.385547   -3052.6932 
 1462600    791.98781   -3153.7638    94.387407   -3059.3764 
 1462800    843.06868    -3152.684    100.47512   -3052.2089 
 1463000    832.07696   -3148.9191    99.165146   -3049.7539 
 1463200    809.95319   -3154.1106    96.528483   -3057.5821 
 1463400    828.35884   -3151.9185    98.722028   -3053.1965 
 1463600    823.97156   -3151.3152    98.199162   -3053.1161 
 1463800    785.00508   -3150.0071    93.555221   -3056.4518 
 1464000    818.84376   -3145.4611    97.588041   -3047.8731 
 1464200    782.22593   -3149.1896    93.224008   -3055.9655 
 1464400    813.70801   -3155.9687    96.975974   -3058.9927 
 1464600     843.4536   -3149.0519    100.52099   -3048.5309 
 1464800    782.90774   -3147.5432    93.305264   -3054.2379 
 1465000    791.55127   -3152.6486    94.335381   -3058.3132 
 1465200    846.80813   -3148.8327    100.92078   -3047.9119 
 1465400    803.67755   -3150.4255    95.780565   -3054.6449 
 1465600    806.04269   -3153.9413    96.062437   -3057.8789 
 1465800    854.96466   -3148.8122    101.89285   -3046.9194 
 1466000    825.59882   -3151.7869    98.393095   -3053.3938 
 1466200    810.06643   -3155.9036    96.541979   -3059.3616 
 1466400    830.91337   -3151.4794    99.026472    -3052.453 
 1466600    786.30453   -3146.8452    93.710086   -3053.1352 
 1466800    799.74928   -3149.8738    95.312403   -3054.5614 
 1467000    827.41138   -3149.4479    98.609112   -3050.8388 
 1467200    810.84006   -3149.2945    96.634178   -3052.6603 
 1467400    818.67076   -3146.2941    97.567424   -3048.7266 
 1467600    819.35186   -3146.9588    97.648596   -3049.3102 
 1467800    797.15943    -3151.898     95.00375   -3056.8943 
 1468000    812.34323   -3146.2921    96.813322   -3049.4788 
 1468200    828.77083   -3146.9551    98.771129   -3048.1839 
 1468400    768.53166   -3147.4612    91.591953   -3055.8693 
 1468600    838.60223   -3149.2526    99.942814   -3049.3098 
 1468800    846.97461   -3154.8958    100.94062   -3053.9552 
 1469000    771.84196   -3149.9026    91.986469   -3057.9162 
 1469200    837.14378   -3144.1904    99.768999   -3044.4214 
 1469400    811.60285   -3149.3071    96.725085    -3052.582 
 1469600    794.87453    -3154.184     94.73144   -3059.4526 
 1469800    865.18758   -3150.7569     103.1112   -3047.6457 
 1470000    816.70788   -3151.8699    97.333492   -3054.5364 
 1470200    784.09074   -3152.3154    93.446251   -3058.8692 
 1470400    843.84363   -3152.1233    100.56747   -3051.5558 
 1470600    801.73414   -3148.4517    95.548954   -3052.9027 
 1470800    842.22294   -3155.7062    100.37432   -3055.3319 
 1471000    821.23262   -3152.4317    97.872742    -3054.559 
 1471200    830.66642   -3151.6007    98.997042   -3052.6037 
 1471400      812.593   -3148.5121    96.843089    -3051.669 
 1471600    861.07826     -3155.59    102.62146   -3052.9685 
 1471800    806.71058   -3153.0063    96.142035   -3056.8642 
 1472000    821.29254   -3151.7466    97.879882   -3053.8667 
 1472200    849.38052   -3150.5291    101.22735   -3049.3018 
 1472400    815.51764   -3154.2242    97.191642   -3057.0326 
 1472600    783.07992   -3153.2283    93.325784   -3059.9025 
 1472800     821.1567   -3150.8241    97.863693   -3052.9604 
 1473000    806.50691   -3149.8971    96.117763   -3053.7794 
 1473200    798.25455   -3148.9848    95.134264   -3053.8505 
 1473400    827.65097   -3149.7388    98.637666   -3051.1012 
 1473600    778.78912   -3146.3417    92.814415   -3053.5273 
 1473800    811.61206   -3148.0264    96.726183   -3051.3002 
 1474000    846.91995   -3154.0262     100.9341   -3053.0921 
 1474200     779.7852   -3150.7669    92.933126   -3057.8338 
 1474400     839.5391    -3154.599    100.05447   -3054.5446 
 1474600    802.64273   -3151.6529    95.657238   -3055.9957 
 1474800    808.10167   -3152.1278    96.307822   -3055.8199 
 1475000     826.4051   -3151.1719    98.489186   -3052.6827 
 1475200    795.10432   -3149.0809    94.758827   -3054.3221 
 1475400    820.47894   -3156.5326    97.782919   -3058.7497 
 1475600    828.27213    -3150.836    98.711695   -3052.1243 
 1475800    824.79282   -3146.7832    98.297038   -3048.4862 
 1476000    804.04955   -3150.1136    95.824899   -3054.2887 
 1476200    803.28693   -3152.3414    95.734012   -3056.6074 
 1476400    818.99576   -3150.8392    97.606157    -3053.233 
 1476600    822.76163    -3149.086    98.054966    -3051.031 
 1476800     799.2398   -3154.1814    95.251684   -3058.9297 
 1477000    831.71306   -3150.6536    99.121777   -3051.5318 
 1477200    802.84829   -3149.1758    95.681736    -3053.494 
 1477400    838.68151   -3154.5745    99.952263   -3054.6223 
 1477600    820.48555   -3147.4285    97.783707   -3049.6448 
 1477800    807.58849   -3151.6501    96.246663   -3055.4034 
 1478000    816.85249   -3149.7022    97.350727   -3052.3514 
 1478200    829.68717   -3150.3961    98.880337   -3051.5158 
 1478400    828.10912   -3155.9236    98.692267   -3057.2314 
 1478600     802.8435   -3155.5672    95.681165    -3059.886 
 1478800    824.43011   -3151.4224    98.253811   -3053.1686 
 1479000    788.80066   -3147.5095    94.007569    -3053.502 
 1479200     798.4179   -3149.7577    95.153731    -3054.604 
 1479400    778.57149   -3151.2582    92.788479   -3058.4698 
 1479600    826.39973   -3150.9352    98.488546   -3052.4467 
 1479800     820.9179   -3150.1378    97.835234   -3052.3026 
 1480000    788.86403   -3148.3978    94.015122   -3054.3827 
 1480200    829.51253   -3146.9222    98.859523   -3048.0626 
 1480400    804.48305    -3152.957    95.876564   -3057.0805 
 1480600    802.59182   -3149.3356     95.65117   -3053.6844 
 1480800    837.05171   -3148.3979    99.758026   -3048.6398 
 1481000    797.42782   -3151.2739    95.035736   -3056.2382 
 1481200     796.2314   -3151.3475     94.89315   -3056.4543 
 1481400    848.60382   -3151.9891    101.13478   -3050.8543 
 1481600    805.04881   -3152.1765    95.943989   -3056.2325 
 1481800    842.14458   -3155.8699    100.36498   -3055.5049 
 1482000    809.55515   -3147.3468    96.481045   -3050.8657 
 1482200    789.75514   -3147.7418    94.121322   -3053.6204 
 1482400    810.40864   -3151.9405    96.582762   -3055.3577 
 1482600    819.14117   -3148.8582    97.623486   -3051.2347 
 1482800    834.96292    -3151.235    99.509088   -3051.7259 
 1483000    816.86342   -3154.2967    97.352029   -3056.9447 
 1483200    791.70044   -3148.8216     94.35316   -3054.4685 
 1483400    854.41269   -3146.7381    101.82707    -3044.911 
 1483600    809.01699   -3152.7727    96.416909   -3056.3558 
 1483800    795.64072   -3153.5563    94.822753   -3058.7336 
 1484000    833.74594   -3146.3243    99.364052   -3046.9602 
 1484200    831.04682   -3151.9892    99.042377   -3052.9468 
 1484400    798.90383   -3149.6723    95.211644   -3054.4607 
 1484600    872.25382   -3148.8312    103.95334   -3044.8779 
 1484800    832.58749   -3158.2939     99.22599   -3059.0679 
 1485000    794.19638   -3154.9882     94.65062   -3060.3376 
 1485200    833.75817   -3145.7739    99.365509   -3046.4084 
 1485400    826.02584     -3151.12    98.443987    -3052.676 
 1485600    808.64068   -3153.4428    96.372061   -3057.0707 
 1485800    845.81121   -3147.2137    100.80197   -3046.4118 
 1486000    804.44632   -3145.7589    95.872186   -3049.8868 
 1486200    825.47432   -3151.7324    98.378257   -3053.3541 
 1486400    817.10692   -3150.4365    97.381049   -3053.0554 
 1486600    824.32671   -3151.4516    98.241488   -3053.2101 
 1486800    850.98503    -3149.905    101.41857   -3048.4865 
 1487000    845.76375   -3156.3195    100.79631   -3055.5232 
 1487200    824.00518   -3151.6513    98.203169   -3053.4481 
 1487400    827.66165   -3145.0472    98.638939   -3046.4082 
 1487600    820.97848   -3148.7608    97.842454   -3050.9183 
 1487800    781.48391   -3156.3646    93.135575    -3063.229 
 1488000    819.18251   -3148.6245    97.628414   -3050.9961 
 1488200    832.08136   -3140.5314    99.165671   -3041.3657 
 1488400    801.40982   -3150.0567    95.510302   -3054.5464 
 1488600    821.07311   -3153.5389     97.85373   -3055.6852 
 1488800    826.66023   -3150.0778    98.519592   -3051.5582 
 1489000    817.21762   -3147.8965    97.394242   -3050.5023 
 1489200    872.65104   -3148.7167    104.00068    -3044.716 
 1489400    805.61916   -3153.6317    96.011963   -3057.6197 
 1489600    825.75481   -3155.2823    98.411686   -3056.8706 
 1489800    848.94235   -3146.6787    101.17513   -3045.5035 
 1490000    781.65738   -3146.5672    93.156249   -3053.4109 
 1490200    837.03962   -3156.0497    99.756585   -3056.2932 
 1490400    811.54665    -3146.374    96.718388   -3049.6556 
 1490600    811.27755    -3149.708    96.686317   -3053.0217 
 1490800    819.28822   -3148.6646    97.641012   -3051.0235 
 1491000    780.06509   -3147.7314    92.966483   -3054.7649 
 1491200    797.62374   -3150.7044    95.059085   -3055.6453 
 1491400    841.51771   -3145.7005    100.29027   -3045.4102 
 1491600    772.92955   -3146.4286    92.116084   -3054.3126 
 1491800     810.8101   -3152.1727    96.630608   -3055.5421 
 1492000    818.38634   -3148.6533    97.533527   -3051.1198 
 1492200    827.73586   -3147.5972    98.647783   -3048.9494 
 1492400    840.81097   -3147.7502    100.20605   -3047.5441 
 1492600    802.45416   -3149.7861    95.634765   -3054.1514 
 1492800    819.82798   -3151.0609    97.705339   -3053.3556 
 1493000    830.90376   -3146.9557    99.025327   -3047.9303 
 1493200    825.38295   -3149.0584    98.367368   -3050.6911 
 1493400     852.8481   -3153.2653    101.64061   -3051.6247 
 1493600    815.48413    -3149.363    97.187648   -3052.1754 
 1493800    818.46653   -3150.8754    97.543084   -3053.3323 
 1494000    822.40646   -3148.1863    98.012637   -3050.1737 
 1494200    819.24011   -3150.8048    97.635278   -3053.1695 
 1494400    833.69326   -3155.3086    99.357773   -3055.9509 
 1494600    820.89089   -3148.7925    97.832014   -3050.9605 
 1494800    827.38483   -3148.1544    98.605948   -3049.5485 
 1495000    806.95175    -3149.868    96.170778   -3053.6972 
 1495200    831.12717   -3152.3407    99.051953   -3053.2888 
 1495400    815.10871   -3149.8615    97.142906   -3052.7186 
 1495600    816.29017   -3147.7394    97.283711   -3050.4557 
 1495800    806.14027    -3152.724    96.074068     -3056.65 
 1496000    849.36063     -3156.53    101.22498    -3055.305 
 1496200    826.06062   -3145.2444    98.448132   -3046.7963 
 1496400    837.40368   -3151.4835    99.799973   -3051.6835 
 1496600    795.23466   -3156.5179     94.77436   -3061.7435 
 1496800    814.19435   -3148.8216    97.033935   -3051.7876 
 1497000    852.45695   -3147.2975    101.59399   -3045.7036 
 1497200     801.6294    -3154.498    95.536471   -3058.9616 
 1497400    791.15058   -3149.7465    94.287628   -3055.4589 
 1497600    821.55633   -3147.1779     97.91132   -3049.2666 
 1497800    804.20017   -3152.4915    95.842851   -3056.6486 
 1498000    843.72962   -3153.2457    100.55388   -3052.6919 
 1498200    817.03736   -3152.7105    97.372759   -3055.3377 
 1498400    784.76736   -3146.9926     93.52689   -3053.4657 
 1498600    864.52909   -3145.5787    103.03272    -3042.546 
 1498800    808.67356   -3152.1214    96.375979   -3055.7454 
 1499000    815.21111   -3154.6212    97.155111   -3057.4661 
 1499200    843.04503   -3146.9322     100.4723   -3046.4599 
 1499400    800.89005   -3146.4998    95.448358   -3051.0514 
 1499600    803.77531   -3151.1299    95.792216   -3055.3377 
 1499800    818.18561   -3152.2461    97.509605   -3054.7365 
 1500000    849.93399    -3150.148    101.29331   -3048.8547 
 1500200    801.72014   -3148.6482    95.547285   -3053.1009 
 1500400    827.67742   -3153.7581    98.640818   -3055.1173 
 1500600    838.89807   -3153.3253    99.978071   -3053.3473 
 1500800    855.39867   -3153.2966    101.94458   -3051.3521 
 1501000    845.16815   -3151.8212    100.72533   -3051.0959 
 1501200    827.08575   -3155.4719    98.570305   -3056.9016 
 1501400    816.30595   -3149.0837    97.285591   -3051.7981 
 1501600    878.90959   -3150.2171    104.74656   -3045.4706 
 1501800    821.35293   -3151.1219    97.887079   -3053.2349 
 1502000    797.19645   -3152.1406    95.008162   -3057.1324 
 1502200    856.33862   -3153.1297     102.0566   -3051.0731 
 1502400    849.80221   -3151.8756     101.2776    -3050.598 
 1502600    793.70346   -3151.0555    94.591875   -3056.4636 
 1502800    835.35399   -3154.4497    99.555695    -3054.894 
 1503000    822.61584   -3150.3003    98.037591   -3052.2627 
 1503200    852.13091   -3153.3357    101.55513   -3051.7806 
 1503400    787.80702   -3149.8059    93.889149   -3055.9168 
 1503600     789.1552   -3149.0685    94.049823   -3055.0187 
 1503800    829.46007   -3150.2446    98.853271   -3051.3913 
 1504000    818.21325   -3153.0202      97.5129   -3055.5073 
 1504200    813.56167   -3157.9123    96.958534   -3060.9538 
 1504400    797.28272   -3152.5024    95.018443   -3057.4839 
 1504600    837.98895   -3147.4461    99.869724   -3047.5764 
 1504800    820.58433    -3152.236    97.795479   -3054.4405 
 1505000    807.57531   -3155.8318    96.245092   -3059.5868 
 1505200    836.65399   -3149.5815    99.710627   -3049.8709 
 1505400    863.84722   -3154.5598    102.95146   -3051.6083 
 1505600    796.82755   -3152.7461    94.964197   -3057.7819 
 1505800    823.45876    -3148.748    98.138047     -3050.61 
 1506000    846.04052   -3153.7659    100.82929   -3052.9366 
 1506200    790.76952   -3154.8289    94.242215   -3060.5867 
 1506400    867.27344   -3155.6956    103.35979   -3052.3358 
 1506600    819.94032   -3152.5712    97.718727   -3054.8525 
 1506800    829.90979   -3155.1197    98.906867   -3056.2128 
 1507000    834.93179    -3153.395    99.505379   -3053.8897 
 1507200    824.44317    -3152.378    98.255367   -3054.1227 
 1507400    812.92821   -3150.3739    96.883039   -3053.4908 
 1507600    822.65987   -3148.7636    98.042837   -3050.7208 
 1507800    799.90558   -3144.1546     95.33103   -3048.8236 
 1508000    824.98338    -3152.699    98.319749   -3054.3793 
 1508200    788.71979   -3151.0937    93.997931   -3057.0957 
 1508400    839.70666   -3149.9663    100.07444   -3049.8919 
 1508600    824.81826   -3148.1481     98.30007    -3049.848 
 1508800    808.61985   -3151.4697    96.369579   -3055.1001 
 1509000    836.31909   -3153.6637    99.670714    -3053.993 
 1509200    812.06484   -3150.1912    96.780145    -3053.411 
 1509400     862.2356   -3152.5584    102.75939    -3049.799 
 1509600    815.48455   -3151.7812    97.187698   -3054.5935 
 1509800    853.53665   -3158.5324    101.72267   -3056.8097 
 1510000    826.09531   -3150.3885    98.452266   -3051.9363 
 1510200    829.85413   -3150.3108    98.900234   -3051.4106 
 1510400    791.43986   -3146.3402    94.322103   -3052.0181 
 1510600    844.51703   -3152.9975    100.64773   -3052.3498 
 1510800    813.81887   -3154.4603    96.989186   -3057.4711 
 1511000     829.3365   -3152.7951    98.838543   -3053.9566 
 1511200    837.31874   -3149.7707     99.78985   -3049.9809 
 1511400    790.51429   -3150.7339    94.211796   -3056.5221 
 1511600    852.36477   -3154.6262      101.583   -3053.0432 
 1511800    821.67103   -3151.5302     97.92499   -3053.6053 
 1512000    821.73031    -3154.091    97.932055    -3056.159 
 1512200    818.44975   -3156.5172    97.541084   -3058.9761 
 1512400    831.69701   -3152.5201    99.119865   -3053.4003 
 1512600    803.45353    -3148.705    95.753867   -3052.9511 
 1512800    891.15398    -3155.268    106.20582   -3049.0622 
 1513000    826.74845    -3154.022    98.530106   -3055.4919 
 1513200    820.06263   -3151.5022    97.733304   -3053.7689 
 1513400    847.99837   -3150.0995    101.06263   -3049.0369 
 1513600    809.53398   -3147.4163    96.478522   -3050.9378 
 1513800    844.79929   -3150.8697    100.68137   -3050.1883 
 1514000    849.77224   -3148.5337    101.27403   -3047.2597 
 1514200    854.24906   -3150.5948    101.80757   -3048.7873 
 1514400     840.3061   -3152.5161    100.14588   -3052.3702 
 1514600    857.29269   -3154.8969     102.1703   -3052.7266 
 1514800    824.88611   -3151.1236    98.308156   -3052.8154 
 1515000    819.28404   -3144.3067    97.640514   -3046.6662 
 1515200    866.41675   -3153.0612    103.25769   -3049.8035 
 1515400    816.61704   -3152.9367    97.322667    -3055.614 
 1515600    815.20431   -3150.3285      97.1543   -3053.1742 
 1515800    864.36851   -3149.0868    103.01358   -3046.0732 
 1516000    794.64344   -3145.9055    94.703899   -3051.2016 
 1516200     827.4157   -3154.3821    98.609627   -3055.7725 
 1516400    835.69447   -3151.2346    99.596273   -3051.6383 
 1516600    845.98452   -3149.2353    100.82262   -3048.4127 
 1516800    798.97046   -3144.3752    95.219585   -3049.1556 
 1517000    828.94582   -3150.8366    98.791984   -3052.0447 
 1517200    818.10712   -3153.5526    97.500251   -3056.0524 
 1517400    850.03801   -3153.2235    101.30571   -3051.9178 
 1517600    831.24875   -3150.8136    99.066441   -3051.7472 
 1517800    859.43725   -3149.2977    102.42589   -3046.8718 
 1518000    850.53932   -3153.1126    101.36545   -3051.7472 
 1518200    785.32416   -3151.9799    93.593248   -3058.3866 
 1518400    845.41794   -3145.6501     100.7551    -3044.895 
 1518600     846.3051   -3148.2729    100.86083   -3047.4121 
 1518800    798.78736   -3155.7056    95.197763   -3060.5079 
 1519000    856.72241   -3150.3843    102.10234    -3048.282 
 1519200    840.42149   -3147.2829    100.15963   -3047.1233 
 1519400    804.66441   -3148.9946    95.898177   -3053.0965 
 1519600    848.15022   -3152.9122    101.08072   -3051.8315 
 1519800    802.13024   -3150.5955     95.59616   -3054.9993 
 1520000    825.96853   -3146.6996    98.437157   -3048.2624 
 1520200    830.92417   -3149.1972    99.027759   -3050.1694 
 1520400    831.75486   -3154.1001    99.126759   -3054.9734 
 1520600     870.4485   -3149.2879    103.73818   -3045.5497 
 1520800    888.43576   -3151.6942    105.88187   -3045.8123 
 1521000    791.23596   -3149.9452    94.297803   -3055.6474 
 1521200    855.32315    -3152.181    101.93558   -3050.2454 
 1521400    833.91116   -3146.6999    99.383743   -3047.3162 
 1521600    847.34295   -3151.1487    100.98451   -3050.1642 
 1521800     828.9325   -3153.8357    98.790396   -3055.0453 
 1522000    824.03017   -3148.4714    98.206147   -3050.2653 
 1522200    854.78099   -3147.1926    101.87096   -3045.3217 
 1522400    852.27486   -3156.3461    101.57229   -3054.7738 
 1522600    828.69208   -3154.7059    98.761744   -3055.9441 
 1522800      817.763   -3147.8274    97.459239   -3050.3682 
 1523000    809.85767   -3144.2831    96.517099    -3047.766 
 1523200    877.42674    -3150.511    104.56984   -3045.9411 
 1523400    819.42731   -3156.0605    97.657588   -3058.4029 
 1523600    812.06194   -3152.7187    96.779799   -3055.9389 
 1523800    862.60613   -3147.0306    102.80355    -3044.227 
 1524000    833.59119   -3152.1124    99.345608   -3052.7668 
 1524200    824.99835   -3154.8734    98.321533   -3056.5519 
 1524400    833.33199   -3147.3467    99.314718    -3048.032 
 1524600    843.36616    -3148.423    100.51057   -3047.9124 
 1524800    843.72439   -3149.9816    100.55326   -3049.4284 
 1525000     877.1148   -3155.1207    104.53266   -3050.5881 
 1525200    794.24743   -3148.5281    94.656704   -3053.8714 
 1525400    838.85386   -3149.5457    99.972803   -3049.5729 
 1525600    861.13524   -3148.1724    102.62825   -3045.5442 
 1525800    839.21377   -3154.1939     100.0157   -3054.1782 
 1526000    822.47637    -3145.482    98.020969   -3047.4611 
 1526200    868.86366   -3147.9345    103.54931   -3044.3852 
 1526400    822.99827   -3150.6284    98.083167   -3052.5452 
 1526600    818.84269   -3151.9745    97.587915   -3054.3865 
 1526800    826.94995   -3145.6541    98.554121   -3047.0999 
 1527000    841.01682   -3142.4871    100.23058   -3042.2565 
 1527200    845.75073   -3152.7913    100.79476   -3051.9966 
 1527400     806.6641   -3155.1359    96.136496   -3058.9994 
 1527600    877.80021   -3147.9767    104.61435   -3043.3624 
 1527800    833.70915   -3149.6726    99.359667   -3050.3129 
 1528000    768.83672   -3150.3273     91.62831    -3058.699 
 1528200     877.3203   -3147.8636    104.55715   -3043.3065 
 1528400    812.52475   -3147.8593    96.834956   -3051.0243 
 1528600    808.36143    -3149.052     96.33878   -3052.7132 
 1528800    854.49598   -3148.7739      101.837   -3046.9369 
 1529000    791.17233   -3151.5135    94.290221   -3057.2233 
 1529200    864.73949   -3152.0792     103.0578   -3049.0214 
 1529400    840.27469   -3150.7525    100.14213   -3050.6104 
 1529600    781.75261   -3153.2473    93.167598   -3060.0797 
 1529800    858.37338   -3151.9936     102.2991   -3049.6946 
 1530000    821.98608    -3146.305    97.962536   -3048.3425 
 1530200    839.25974   -3155.4032    100.02117    -3055.382 
 1530400    818.24174   -3153.8464    97.516295   -3056.3301 
 1530600     868.3371   -3156.3504    103.48655   -3052.8639 
 1530800    834.88906   -3154.1965    99.500286   -3054.6962 
 1531000    884.34624   -3152.9791    105.39449   -3047.5846 
 1531200    862.27317   -3155.5408    102.76387   -3052.7769 
 1531400    806.74776   -3153.2361    96.146466   -3057.0897 
 1531600      826.666   -3151.5801     98.52028   -3053.0598 
 1531800    835.66711   -3149.9964    99.593013   -3050.4034 
 1532000    837.58646   -3154.0844    99.821757   -3054.2626 
 1532200    838.39025   -3155.3715     99.91755   -3055.4539 
 1532400     872.2149   -3154.1685     103.9487   -3050.2198 
 1532600    853.73999   -3146.6042     101.7469   -3044.8573 
 1532800    805.52636   -3151.5915    96.000902   -3055.5906 
 1533000    823.64492   -3157.6795    98.160234   -3059.5193 
 1533200    851.68297   -3149.5654    101.50175   -3048.0637 
 1533400    850.14201   -3148.1539     101.3181   -3046.8358 
 1533600    818.36019   -3150.1494    97.530411    -3052.619 
 1533800    831.44696   -3151.5536    99.090064   -3052.4635 
 1534000    826.79426   -3150.6411    98.535565   -3052.1055 
 1534200    848.17225   -3149.1971    101.08335   -3048.1137 
 1534400    848.91743   -3153.4094    101.17216   -3052.2373 
 1534600    803.30049   -3159.2237    95.735629    -3063.488 
 1534800    835.11213   -3151.2096    99.526871   -3051.6827 
 1535000    863.68616   -3147.4238    102.93226   -3044.4916 
 1535200    834.98703   -3156.6538    99.511963   -3057.1418 
 1535400     804.8714    -3154.252    95.922846   -3058.3292 
 1535600    890.48212   -3150.5343    106.12575   -3044.4086 
 1535800    839.00469   -3157.1151    99.990778   -3057.1243 
 1536000    794.94635   -3157.8109        94.74   -3063.0709 
 1536200    905.91566   -3153.5201    107.96508    -3045.555 
 1536400    839.41863   -3154.7843    100.04011   -3054.7442 
 1536600     810.2743   -3158.0958    96.566752    -3061.529 
 1536800    853.69041   -3153.9053    101.74099   -3052.1643 
 1537000    832.92247   -3151.2034    99.265912   -3051.9375 
 1537200    850.02818   -3154.8095    101.30453   -3053.5049 
 1537400    840.75983   -3152.3593    100.19995   -3052.1593 
 1537600    853.75791   -3156.9426    101.74904   -3055.1935 
 1537800    818.41008   -3150.6847    97.536357   -3053.1484 
 1538000    867.51932   -3154.8653    103.38909   -3051.4762 
 1538200    810.28073   -3153.7632    96.567518   -3057.1957 
 1538400    800.62664    -3151.578    95.416965   -3056.1611 
 1538600    851.49812   -3149.6562    101.47972   -3048.1765 
 1538800    881.14963   -3153.9886    105.01352   -3048.9751 
 1539000    814.74531   -3155.0841    97.099598   -3057.9845 
 1539200    826.87962   -3152.2179    98.545739   -3053.6721 
 1539400    853.40604    -3149.798     101.7071   -3048.0909 
 1539600    846.58093   -3153.8963     100.8937   -3053.0026 
 1539800     831.2366   -3156.0099    99.064993   -3056.9449 
 1540000    842.52365   -3152.8276    100.41016   -3052.4175 
 1540200     857.5949   -3152.4825    102.20632   -3050.2761 
 1540400    830.59058   -3153.5703    98.988003   -3054.5823 
 1540600    847.97012   -3155.2521    101.05926   -3054.1928 
 1540800     846.0706   -3153.5447    100.83288   -3052.7118 
 1541000    867.27511   -3153.6796    103.35999   -3050.3196 
 1541200    806.79908   -3148.3268    96.152583   -3052.1742 
 1541400    848.19983   -3148.9156    101.08664    -3047.829 
 1541600    843.52363   -3155.7525    100.52934   -3055.2231 
 1541800     823.5102   -3154.3826    98.144178   -3056.2385 
 1542000    833.90099   -3153.3691     99.38253   -3053.9865 
 1542200    851.70096   -3154.2029    101.50389    -3052.699 
 1542400    857.77962   -3157.6044    102.22833    -3055.376 
 1542600    804.98328   -3150.9756    95.936179   -3055.0394 
 1542800    850.22624   -3152.5883    101.32814   -3051.2602 
 1543000    861.28325   -3154.1135    102.64589   -3051.4676 
 1543200    855.29914   -3150.3693    101.93272   -3048.4366 
 1543400    833.63895     -3152.48    99.351301   -3053.1287 
 1543600    832.00689   -3152.6499    99.156795   -3053.4931 
 1543800    859.78231   -3146.6823    102.46701   -3044.2153 
 1544000    848.84966   -3155.3243    101.16408   -3054.1602 
 1544200     839.0059   -3161.0929    99.990922    -3061.102 
 1544400    826.63182   -3147.8561    98.516206   -3049.3399 
 1544600     842.5121   -3148.2548    100.40878    -3047.846 
 1544800    827.53302   -3152.4874    98.623609   -3053.8638 
 1545000    872.43324   -3152.7128    103.97472   -3048.7381 
 1545200    800.64946   -3147.0745    95.419684   -3051.6549 
 1545400    819.25167   -3144.2945    97.636655   -3046.6578 
 1545600    811.64752   -3149.3744     96.73041    -3052.644 
 1545800    830.94828   -3154.1282    99.030633   -3055.0976 
 1546000    868.68513   -3148.1377    103.52803   -3044.6096 
 1546200    824.41233   -3149.0711    98.251692   -3050.8194 
 1546400    839.20935   -3152.6273    100.01517   -3052.6121 
 1546600    843.37168   -3149.8203    100.51123   -3049.3091 
 1546800    826.88862   -3152.0709    98.546811   -3053.5241 
 1547000    851.09702   -3151.8032    101.43192   -3050.3713 
 1547200    839.62141   -3147.8827    100.06428   -3047.8185 
 1547400     819.2579   -3154.5188    97.637398   -3056.8814 
 1547600    883.92746   -3158.6606    105.34458   -3053.3161 
 1547800    832.37972   -3153.2363    99.201229   -3054.0351 
 1548000    871.28985   -3152.0514    103.83845   -3048.2129 
 1548200    818.72953   -3150.5505    97.574428    -3052.976 
 1548400    799.52118   -3154.9365    95.285218   -3059.6513 
 1548600    874.87161   -3150.8558    104.26532   -3046.5905 
 1548800    852.34524   -3152.5017    101.58068   -3050.9211 
 1549000     829.6006   -3159.7553    98.870019   -3060.8853 
 1549200    869.81749   -3155.0869    103.66298    -3051.424 
 1549400    833.12829   -3149.9637    99.290441   -3050.6733 
 1549600    843.49043   -3151.4281    100.52538   -3050.9027 
 1549800    874.87768   -3153.0674    104.26604   -3048.8013 
 1550000    789.82496   -3153.0746    94.129643   -3058.9449 
 1550200       840.59   -3151.4556    100.17971   -3051.2759 
 1550400    856.66104   -3146.1708    102.09502   -3044.0758 
 1550600    771.45362   -3149.5581    91.940187   -3057.6179 
 1550800    836.05798   -3152.6251    99.639596   -3052.9855 
 1551000    867.08895   -3149.3369     103.3378   -3045.9991 
 1551200    814.08978    -3148.975    97.021472   -3051.9536 
 1551400    824.59162    -3151.125    98.273059   -3052.8519 
 1551600    861.39602   -3151.0189    102.65933   -3048.3596 
 1551800    842.27514   -3150.2413    100.38054   -3049.8608 
 1552000    853.13097   -3147.5802    101.67432   -3045.9059 
 1552200    854.66457   -3148.6368    101.85709   -3046.7797 
 1552400    843.15987   -3152.2953    100.48598   -3051.8093 
 1552600    853.63832   -3150.1848    101.73478     -3048.45 
 1552800    850.99793   -3150.4635    101.42011   -3049.0433 
 1553000    828.64998   -3150.7361    98.756726   -3051.9793 
 1553200    850.93945   -3154.4035    101.41314   -3052.9904 
 1553400    848.60807   -3149.2322    101.13529   -3048.0969 
 1553600    864.73968   -3150.7785    103.05782   -3047.7207 
 1553800    826.12189   -3151.5004    98.455434    -3053.045 
 1554000    853.98395   -3152.7237    101.77597   -3050.9477 
 1554200    847.93368   -3153.0003    101.05492   -3051.9454 
 1554400    832.56576   -3149.3207      99.2234   -3050.0973 
 1554600    891.64538   -3149.1913    106.26438    -3042.927 
 1554800    822.46809   -3150.2804    98.019981   -3052.2604 
 1555000    836.59834   -3151.7075    99.703995   -3052.0035 
 1555200    865.82344   -3151.5132    103.18698   -3048.3262 
 1555400    838.52157   -3149.0254    99.933201   -3049.0922 
 1555600    856.56524   -3151.7384    102.08361   -3049.6548 
 1555800    843.98507   -3154.7326    100.58433   -3054.1483 
 1556000    828.90255   -3148.2714    98.786827   -3049.4846 
 1556200    899.19542      -3151.4    107.16418   -3044.2358 
 1556400    827.08411   -3154.3713    98.570109   -3055.8011 
 1556600    850.41697   -3152.7766    101.35087   -3051.4258 
 1556800    842.89976   -3148.2958    100.45498   -3047.8408 
 1557000     828.5505   -3152.5607     98.74487   -3053.8158 
 1557200    854.80056   -3149.9726     101.8733   -3048.0993 
 1557400    861.61913   -3150.3236    102.68592   -3047.6377 
 1557600     839.0652   -3152.0078     99.99799   -3052.0099 
 1557800    815.19469   -3150.1188    97.153153   -3052.9656 
 1558000    858.14268   -3146.3839     102.2716   -3044.1123 
 1558200    839.16527   -3145.0344    100.00992   -3045.0245 
 1558400    854.38423   -3153.1051    101.82368   -3051.2814 
 1558600    856.19056   -3150.4731    102.03895   -3048.4342 
 1558800    813.78989   -3143.1743    96.985733   -3046.1885 
 1559000     843.3549    -3150.289    100.50923   -3049.7798 
 1559200    852.69003   -3151.7234    101.62177   -3050.1016 
 1559400    848.25252   -3145.6103    101.09292   -3044.5173 
 1559600    852.60671   -3152.9783    101.61184   -3051.3665 
 1559800      837.761   -3153.9899    99.842558   -3054.1474 
 1560000    866.91647   -3149.4088    103.31724   -3046.0915 
 1560200    841.74504   -3147.1628    100.31737   -3046.8454 
 1560400     843.6621   -3149.7712    100.54584   -3049.2254 
 1560600    873.04828   -3155.3462    104.04802   -3051.2982 
 1560800    821.91865    -3148.261    97.954501   -3050.3065 
 1561000     870.6332   -3148.8216     103.7602   -3045.0614 
 1561200    808.84938   -3148.4475    96.396933   -3052.0506 
 1561400    823.41057    -3151.966    98.132305   -3053.8337 
 1561600    880.84848   -3152.0341    104.97763   -3047.0565 
 1561800    842.68947   -3150.9578    100.42992   -3050.5279 
 1562000    846.89485   -3147.9452    100.93111   -3047.0141 
 1562200    851.15606   -3149.2964    101.43895   -3047.8575 
 1562400    806.17762   -3148.3837    96.078519   -3052.3052 
 1562600    888.69041   -3148.5499    105.91222   -3042.6377 
 1562800    843.57701   -3152.3848     100.5357   -3051.8491 
 1563000    838.99265   -3153.7238    99.989343   -3053.7344 
 1563200    855.43389    -3148.513    101.94878   -3046.5642 
 1563400    870.60803   -3151.9683     103.7572   -3048.2111 
 1563600    831.12632   -3151.4772     99.05185   -3052.4253 
 1563800    836.76861    -3144.133    99.724287   -3044.4087 
 1564000    810.61245   -3147.3234    96.607052   -3050.7164 
 1564200    790.69468   -3145.7966    94.233295   -3051.5633 
 1564400    863.92334    -3146.288    102.96053   -3043.3275 
 1564600    835.93124   -3152.5329    99.624491   -3052.9084 
 1564800     817.0214   -3150.5843    97.370857   -3053.2135 
 1565000    908.85037   -3149.6486    108.31484   -3041.3338 
 1565200    821.84927   -3150.1478    97.946232   -3052.2016 
 1565400    845.28537   -3150.7155     100.7393   -3049.9762 
 1565600    871.56154   -3147.0592    103.87083   -3043.1884 
 1565800    852.15625   -3153.6136    101.55815   -3052.0555 
 1566000    833.82468   -3150.3935    99.373436   -3051.0201 
 1566200     866.5817   -3150.5708    103.27735   -3047.2934 
 1566400    825.06862   -3149.9322    98.329907   -3051.6023 
 1566600    846.91682   -3146.3279    100.93373   -3045.3941 
 1566800     867.5522   -3149.2108    103.39301   -3045.8178 
 1567000    819.49808    -3153.212    97.666023    -3055.546 
 1567200    875.40467   -3151.8403    104.32885   -3047.5115 
 1567400    860.16662   -3146.4642    102.51281   -3043.9514 
 1567600    813.25623   -3149.2266    96.922132   -3052.3045 
 1567800    861.90293   -3152.9096    102.71974   -3050.1899 
 1568000     853.3982    -3147.813    101.70617   -3046.1068 
 1568200    881.80036   -3152.1391    105.09107    -3047.048 
 1568400    853.06065   -3152.0156    101.66594   -3050.3496 
 1568600    865.01423   -3149.8256    103.09054    -3046.735 
 1568800    889.86026    -3154.238    106.05164   -3048.1863 
 1569000    844.74259   -3151.0122    100.67461   -3050.3375 
 1569200    833.41655   -3147.7757    99.324795   -3048.4509 
 1569400    858.02622   -3146.5538    102.25772   -3044.2961 
 1569600    862.09773   -3154.7331    102.74296   -3051.9902 
 1569800    851.02317   -3153.9245    101.42312   -3052.5014 
 1570000    871.26959   -3146.4901    103.83604   -3042.6541 
 1570200    803.49966   -3146.6956    95.759365   -3050.9362 
 1570400    834.47347   -3145.3655    99.450757   -3045.9147 
 1570600     863.7108   -3146.8241     102.9352   -3043.8889 
 1570800    829.91842   -3149.5808    98.907896   -3050.6729 
 1571000    857.51514   -3153.2227    102.19681   -3051.0259 
 1571200    838.07906    -3152.473    99.880464   -3052.5925 
 1571400    859.06055   -3150.0942    102.38099   -3047.7132 
 1571600    846.25577   -3146.2817    100.85495   -3045.4268 
 1571800    841.30245   -3150.8615    100.26462   -3050.5969 
 1572000    843.59802   -3147.0018     100.5382   -3046.4636 
 1572200    870.04445   -3147.4243    103.69003   -3043.7342 
 1572400    831.46164   -3147.6876    99.091814   -3048.5958 
 1572600    826.77682   -3149.7112    98.533487   -3051.1777 
 1572800    840.51151   -3151.3362    100.17036   -3051.1659 
 1573000    869.19576   -3147.2838    103.58889   -3043.6949 
 1573200    843.58199   -3144.9981    100.53629   -3044.4618 
 1573400    853.54222   -3153.5378    101.72333   -3051.8145 
 1573600    825.18465   -3153.1666    98.343736   -3054.8229 
 1573800    869.49237   -3150.2515    103.62423   -3046.6272 
 1574000    843.43532   -3150.9946    100.51881   -3050.4758 
 1574200    859.83748   -3154.1307    102.47359   -3051.6571 
 1574400    822.43661   -3149.3866     98.01623   -3051.3703 
 1574600    859.99327   -3156.1686    102.49215   -3053.6765 
 1574800    853.28564   -3149.5919    101.69275   -3047.8991 
 1575000     881.9104   -3149.3779    105.10419   -3044.2737 
 1575200    813.03116   -3151.3136    96.895309   -3054.4183 
 1575400    865.02714   -3153.3402    103.09208   -3050.2481 
 1575600    885.96234   -3147.0346    105.58709   -3041.4475 
 1575800    851.28667   -3155.0847    101.45452   -3053.6302 
 1576000    857.73156   -3154.8192    102.22261   -3052.5966 
 1576200    893.77507   -3150.3881    106.51819   -3043.8699 
 1576400    808.78268   -3145.3018    96.388984   -3048.9128 
 1576600    877.35711     -3149.72    104.56154   -3045.1584 
 1576800    803.09977     -3143.72    95.711707   -3048.0082 
 1577000    812.39263   -3145.3928     96.81921   -3048.5736 
 1577200    875.31351   -3146.6213    104.31799   -3042.3033 
 1577400    843.82024   -3150.9973    100.56469   -3050.4326 
 1577600    857.66953   -3150.1622    102.21521    -3047.947 
 1577800    882.16871   -3147.0727    105.13497   -3041.9377 
 1578000     820.3158   -3147.4049    97.763476   -3049.6414 
 1578200    844.25427    -3142.521    100.61641   -3041.9046 
 1578400    899.59135   -3145.7489    107.21137   -3038.5375 
 1578600    800.94585   -3150.6832    95.455007   -3055.2282 
 1578800    841.80518   -3149.3001    100.32453   -3048.9755 
 1579000    909.31083   -3147.1155    108.36971   -3038.7458 
 1579200     829.8114   -3149.0795    98.895141   -3050.1843 
 1579400    849.95834   -3146.0101    101.29621   -3044.7139 
 1579600    866.79376   -3142.9263    103.30262   -3039.6237 
 1579800     807.8318   -3148.3749    96.275661   -3052.0992 
 1580000    876.45861   -3149.4917    104.45446   -3045.0372 
 1580200    892.72579    -3146.212    106.39314   -3039.8188 
 1580400    839.83233   -3152.0605    100.08941   -3051.9711 
 1580600     852.9661   -3150.0535    101.65467   -3048.3988 
 1580800    876.98204    -3143.743    104.51684   -3039.2262 
 1581000    816.09989   -3149.0096    97.261033   -3051.7486 
 1581200    865.81275   -3149.1065    103.18571   -3045.9208 
 1581400    842.93582   -3143.3082    100.45928    -3042.849 
 1581600    841.21846   -3150.5001    100.25461   -3050.2455 
 1581800    868.38049   -3143.5139    103.49172   -3040.0222 
 1582000    846.24792   -3146.4129    100.85401   -3045.5589 
 1582200    828.76745   -3152.2588    98.770726   -3053.4881 
 1582400    856.50272   -3148.7004    102.07616   -3046.6242 
 1582600    860.96349   -3146.5637    102.60778   -3043.9559 
 1582800    860.26061   -3148.5861    102.52401    -3046.062 
 1583000    874.27519   -3153.4901    104.19424   -3049.2958 
 1583200    870.67681   -3153.1276    103.76539   -3049.3622 
 1583400    867.83033    -3149.333    103.42616   -3045.9068 
 1583600    834.64379   -3145.2527    99.471055   -3045.7817 
 1583800    883.69986   -3150.0025    105.31745   -3044.6851 
 1584000    848.33361   -3155.3156    101.10258    -3054.213 
 1584200    853.10713   -3150.9166    101.67148   -3049.2451 
 1584400     866.5407   -3146.9868    103.27246   -3043.7144 
 1584600    860.16853   -3153.7783    102.51304   -3051.2653 
 1584800    855.52517   -3152.9017    101.95965   -3050.9421 
 1585000    869.49962   -3144.8529     103.6251   -3041.2278 
 1585200    865.58965   -3153.5972    103.15912   -3050.4381 
 1585400    853.36476    -3152.257    101.70218   -3050.5549 
 1585600    835.98621   -3145.2286    99.631042   -3045.5975 
 1585800    866.57471   -3152.6267    103.27651   -3049.3501 
 1586000    867.54303    -3152.887    103.39192   -3049.4951 
 1586200    836.40211   -3149.0806    99.680608      -3049.4 
 1586400    861.87869   -3151.1939    102.71685   -3048.4771 
 1586600    867.31932   -3144.4607    103.36525   -3041.0954 
 1586800    837.80299   -3147.5321    99.847562   -3047.6845 
 1587000    836.73909   -3154.8016    99.720768   -3055.0808 
 1587200    880.69696   -3146.5821    104.95957   -3041.6225 
 1587400    872.83252   -3147.0097    104.02231   -3042.9874 
 1587600     827.8861   -3143.8959    98.665688   -3045.2302 
 1587800    843.25364   -3141.6054    100.49716   -3041.1082 
 1588000    842.23174   -3145.7539    100.37537   -3045.3786 
 1588200    869.05133   -3150.5316    103.57167   -3046.9599 
 1588400    835.08201   -3147.1931    99.523282   -3047.6698 
 1588600    821.25571   -3145.2759    97.875493   -3047.4004 
 1588800    873.87266   -3147.3963    104.14627     -3043.25 
 1589000    876.11121   -3150.2024    104.41305   -3045.7893 
 1589200    867.79913   -3150.5254    103.42244   -3047.1029 
 1589400    855.25328   -3148.4952    101.92725    -3046.568 
 1589600    843.83681   -3152.2349    100.56666   -3051.6682 
 1589800    857.09508    -3149.745    102.14675   -3047.5983 
 1590000    896.52983   -3146.4593     106.8465   -3039.6128 
 1590200    871.58651   -3148.6754    103.87381   -3044.8016 
 1590400    831.37112   -3152.0917    99.081026   -3053.0106 
 1590600    875.04352   -3149.1634    104.28581   -3044.8775 
 1590800     851.1311   -3138.3225    101.43598   -3036.8866 
 1591000    875.03976   -3149.9092    104.28536   -3045.6238 
 1591200    824.14432    -3150.656    98.219751   -3052.4363 
 1591400    883.19196   -3144.8148    105.25692   -3039.5579 
 1591600    888.67301   -3146.0422    105.91014    -3040.132 
 1591800    818.20382   -3149.9408    97.511775    -3052.429 
 1592000    870.04999   -3152.0498    103.69069   -3048.3591 
 1592200    838.59354   -3144.1955    99.941778   -3044.2538 
 1592400    883.67501   -3151.6788    105.31449   -3046.3643 
 1592600    849.23297   -3150.9163    101.20976   -3049.7066 
 1592800    858.84508   -3152.1324    102.35531   -3049.7771 
 1593000    858.23574   -3145.4475    102.28269   -3043.1648 
 1593200    859.13543   -3147.6405    102.38992   -3045.2506 
 1593400    818.11118   -3149.2848    97.500735   -3051.7841 
 1593600    873.52263    -3146.421    104.10455   -3042.3165 
 1593800    835.90484   -3146.1101    99.621344   -3046.4888 
 1594000    865.07946   -3152.4932    103.09831   -3049.3949 
 1594200    827.24675   -3145.2329    98.589492   -3046.6434 
 1594400    885.21892   -3147.3767    105.49849   -3041.8782 
 1594600    847.88174   -3148.0412    101.04873   -3046.9925 
 1594800    858.60383   -3150.9549    102.32656   -3048.6284 
 1595000    853.84608   -3141.9584    101.75954   -3040.1989 
 1595200    860.40454   -3145.2786    102.54117   -3042.7375 
 1595400    831.11782   -3152.6834    99.050838   -3053.6326 
 1595600     878.0861   -3150.6334    104.64842    -3045.985 
 1595800    875.10702   -3146.7724    104.29338    -3042.479 
 1596000    838.21994    -3148.289    99.897253   -3048.3918 
 1596200    878.80482   -3146.6763    104.73407   -3041.9422 
 1596400    866.03291   -3146.2429    103.21194   -3043.0309 
 1596600    851.13172   -3150.7253    101.43605   -3049.2893 
 1596800    846.02149   -3147.9341    100.82703   -3047.1071 
 1597000    872.14916   -3146.6732    103.94087   -3042.7323 
 1597200    862.46852   -3151.4593    102.78715   -3048.6721 
 1597400    841.88712   -3147.3544     100.3343   -3047.0201 
 1597600    905.05758   -3147.8962    107.86282   -3040.0334 
 1597800    825.26749   -3148.3513    98.353608   -3049.9977 
 1598000    880.66796   -3150.9045    104.95612   -3045.9484 
 1598200    876.68824   -3149.0876    104.48182   -3044.6058 
 1598400    829.32693   -3146.1746    98.837404   -3047.3372 
 1598600    877.93244   -3149.2241     104.6301    -3044.594 
 1598800    876.59079   -3149.3317    104.47021   -3044.8615 
 1599000    888.13625   -3154.3487    105.84617   -3048.5025 
 1599200    824.11908   -3150.2503    98.216743   -3052.0336 
 1599400    871.68134   -3151.7309    103.88511   -3047.8458 
 1599600    875.21202   -3146.7603    104.30589   -3042.4544 
 1599800    845.91192   -3146.0731    100.81397   -3045.2591 
 1600000    883.13391    -3151.171       105.25    -3045.921 
 1600200      845.714   -3149.1607    100.79038   -3048.3703 
 1600400    856.92484    -3147.554    102.12646   -3045.4276 
 1600600    829.67707   -3147.5131    98.879133   -3048.6339 
 1600800    846.99786   -3150.7797    100.94339   -3049.8363 
 1601000    896.34059   -3148.0572    106.82395   -3041.2333 
 1601200    848.35314   -3148.6649    101.10491     -3047.56 
 1601400    862.21364   -3151.3784    102.75677   -3048.6216 
 1601600    869.65781   -3150.7778    103.64395   -3047.1338 
 1601800    838.12968   -3146.1964    99.886496   -3046.3099 
 1602000    852.66203   -3144.3312    101.61843   -3042.7127 
 1602200    835.28949   -3147.4506    99.548009   -3047.9026 
 1602400    838.52693   -3150.1924    99.933839   -3050.2585 
 1602600    898.32012   -3148.5376    107.05986   -3041.4777 
 1602800    865.90413   -3145.6051     103.1966   -3042.4085 
 1603000    874.14832   -3146.8734    104.17912   -3042.6943 
 1603200    812.50751   -3145.2927    96.832902   -3048.4598 
 1603400     891.8089   -3150.5578    106.28387    -3044.274 
 1603600    819.53547   -3144.2046    97.670478   -3046.5341 
 1603800    863.42515    -3144.668    102.90116   -3041.7668 
 1604000    825.47958   -3144.4666    98.378884   -3046.0877 
 1604200    896.34212   -3149.5401    106.82413   -3042.7159 
 1604400    858.10114   -3148.6492    102.26665   -3046.3826 
 1604600    871.82301   -3145.0898    103.90199   -3041.1878 
 1604800     915.7148   -3144.9581    109.13292   -3035.8251 
 1605000    821.92705   -3143.1947    97.955502   -3045.2392 
 1605200    838.15101   -3144.3825    99.889038   -3044.4935 
 1605400    854.67377   -3146.5143    101.85819   -3044.6561 
 1605600    879.57809   -3147.4619    104.82623   -3042.6357 
 1605800    909.80971   -3150.2011    108.42917   -3041.7719 
 1606000    845.06777   -3149.9498    100.71336   -3049.2365 
 1606200    863.83484   -3147.5026    102.94998   -3044.5526 
 1606400    880.65323   -3148.2895    104.95436   -3043.3351 
 1606600    838.11996   -3148.5607    99.885337   -3048.6753 
 1606800    871.87608   -3151.5192    103.90832   -3047.6109 
 1607000    845.08693   -3148.6733    100.71565   -3047.9577 
 1607200    853.77687   -3146.4987    101.75129   -3044.7474 
 1607400    876.39538   -3143.5352    104.44692   -3039.0883 
 1607600     820.3131   -3142.1505    97.763154   -3044.3874 
 1607800    853.24625   -3149.9997    101.68806   -3048.3116 
 1608000    874.37848   -3144.1702    104.20655   -3039.9636 
 1608200    896.58459   -3144.3655    106.85303   -3037.5125 
 1608400    855.87996   -3151.4344    102.00194   -3049.4324 
 1608600    850.39895   -3145.8095    101.34872   -3044.4608 
 1608800    871.89605   -3140.3411     103.9107   -3036.4304 
 1609000    841.76399   -3144.1377    100.31963   -3043.8181 
 1609200    813.27781   -3147.3065    96.924704   -3050.3818 
 1609400    918.77055   -3148.1295     109.4971   -3038.6324 
 1609600    843.92953   -3142.7435    100.57771   -3042.1657 
 1609800    830.39969   -3144.3371    98.965252   -3045.3718 
 1610000    885.73033   -3142.9293    105.55944   -3037.3698 
 1610200     850.3028   -3145.6962    101.33726   -3044.3589 
 1610400    842.06851   -3144.8602    100.35592   -3044.5043 
 1610600    903.56454   -3144.4617    107.68488   -3036.7768 
 1610800    810.35337   -3145.6551    96.576175   -3049.0789 
 1611000    896.49542   -3145.4797     106.8424   -3038.6373 
 1611200    874.43952   -3142.2971    104.21382   -3038.0833 
 1611400    832.42931   -3146.9852    99.207138   -3047.7781 
 1611600    879.95364   -3147.4663    104.87099   -3042.5953 
 1611800    883.12043   -3143.3607     105.2484   -3038.1123 
 1612000    823.81299   -3146.4552    98.180264   -3048.2749 
 1612200    898.93046   -3149.9965     107.1326   -3042.8639 
 1612400    884.11496   -3146.1341    105.36692   -3040.7671 
 1612600    854.34034   -3149.9666    101.81845   -3048.1481 
 1612800    862.64415   -3141.9329    102.80808   -3039.1248 
 1613000    900.93261   -3147.3061    107.37121   -3039.9348 
 1613200    836.68847   -3153.2427    99.714736    -3053.528 
 1613400    904.24372   -3143.4236    107.76583   -3035.6578 
 1613600    880.78934    -3141.605    104.97058   -3036.6344 
 1613800    865.82029   -3150.1422     103.1866   -3046.9556 
 1614000    855.27593   -3146.7248    101.92995   -3044.7948 
 1614200     855.2486   -3142.1064    101.92669   -3040.1797 
 1614400    864.09509   -3148.7896      102.981   -3045.8086 
 1614600    854.42966    -3149.235    101.82909    -3047.406 
 1614800    919.47565   -3145.6501    109.58113   -3036.0689 
 1615000    865.36734   -3149.4484    103.13262   -3046.3158 
 1615200    879.94556    -3154.597    104.87002    -3049.727 
 1615400    861.32134   -3141.8299    102.65043   -3039.1795 
 1615600     857.0339   -3142.8324    102.13946   -3040.6929 
 1615800    860.41729   -3148.4367    102.54269    -3045.894 
 1616000    853.34976   -3144.7942    101.70039   -3043.0938 
 1616200    844.57208   -3144.8558    100.65429   -3044.2015 
 1616400    849.93836   -3150.9589    101.29383   -3049.6651 
 1616600    866.62302   -3153.3222    103.28227   -3050.0399 
 1616800    852.09954   -3144.2408    101.55139   -3042.6894 
 1617000    851.98794   -3141.1841    101.53809    -3039.646 
 1617200    830.15264   -3141.3651    98.935809   -3042.4293 
 1617400    875.66084   -3150.6609    104.35938   -3046.3015 
 1617600    878.06769   -3149.2761    104.64622   -3044.6299 
 1617800    877.72711   -3142.7222    104.60563   -3038.1166 
 1618000    842.91844   -3144.9768    100.45721   -3044.5196 
 1618200    863.11612   -3148.7353    102.86433    -3045.871 
 1618400    852.53667   -3147.2868    101.60349   -3045.6833 
 1618600    809.44273   -3142.5535    96.467647   -3046.0859 
 1618800    911.66411   -3141.4462    108.65017    -3032.796 
 1619000    867.98282   -3147.9173    103.44433    -3044.473 
 1619200    819.54136   -3153.7136    97.671181   -3056.0424 
 1619400     865.6425   -3139.8378    103.16541   -3036.6724 
 1619600    897.51828   -3141.8319     106.9643   -3034.8676 
 1619800    784.82839   -3148.5274    93.534163   -3054.9932 
 1620000    904.74398   -3148.9872    107.82545   -3041.1617 
 1620200    870.63669   -3140.1553    103.76061   -3036.3947 
 1620400    850.97297   -3144.6601    101.41713    -3043.243 
 1620600    877.25279   -3145.9822    104.54911   -3041.4331 
 1620800    867.24694   -3146.5799    103.35663   -3043.2233 
 1621000    850.74328   -3147.4359    101.38976   -3046.0461 
 1621200    882.49722    -3145.814    105.17412   -3040.6398 
 1621400    881.56214   -3146.2843    105.06268   -3041.2216 
 1621600    850.46039   -3146.6842    101.35604   -3045.3282 
 1621800    860.86602   -3141.5716    102.59616   -3038.9755 
 1622000    859.84101   -3143.0954    102.47401   -3040.6214 
 1622200    870.38591   -3151.6071    103.73073   -3047.8763 
 1622400     893.0885   -3147.5964    106.43637   -3041.1601 
 1622600    891.13521   -3150.0532    106.20358   -3043.8496 
 1622800    869.73681   -3152.9507    103.65337   -3049.2973 
 1623000    879.84632   -3149.7225     104.8582   -3044.8643 
 1623200    855.47252   -3145.7524    101.95338    -3043.799 
 1623400     858.0479   -3145.9306    102.26031   -3043.6703 
 1623600    863.48563   -3147.1198    102.90836   -3044.2115 
 1623800    878.15109   -3146.1884    104.65616   -3041.5323 
 1624000     874.4272    -3142.104    104.21236   -3037.8916 
 1624200     850.2514   -3144.4541    101.33114   -3043.1229 
 1624400    840.55428   -3146.0376    100.17546   -3045.8622 
 1624600    872.51841   -3141.3655    103.98487   -3037.3807 
 1624800    891.37583    -3147.151    106.23226   -3040.9188 
 1625000    878.11449   -3147.2988     104.6518    -3042.647 
 1625200    863.07698   -3145.6952    102.85966   -3042.8355 
 1625400    884.00035    -3145.075    105.35326   -3039.7217 
 1625600    866.33853   -3142.4768    103.24837   -3039.2285 
 1625800    848.47728   -3143.7559     101.1197   -3042.6362 
 1626000    903.55718   -3150.8837      107.684   -3043.1997 
 1626200    868.29155   -3143.3641    103.48112    -3039.883 
 1626400    866.24617   -3146.0894    103.23736    -3042.852 
 1626600    846.71259   -3153.1501    100.90939   -3052.2407 
 1626800    878.38173   -3150.3912    104.68365   -3045.7076 
 1627000    883.74771   -3147.7876    105.32315   -3042.4644 
 1627200    872.75791   -3146.5283    104.01341   -3042.5149 
 1627400    836.70485    -3146.109    99.716688   -3046.3923 
 1627600    827.59179   -3150.4513    98.630613   -3051.8207 
 1627800    862.92599   -3148.1435    102.84167   -3045.3018 
 1628000    870.11874   -3142.5912    103.69888   -3038.8923 
 1628200    840.95756   -3149.6595    100.22352    -3049.436 
 1628400    879.12415   -3148.2796    104.77213   -3043.5075 
 1628600    868.91922   -3146.5171    103.55593   -3042.9612 
 1628800    851.77644    -3149.498    101.51289   -3047.9851 
 1629000    887.45375   -3148.9548    105.76483     -3043.19 
 1629200    861.80331   -3145.3233    102.70787   -3042.6154 
 1629400    859.28604   -3149.3898    102.40787   -3046.9819 
 1629600     832.1168   -3147.8862    99.169894   -3048.7163 
 1629800    923.69884   -3147.4463    110.08445   -3037.3619 
 1630000    890.83619   -3141.6358    106.16795   -3035.4678 
 1630200    853.17131   -3150.9812    101.67913    -3049.302 
 1630400    897.55867   -3149.4484    106.96912   -3042.4793 
 1630600     882.3008   -3143.8198    105.15072   -3038.6691 
 1630800    820.40106   -3143.4712    97.773638   -3045.6975 
 1631000     893.3682   -3146.5555     106.4697   -3040.0858 
 1631200    891.74952   -3146.2488    106.27679    -3039.972 
 1631400    861.37122   -3149.0105    102.65637   -3046.3541 
 1631600     911.4295   -3146.1894    108.62221   -3037.5672 
 1631800    839.49849   -3139.4314    100.04963   -3039.3818 
 1632000      889.198   -3150.6639    105.97271   -3044.6911 
 1632200     866.5407   -3150.5882    103.27246   -3047.3158 
 1632400    880.96572   -3140.4186     104.9916    -3035.427 
 1632600    903.62943   -3143.0695    107.69262   -3035.3769 
 1632800    837.46966   -3149.1434    99.807837   -3049.3355 
 1633000    856.04862   -3144.2496    102.02204   -3042.2275 
 1633200    915.98793   -3140.7916    109.16548   -3031.6261 
 1633400    859.47523   -3146.9032    102.43041   -3044.4728 
 1633600    880.66248   -3149.1712    104.95546   -3044.2158 
 1633800    859.22052   -3144.3287    102.40006   -3041.9286 
 1634000    854.16425   -3149.6893    101.79746   -3047.8918 
 1634200    886.13209   -3150.7324    105.60732   -3045.1251 
 1634400    873.15849   -3144.8556    104.06115   -3040.7945 
 1634600     897.3634   -3146.1929    106.94584    -3039.247 
 1634800    862.07139   -3148.5061    102.73982   -3045.7663 
 1635000    891.85859   -3147.9834    106.28979   -3041.6936 
 1635200    884.21073   -3150.1407    105.37834   -3044.7624 
 1635400    862.94521   -3146.6589    102.84396   -3043.8149 
 1635600    913.26318   -3150.0259    108.84075   -3041.1851 
 1635800    874.08545   -3150.6049    104.17163   -3046.4333 
 1636000    881.03182    -3150.019    104.99948   -3045.0195 
 1636200    848.42586   -3143.3114    101.11357   -3042.1978 
 1636400    889.54409   -3145.3619    106.01396   -3039.3479 
 1636600     868.2273   -3145.3189    103.47347   -3041.8455 
 1636800    890.90838   -3147.8395    106.17655    -3041.663 
 1637000    868.63574   -3142.6533    103.52214   -3039.1312 
 1637200    854.06423   -3145.2934    101.78554   -3043.5078 
 1637400    883.09088   -3147.9382    105.24488   -3042.6933 
 1637600    843.40596   -3139.3316    100.51531   -3038.8163 
 1637800    876.29544   -3143.7159    104.43501   -3039.2809 
 1638000    876.97764   -3143.8125    104.51631   -3039.2962 
 1638200    893.26451   -3148.6892    106.45735   -3042.2319 
 1638400    836.99138   -3143.2356    99.750836   -3043.4847 
 1638600    857.65837   -3141.2811    102.21388   -3039.0673 
 1638800    887.70085   -3145.4309    105.79428   -3039.6366 
 1639000    863.90791   -3150.5955    102.95869   -3047.6368 
 1639200      857.006   -3140.5432    102.13614   -3038.4071 
 1639400    880.21802   -3140.8524    104.90249   -3035.9499 
 1639600    868.07286   -3140.2462    103.45506   -3036.7911 
 1639800    926.43579   -3144.2078    110.41063   -3033.7972 
 1640000    856.69978   -3151.8117    102.09964    -3049.712 
 1640200    874.25606   -3151.3388    104.19196   -3047.1468 
 1640400    886.64324   -3140.1249    105.66824   -3034.4566 
 1640600    849.83849   -3148.2455    101.28193   -3046.9636 
 1640800    859.66616     -3155.42    102.45317   -3052.9668 
 1641000    914.75068   -3146.3771    109.01802    -3037.359 
 1641200    892.75245   -3141.0524    106.39632   -3034.6561 
 1641400    852.71283   -3150.1816    101.62449   -3048.5571 
 1641600    830.35394   -3148.8025      98.9598   -3049.8427 
 1641800    921.32492   -3139.1601    109.80153   -3029.3586 
 1642000    893.15719   -3144.2434    106.44456   -3037.7988 
 1642200    832.06328   -3151.4669    99.163516   -3052.3034 
 1642400    881.15634   -3146.0962    105.01432   -3041.0819 
 1642600    890.32382   -3141.7929    106.10688    -3035.686 
 1642800    888.77996   -3151.9815    105.92289   -3046.0586 
 1643000    843.52208   -3151.5743    100.52915   -3051.0452 
 1643200    892.84686   -3145.7586    106.40757    -3039.351 
 1643400    885.91152   -3143.5469    105.58103   -3037.9658 
 1643600    870.62778   -3150.8072    103.75955   -3047.0477 
 1643800    872.26471   -3148.8226    103.95464    -3044.868 
 1644000    906.94428   -3144.5743    108.08767   -3036.4866 
 1644200    859.86242   -3145.4126    102.47656    -3042.936 
 1644400    847.55321   -3147.9373    101.00957   -3046.9277 
 1644600    879.83417   -3145.1786    104.85675   -3040.3219 
 1644800    889.01772   -3144.2792    105.95122   -3038.3279 
 1645000    907.16814   -3145.9317    108.11435   -3037.8173 
 1645200    846.25702   -3142.7201     100.8551    -3041.865 
 1645400    855.64525   -3145.4596    101.97396   -3043.4856 
 1645600    879.64637   -3138.8628    104.83437   -3034.0284 
 1645800    864.72179   -3141.4001    103.05569   -3038.3444 
 1646000    867.35924   -3149.1474    103.37001   -3045.7774 
 1646200    889.85938   -3145.8068    106.05153   -3039.7553 
 1646400    907.03426   -3143.7872     108.0984   -3035.6888 
 1646600    864.61952   -3141.6226     103.0435   -3038.5791 
 1646800    907.11891    -3145.988    108.10849   -3037.8795 
 1647000    873.77047   -3146.1858    104.13409   -3042.0517 
 1647200    860.60764   -3142.8845    102.56537   -3040.3192 
 1647400    917.89574    -3145.414    109.39284   -3036.0212 
 1647600     861.5873   -3142.8093    102.68212   -3040.1271 
 1647800    880.44779   -3144.8955    104.92988   -3039.9657 
 1648000    900.10013   -3143.4489      107.272   -3036.1769 
 1648200    873.86547   -3144.1043    104.14541   -3039.9589 
 1648400    882.20516   -3143.3039    105.13932   -3038.1646 
 1648600     907.5135   -3147.9096    108.15551   -3039.7541 
 1648800    879.61112   -3147.2985    104.83017   -3042.4683 
 1649000    871.84779   -3139.8878    103.90495   -3035.9829 
 1649200    885.65291   -3138.5301    105.55021   -3032.9799 
 1649400    861.29581   -3147.0398    102.64739   -3044.3925 
 1649600    909.53583   -3148.0834    108.39653   -3039.6869 
 1649800     866.3976   -3141.4351    103.25541   -3038.1796 
 1650000    826.97057   -3145.3559    98.556577   -3046.7993 
 1650200    872.53898   -3143.9976    103.98732   -3040.0103 
 1650400    927.45182   -3144.9747    110.53172    -3034.443 
 1650600    837.98347   -3140.2292    99.869071   -3040.3602 
 1650800    882.86695   -3149.1769    105.21819   -3043.9588 
 1651000    890.25004    -3141.959    106.09809   -3035.8609 
 1651200    905.97722   -3143.0704    107.97242   -3035.0979 
 1651400     878.9441   -3146.6081    104.75067   -3041.8574 
 1651600    849.09218   -3145.8509    101.19298   -3044.6579 
 1651800     906.7755   -3146.5774    108.06756   -3038.5098 
 1652000    920.38754   -3148.5817    109.68981   -3038.8919 
 1652200    850.00921   -3147.8477    101.30227   -3046.5454 
 1652400    901.31718   -3148.5389    107.41705   -3041.1219 
 1652600    887.57375   -3141.4669    105.77914   -3035.6878 
 1652800    870.71993   -3147.4603    103.77053   -3043.6897 
 1653000    831.83792   -3143.0018    99.136658   -3043.8652 
 1653200    856.02641   -3137.3906    102.01939   -3035.3712 
 1653400    849.30794   -3142.2683     101.2187   -3041.0496 
 1653600    871.39544   -3146.9211    103.85104   -3043.0701 
 1653800    883.03767   -3145.2855    105.23853    -3040.047 
 1654000    865.85683   -3147.4036    103.19096   -3044.2127 
 1654200     864.3832   -3147.0899    103.01533   -3044.0746 
 1654400     883.3123   -3144.1301    105.27126   -3038.8588 
 1654600    841.83174   -3149.4441     100.3277   -3049.1164 
 1654800     893.4638   -3151.1918     106.4811   -3044.7107 
 1655000    906.95201   -3147.1286    108.08859     -3039.04 
 1655200    822.09499   -3138.4895    97.975517    -3040.514 
 1655400    918.36565   -3144.1813    109.44885   -3034.7325 
 1655600    869.75215    -3149.827    103.65519   -3046.1718 
 1655800    893.57034    -3153.696    106.49379   -3047.2022 
 1656000    889.40224      -3149.8    105.99705    -3043.803 
 1656200    868.03403   -3147.0963    103.45043   -3043.6459 
 1656400    887.86903   -3147.4889    105.81433   -3041.6745 
 1656600    866.43692   -3150.4559    103.26009   -3047.1958 
 1656800    866.78954   -3144.3888    103.30212   -3041.0867 
 1657000    910.15903   -3144.0292     108.4708   -3035.5584 
 1657200    866.93812   -3144.7982    103.31982   -3041.4784 
 1657400    856.30233    -3147.156    102.05227   -3045.1038 
 1657600    885.40836   -3147.7889    105.52107   -3042.2679 
 1657800    886.37048   -3148.1519    105.63573   -3042.5162 
 1658000    900.26879   -3150.4745     107.2921   -3043.1824 
 1658200    868.58546   -3150.8332    103.51615    -3047.317 
 1658400    883.53004   -3150.1889    105.29721   -3044.8917 
 1658600    895.07273   -3141.3845    106.67285   -3034.7116 
 1658800    919.95148   -3152.4216    109.63784   -3042.7837 
 1659000    858.72986   -3151.4298    102.34158   -3049.0882 
 1659200    924.74745    -3142.649    110.20942   -3032.4395 
 1659400    861.70353   -3149.5763    102.69598   -3046.8804 
 1659600    876.51044   -3149.4885    104.46063   -3045.0279 
 1659800     913.2942   -3140.2031    108.84444   -3031.3587 
 1660000    861.32724   -3144.0757    102.65113   -3041.4246 
 1660200    882.39868    -3146.093    105.16238   -3040.9306 
 1660400    892.74413   -3145.9911    106.39533   -3039.5958 
 1660600    914.61905   -3151.6231    109.00234   -3042.6207 
 1660800    870.84642   -3144.7108    103.78561   -3040.9252 
 1661000    880.04327   -3141.0045    104.88167   -3036.1228 
 1661200    865.66106   -3145.3118    103.16763   -3042.1441 
 1661400     891.6811   -3148.7993    106.26864   -3042.5307 
 1661600    908.62258   -3144.7813    108.28769   -3036.4937 
 1661800    856.07491   -3143.7444    102.02517   -3041.7192 
 1662000    903.55134   -3148.0874    107.68331   -3040.4041 
 1662200    861.48319   -3141.6271    102.66972   -3038.9574 
 1662400    900.56614   -3140.2372    107.32754   -3032.9096 
 1662600    903.82305   -3144.0272    107.71569   -3036.3115 
 1662800    882.36858   -3147.2518    105.15879    -3042.093 
 1663000    894.57977    -3143.792     106.6141   -3037.1779 
 1663200    899.74586   -3140.4987    107.22978   -3033.2689 
 1663400    897.36594   -3149.8817    106.94615   -3042.9355 
 1663600    884.51755    -3147.693     105.4149   -3042.2781 
 1663800     919.6559   -3147.3627    109.60262   -3037.7601 
 1664000    843.76661   -3144.3005    100.55829   -3043.7422 
 1664200    873.93274   -3146.1152    104.15343   -3041.9618 
 1664400    893.33161   -3148.9366    106.46534   -3042.4713 
 1664600    841.49347   -3145.6744    100.28739   -3045.3871 
 1664800    876.61863   -3141.3049    104.47353   -3036.8313 
 1665000      931.628   -3149.0485    111.02943    -3038.019 
 1665200    819.67848   -3150.7411    97.687522   -3053.0536 
 1665400    878.37624   -3146.3497    104.68299   -3041.6667 
 1665600    898.53576   -3144.5273    107.08556   -3037.4418 
 1665800    864.73978   -3155.0935    103.05783   -3052.0356 
 1666000    884.70174    -3149.427    105.43685   -3043.9901 
 1666200    895.18427   -3140.5461    106.68614     -3033.86 
 1666400    876.92547    -3150.484     104.5101   -3045.9739 
 1666600      876.483   -3150.5699    104.45736   -3046.1126 
 1666800    933.23005   -3148.4534    111.22035    -3037.233 
 1667000    872.57857   -3147.3893    103.99204   -3043.3973 
 1667200    905.81641   -3149.4715    107.95326   -3041.5183 
 1667400    914.14863   -3149.0376    108.94627   -3040.0913 
 1667600    873.41529   -3152.5365    104.09176   -3048.4448 
 1667800    898.83229   -3147.2315     107.1209   -3040.1106 
 1668000    911.40253   -3144.3074      108.619   -3035.6884 
 1668200    849.86839   -3155.4232    101.28549   -3054.1377 
 1668400    926.42937   -3151.1308    110.40986   -3040.7209 
 1668600    881.05571   -3143.6877    105.00233   -3038.6853 
 1668800    867.07344   -3149.9173    103.33595   -3046.5813 
 1669000    892.09231   -3148.6981    106.31765   -3042.3804 
 1669200    898.09538   -3145.8928    107.03308   -3038.8597 
 1669400    898.13562   -3145.0048    107.03788    -3037.967 
 1669600    894.88384   -3147.6879    106.65034   -3041.0376 
 1669800    849.23994   -3150.4003    101.21059   -3049.1897 
 1670000    892.30722   -3146.4462    106.34326    -3040.103 
 1670200    890.32856   -3142.9949    106.10745   -3036.8874 
 1670400    875.85007   -3148.1739    104.38193    -3043.792 
 1670600     879.5076   -3143.8505    104.81783   -3039.0326 
 1670800    909.31604   -3141.0569    108.37033   -3032.6865 
 1671000    860.85625   -3146.3691      102.595   -3043.7741 
 1671200    872.84485   -3151.0223    104.02378   -3046.9985 
 1671400    902.90999    -3145.286    107.60688   -3037.6792 
 1671600    882.19935   -3141.4102    105.13863   -3036.2716 
 1671800    899.59105   -3148.9671    107.21133   -3041.7558 
 1672000    851.49269   -3144.1942    101.47907   -3042.7151 
 1672200    895.53292   -3141.2487    106.72769    -3034.521 
 1672400    881.16755   -3145.2354    105.01566   -3040.2198 
 1672600    879.86595   -3152.6646    104.86054   -3047.8041 
 1672800    876.44615   -3147.0108    104.45297   -3042.5578 
 1673000    920.19933   -3143.5636    109.66738   -3033.8962 
 1673200     863.7577   -3146.6476    102.94079   -3043.7068 
 1673400    861.67194   -3149.6118    102.69221   -3046.9196 
 1673600    935.19258   -3143.7124    111.45424   -3032.2582 
 1673800    882.38792    -3146.513     105.1611   -3041.3519 
 1674000    904.22202   -3149.7929    107.76324   -3042.0296 
 1674200    913.68405   -3143.6553     108.8909   -3034.7644 
 1674400    839.22944   -3145.4782    100.01756   -3045.4607 
 1674600    863.62827    -3143.459    102.92536   -3040.5336 
 1674800    916.34791   -3141.6494    109.20838    -3032.441 
 1675000    864.88788   -3149.6575    103.07548   -3046.5821 
 1675200    926.37057   -3152.2286    110.40286   -3041.8258 
 1675400    874.45296   -3140.4172    104.21543   -3036.2018 
 1675600    892.43192   -3148.9132    106.35812   -3042.5551 
 1675800     890.2279   -3142.7451    106.09545   -3036.6496 
 1676000    901.66504   -3144.9296     107.4585   -3037.4711 
 1676200    869.65284   -3152.4603    103.64336    -3048.817 
 1676400    913.74236   -3149.7073    108.89785   -3040.8095 
 1676600    859.51731   -3143.7476    102.43543   -3041.3122 
 1676800    869.85017   -3143.0034    103.66688   -3039.3365 
 1677000    915.83312   -3147.7079    109.14703   -3038.5609 
 1677200    892.37316   -3146.4269    106.35112   -3040.0758 
 1677400     871.9607    -3144.214     103.9184   -3040.2956 
 1677600    897.60238   -3141.4493    106.97432   -3034.4749 
 1677800    911.07665   -3149.3313    108.58016   -3040.7511 
 1678000    872.26226   -3145.2723    103.95434    -3041.318 
 1678200    942.07966   -3149.0256    112.27503   -3036.7505 
 1678400    866.76381   -3147.5791    103.29905   -3044.2801 
 1678600     883.2921   -3146.6523    105.26886   -3041.3834 
 1678800    889.06652   -3146.5887    105.95704   -3040.6317 
 1679000    902.07377    -3147.236    107.50722   -3039.7288 
 1679200    862.11859    -3144.771    102.74544   -3042.0255 
 1679400    857.12462    -3145.056    102.15027   -3042.9057 
 1679600    886.64174   -3147.0939    105.66806   -3041.4259 
 1679800     872.2871   -3150.1116     103.9573   -3046.1543 
 1680000    898.38625   -3145.1551    107.06775   -3038.0873 
 1680200    859.49513   -3146.3236    102.43278   -3043.8908 
 1680400    872.43585   -3150.9119    103.97503   -3046.9368 
 1680600    908.78433   -3148.3875    108.30697   -3040.0805 
 1680800    910.26258   -3146.6379    108.48314   -3038.1548 
 1681000    864.91804   -3145.8693    103.07908   -3042.7902 
 1681200     874.1236   -3144.2358    104.17617   -3040.0596 
 1681400    872.88801   -3140.7985    104.02892   -3036.7696 
 1681600    887.92304   -3141.5395    105.82076   -3035.7187 
 1681800    868.60173   -3148.1007    103.51809   -3044.5826 
 1682000     891.4841   -3148.5354    106.24516   -3042.2902 
 1682200    899.29048   -3142.0451    107.17551   -3034.8696 
 1682400    890.56468   -3144.8443    106.13559   -3038.7087 
 1682600     884.2821   -3149.7789    105.38684    -3044.392 
 1682800    873.79901   -3140.7373    104.13749   -3036.5998 
 1683000    927.81031   -3144.6468    110.57444   -3034.0724 
 1683200    880.98427   -3147.5987    104.99381   -3042.6049 
 1683400    923.13082   -3151.4708    110.01675   -3041.4541 
 1683600    896.95154   -3150.8715    106.89676   -3043.9748 
 1683800    874.36103   -3147.2554    104.20447   -3043.0509 
 1684000    878.87705   -3141.4912    104.74268   -3036.7485 
 1684200    877.81692   -3145.6827    104.61634   -3041.0663 
 1684400    874.23685   -3142.0436    104.18967   -3037.8539 
 1684600    884.11863   -3142.5599    105.36736   -3037.1926 
 1684800    824.22548   -3147.3898    98.229424   -3049.1603 
 1685000     885.9631   -3143.9155    105.58718   -3038.3283 
 1685200    935.70913   -3143.6242    111.51581   -3032.1084 
 1685400    851.58471   -3153.1273    101.49004   -3051.6372 
 1685600    870.37921   -3146.0412    103.72993   -3042.3112 
 1685800    907.62804   -3138.3757    108.16916   -3030.2065 
 1686000    865.40672   -3149.4632    103.13732   -3046.3258 
 1686200    877.76311   -3146.9222    104.60992   -3042.3122 
 1686400    914.28065   -3139.6776    108.96201   -3030.7156 
 1686600     864.6108   -3149.7366    103.04246   -3046.6941 
 1686800    851.25233   -3144.2144    101.45043   -3042.7639 
 1687000    925.20962   -3143.3496     110.2645   -3033.0851 
 1687200    877.84461    -3148.077    104.61964   -3043.4574 
 1687400    906.19854   -3158.1984     107.9988   -3050.1996 
 1687600     880.5886   -3146.5646    104.94666   -3041.6179 
 1687800    948.41261   -3147.6745    113.02978   -3034.6447 
 1688000    888.69756   -3147.8893    105.91307   -3041.9762 
 1688200     903.8582   -3150.5647    107.71988   -3042.8448 
 1688400    869.96871   -3145.8854      103.681   -3042.2044 
 1688600    914.65442   -3146.2119    109.00655   -3037.2053 
 1688800    929.23483   -3143.6318    110.74421   -3032.8876 
 1689000    845.32394   -3149.1403    100.74389   -3048.3964 
 1689200     883.7063   -3149.4673    105.31822   -3044.1491 
 1689400    917.17271   -3143.2697    109.30667    -3033.963 
 1689600     880.1483   -3147.3091    104.89418   -3042.4149 
 1689800    869.56088   -3148.0824     103.6324     -3044.45 
 1690000    894.68214   -3143.0298     106.6263   -3036.4035 
 1690200    891.54943   -3149.7975    106.25295   -3043.5446 
 1690400    857.97027   -3149.9611    102.25106     -3047.71 
 1690600    927.54072   -3144.9451    110.54231   -3034.4028 
 1690800    855.29981   -3143.2234     101.9328   -3041.2906 
 1691000    897.09015   -3147.3786    106.91328   -3040.4654 
 1691200    917.77199   -3146.5021     109.3781    -3037.124 
 1691400    867.69447   -3147.5498    103.40996   -3044.1398 
 1691600    878.84569   -3146.2423    104.73894   -3041.5033 
 1691800    928.70507   -3145.1274    110.68108   -3034.4464 
 1692000    851.29823   -3148.0195     101.4559   -3046.5636 
 1692200    897.76471   -3147.7603    106.99367   -3040.7667 
 1692400    919.44118   -3147.2857    109.57703   -3037.7087 
 1692600    882.90122   -3148.6163    105.22227    -3043.394 
 1692800    891.73854   -3146.5232    106.27549   -3040.2477 
 1693000    890.37775   -3145.1313    106.11331   -3039.0179 
 1693200    855.90693   -3143.0548    102.00515   -3041.0496 
 1693400    921.34744    -3143.627    109.80421   -3033.8228 
 1693600    866.05758   -3142.6429    103.21488    -3039.428 
 1693800    856.84791    -3149.253    102.11729   -3047.1357 
 1694000    905.87465   -3142.9979     107.9602   -3035.0377 
 1694200    934.76282   -3143.5423    111.40303   -3032.1393 
 1694400    848.07233   -3146.1845    101.07144    -3045.113 
 1694600    853.01411   -3143.9714    101.66039   -3042.3111 
 1694800    916.33416   -3142.6564    109.20674   -3033.4496 
 1695000    883.50362   -3144.9935    105.29406   -3039.6994 
 1695200    878.98189   -3154.3825    104.75518   -3049.6273 
 1695400    900.91849   -3144.8379    107.36953   -3037.4683 
 1695600    881.44045   -3139.4314    105.04818   -3034.3833 
 1695800    876.67979   -3141.2676    104.48082   -3036.7867 
 1696000    927.34951   -3146.5777    110.51952   -3036.0582 
 1696200    832.21497   -3143.7681    99.181594   -3044.5865 
 1696400    921.26449   -3142.2961    109.79432   -3032.5018 
 1696600    908.54062   -3142.0908    108.27792   -3033.8129 
 1696800    828.86593   -3150.8543    98.782463   -3052.0718 
 1697000    920.39627   -3148.9315    109.69085   -3039.2407 
 1697200    920.91932   -3147.3871    109.75319   -3037.6339 
 1697400    882.62008   -3147.2922    105.18877   -3042.1035 
 1697600    911.12726    -3144.431    108.58619   -3035.8448 
 1697800    895.62822   -3147.4976    106.73905   -3040.7586 
 1698000    887.51881    -3151.533    105.77259   -3045.7605 
 1698200    919.86143   -3148.3795    109.62711   -3038.7524 
 1698400    911.98831   -3146.5416    108.68881   -3037.8528 
 1698600    884.09977   -3151.1756    105.36511   -3045.8105 
 1698800    913.72671   -3148.3494    108.89599   -3039.4534 
 1699000    912.16493   -3145.8831    108.70986   -3037.1732 
 1699200     880.2444   -3145.5261    104.90564   -3040.6204 
 1699400     890.9075   -3147.2691    106.17644   -3041.0927 
 1699600    897.83188   -3151.8833    107.00168   -3044.8816 
 1699800    899.26739   -3145.2358    107.17276    -3038.063 
 1700000    904.89476   -3143.8738    107.84342   -3036.0304 
 1700200    852.33389   -3146.7953    101.57932   -3045.2159 
 1700400    895.71054   -3152.6823    106.74886   -3045.9335 
 1700600    892.72448   -3147.5753    106.39299   -3041.1823 
 1700800    914.39788   -3148.6544    108.97598   -3039.6785 
 1701000    890.26442   -3148.1657     106.0998   -3042.0659 
 1701200    876.82928   -3150.4605    104.49863   -3045.9619 
 1701400    890.24965   -3151.5544    106.09804   -3045.4564 
 1701600    902.90561   -3146.6975    107.60635   -3039.0912 
 1701800    888.09661   -3149.7516    105.84145   -3043.9101 
 1702000    889.62917   -3148.2798     106.0241   -3042.2557 
 1702200    881.58495   -3144.6179     105.0654   -3039.5525 
 1702400    893.67029   -3147.8872    106.50571   -3041.3815 
 1702600    878.94753    -3143.879    104.75108   -3039.1279 
 1702800    918.82428   -3146.8757    109.50351   -3037.3722 
 1703000    874.37453   -3147.6239    104.20608   -3043.4179 
 1703200    880.59991   -3143.6875    104.94801   -3038.7395 
 1703400    892.89821   -3145.7326    106.41369   -3039.3189 
 1703600    882.62524   -3146.4932    105.18938   -3041.3038 
 1703800     928.9963   -3146.9694    110.71579   -3036.2536 
 1704000    873.37805   -3146.4466    104.08732   -3042.3592 
 1704200    880.40572    -3151.486    104.92486   -3046.5611 
 1704400     926.8542   -3152.3989    110.46049   -3041.9384 
 1704600    903.43411   -3151.3154    107.66934   -3043.6461 
 1704800    896.49197   -3148.7621    106.84199   -3041.9201 
 1705000    877.19494   -3141.0504    104.54221   -3036.5082 
 1705200    878.10314   -3151.6536    104.65045   -3047.0031 
 1705400    877.30216   -3151.6474    104.55499   -3047.0925 
 1705600    901.60869   -3143.0249    107.45179   -3035.5731 
 1705800    896.22387   -3149.1005    106.81004   -3042.2904 
 1706000    881.64169   -3147.3965    105.07216   -3042.3244 
 1706200    889.06262   -3150.0347    105.95658   -3044.0781 
 1706400    866.90577   -3151.6901    103.31597   -3048.3741 
 1706600    923.14457   -3149.4645    110.01839   -3039.4461 
 1706800    916.71143   -3150.0674     109.2517   -3040.8157 
 1707000    914.82847   -3154.8547    109.02729   -3045.8274 
 1707200    906.99223   -3157.4098    108.09339   -3049.3164 
 1707400    909.69344   -3152.1522    108.41531   -3043.7369 
 1707600    902.66722   -3146.7882    107.57794   -3039.2102 
 1707800    897.34077   -3148.7946    106.94315   -3041.8514 
 1708000    889.51773   -3148.9133    106.01081   -3042.9025 
 1708200    894.87512   -3148.7864     106.6493   -3042.1371 
 1708400    891.12413   -3141.8812    106.20226   -3035.6789 
 1708600    902.58428    -3139.713    107.56806    -3032.145 
 1708800     887.5305   -3149.9057    105.77398   -3044.1318 
 1709000     878.3253    -3150.433    104.67692    -3045.756 
 1709200    908.89885   -3143.1001    108.32061   -3034.7795 
 1709400    898.85069   -3148.7283     107.1231   -3041.6052 
 1709600    892.49366   -3155.9289    106.36548   -3049.5634 
 1709800    917.46624   -3143.4155    109.34166   -3034.0738 
 1710000    909.46755   -3146.5256    108.38839   -3038.1372 
 1710200    880.13726    -3149.734    104.89287   -3044.8411 
 1710400    902.98319   -3145.4953     107.6156   -3037.8797 
 1710600    873.91906   -3150.1732     104.1518   -3046.0214 
 1710800    897.71983   -3150.4211    106.98832   -3043.4328 
 1711000    912.98066   -3146.1975    108.80708   -3037.3904 
 1711200    878.57931   -3150.2978     104.7072   -3045.5906 
 1711400    874.42144   -3148.0443    104.21167   -3043.8327 
 1711600    922.84127   -3144.9238    109.98224   -3034.9416 
 1711800    895.76305    -3147.596    106.75512   -3040.8409 
 1712000    924.50946   -3150.3853    110.18105   -3040.2042 
 1712200    892.80502    -3148.203    106.40259   -3041.8004 
 1712400    919.94905   -3154.3033    109.63755   -3044.6657 
 1712600     919.7686    -3143.946    109.61605   -3034.3299 
 1712800     889.5745   -3146.0839    106.01758   -3040.0663 
 1713000      879.191   -3153.6565     104.7801   -3048.8764 
 1713200    965.08875   -3148.4493    115.01721   -3033.4321 
 1713400    903.50941   -3145.3821    107.67831   -3037.7038 
 1713600    851.26923   -3150.0609    101.45244   -3048.6085 
 1713800    880.68558   -3149.7208    104.95822   -3044.7626 
 1714000    890.57323   -3146.1542    106.13661   -3040.0176 
 1714200    868.30371   -3147.7969    103.48257   -3044.3143 
 1714400    922.24235   -3153.1509    109.91086     -3043.24 
 1714600    891.57817   -3147.2347    106.25637   -3040.9784 
 1714800     884.9431   -3146.0628    105.46562   -3040.5972 
 1715000    916.08809   -3146.4702    109.17741   -3037.2928 
 1715200    921.54997   -3150.9688    109.82835   -3041.1404 
 1715400    865.73945   -3148.5974    103.17697   -3045.4204 
 1715600    905.12901   -3145.7072    107.87133   -3037.8358 
 1715800     891.4099   -3145.9603    106.23632   -3039.7239 
 1716000    865.44671   -3145.7873    103.14208   -3042.6452 
 1716200     915.9238   -3152.3326    109.15783   -3043.1748 
 1716400    898.27578   -3150.3255    107.05458   -3043.2709 
 1716600    880.75687   -3143.6279    104.96671   -3038.6612 
 1716800    895.95269    -3146.286    106.77772   -3039.5083 
 1717000    914.24115   -3150.9103     108.9573    -3041.953 
 1717200    874.49972   -3145.9108      104.221   -3041.6898 
 1717400    888.99196   -3142.0463    105.94815   -3036.0981 
 1717600    897.20308   -3138.9279    106.92674   -3032.0011 
 1717800    896.53079   -3148.0987    106.84662   -3041.2521 
 1718000    925.62254   -3150.4878    110.31371   -3040.1741 
 1718200    948.11698   -3147.5377    112.99455   -3034.5431 
 1718400    901.80638   -3151.1559    107.47535   -3043.6805 
 1718600    891.45582   -3145.5312    106.24179   -3039.2894 
 1718800    921.09327   -3147.1458    109.77392   -3037.3719 
 1719000    884.14788   -3149.6391    105.37085   -3044.2682 
 1719200    923.03095   -3155.0105    110.00485   -3045.0056 
 1719400    896.44654    -3147.191    106.83657   -3040.3544 
 1719600    878.01795   -3141.1685    104.64029   -3036.5283 
 1719800    913.00001   -3148.4822    108.80938   -3039.6729 
 1720000    917.84664   -3146.3669    109.38699   -3036.9799 
 1720200     870.7617   -3143.6832    103.77551   -3039.9076 
 1720400    893.01192   -3148.8492    106.42724    -3042.422 
 1720600    885.88858   -3149.8106     105.5783   -3044.2323 
 1720800    919.18273   -3144.0727    109.54622   -3034.5265 
 1721000    942.59912   -3145.1506    112.33694   -3032.8137 
 1721200    869.46885   -3145.7561    103.62143   -3042.1347 
 1721400     913.4486   -3146.1893    108.86284   -3037.3265 
 1721600    880.31311   -3141.4553    104.91383   -3036.5415 
 1721800    876.51884   -3139.8131    104.46163   -3035.3515 
 1722000    949.25137   -3146.7597    113.12974   -3033.6299 
 1722200    902.25066   -3148.2602     107.5283   -3040.7319 
 1722400    922.03713   -3145.8144    109.88641    -3035.928 
 1722600    899.68303   -3140.6302    107.22229   -3033.4079 
 1722800    893.33219   -3146.7102    106.46541   -3040.2448 
 1723000    866.76763   -3148.0958    103.29951   -3044.7963 
 1723200    925.17558   -3141.5697    110.26044   -3031.3093 
 1723400    903.61189     -3143.61    107.69053   -3035.9194 
 1723600    869.47845   -3149.0764    103.62258   -3045.4538 
 1723800    900.51788    -3145.741    107.32179   -3038.4192 
 1724000    899.46412   -3146.3638     107.1962   -3039.1676 
 1724200    941.65878   -3151.9171    112.22487   -3039.6922 
 1724400    929.96857   -3150.1543    110.83166   -3039.3226 
 1724600    904.05569   -3153.5419    107.74342   -3045.7985 
 1724800    886.07432   -3151.6838    105.60044   -3046.0833 
 1725000    913.11718   -3149.8168    108.82335   -3040.9935 
 1725200    911.22947    -3145.317    108.59837   -3036.7186 
 1725400     868.1411   -3146.8675    103.46319   -3043.4043 
 1725600    875.70609   -3148.0181    104.36477   -3043.6534 
 1725800    934.01834   -3148.4748     111.3143   -3037.1605 
 1726000    922.50718   -3152.5005    109.94243   -3042.5581 
 1726200    891.12063   -3149.2085    106.20184   -3043.0067 
 1726400    875.80882    -3150.767    104.37702     -3046.39 
 1726600    897.01636   -3148.0541    106.90448   -3041.1496 
 1726800    941.98734   -3146.2926    112.26403   -3034.0285 
 1727000    869.46991    -3151.085    103.62156   -3047.4634 
 1727200      886.557    -3148.493    105.65796   -3042.8351 
 1727400    949.92329   -3150.2783    113.20982   -3037.0685 
 1727600     882.4598   -3152.6857    105.16966   -3047.5161 
 1727800    921.57224   -3149.2789      109.831   -3039.4479 
 1728000    896.66775   -3146.1062    106.86294   -3039.2432 
 1728200    868.63432   -3152.4727    103.52197   -3048.9507 
 1728400    898.46159   -3151.5513    107.07672   -3044.4746 
 1728600    946.07356   -3149.7988    112.75102   -3037.0478 
 1728800    882.28941   -3149.4781    105.14936   -3044.3288 
 1729000    908.45076   -3149.1643    108.26721   -3040.8971 
 1729200    931.66926   -3149.6538    111.03434   -3038.6194 
 1729400     886.1725   -3151.8994    105.61214   -3046.2872 
 1729600     930.0939   -3147.2977     110.8466   -3036.4511 
 1729800    918.94794    -3148.316    109.51824   -3038.7978 
 1730000    883.46492   -3154.4119    105.28945   -3049.1224 
 1730200    948.83033   -3152.7031    113.07956   -3039.6236 
 1730400    924.19138    -3148.117    110.14314   -3037.9739 
 1730600    876.94051   -3148.8133    104.51189   -3044.3014 
 1730800    884.82157   -3150.1446    105.45114   -3044.6935 
 1731000    909.03042   -3154.3325    108.33629   -3045.9962 
 1731200    884.68342    -3145.845    105.43467   -3040.4103 
 1731400     930.3778   -3147.9244    110.88043    -3037.044 
 1731600    886.76241   -3152.5146    105.68244   -3046.8322 
 1731800    924.39679   -3154.5906    110.16763    -3044.423 
 1732000    916.41974   -3146.8966    109.21694   -3037.6797 
 1732200    935.71554   -3149.4506    111.51657   -3037.9341 
 1732400     882.0397   -3154.5122     105.1196   -3049.3926 
 1732600    910.59298   -3152.8205    108.52252    -3044.298 
 1732800    932.31605   -3152.0708    111.11143   -3040.9594 
 1733000    874.37225   -3144.5324    104.20581   -3040.3266 
 1733200    944.91582   -3148.5462    112.61304   -3035.9332 
 1733400    876.49458   -3153.1032    104.45874   -3048.6444 
 1733600    902.99688    -3151.067    107.61723   -3043.4498 
 1733800     916.0104    -3140.873    109.16815   -3031.7048 
 1734000    877.29169   -3150.5858    104.55374   -3046.0321 
 1734200    897.39417   -3150.4784    106.94951   -3043.5289 
 1734400    919.53374   -3144.5374    109.58806   -3034.9494 
 1734600    889.74015   -3146.4645    106.03732   -3040.4271 
 1734800    896.22529   -3151.9441    106.81021   -3045.1339 
 1735000    906.76193   -3146.6662    108.06594   -3038.6002 
 1735200    969.89212   -3148.2041    115.58966   -3032.6144 
 1735400    854.77917   -3144.4137    101.87075    -3042.543 
 1735600    898.97515    -3149.218    107.13793   -3042.0801 
 1735800    911.10918   -3143.0515    108.58404   -3034.4674 
 1736000     864.9146   -3146.4787    103.07867      -3043.4 
 1736200    895.64383   -3147.0708    106.74091   -3040.3298 
 1736400    934.60006   -3147.2861    111.38363   -3035.9025 
 1736600     879.8794   -3150.8054    104.86214   -3045.9432 
 1736800    905.96464   -3147.9917    107.97092   -3040.0208 
 1737000    934.43695   -3148.7374    111.36419   -3037.3732 
 1737200    899.54018   -3149.9662    107.20527   -3042.7609 
 1737400    903.90869   -3149.7654     107.7259   -3042.0395 
 1737600    935.64132   -3147.4674    111.50772   -3035.9597 
 1737800    890.14502   -3145.3521    106.08557   -3039.2666 
 1738000    905.58993   -3149.1458    107.92626   -3041.2195 
 1738200    880.82645   -3147.0624    104.97501   -3042.0874 
 1738400    900.11697   -3148.3218    107.27401   -3041.0478 
 1738600    913.36614   -3147.4765    108.85302   -3038.6235 
 1738800     908.1907   -3148.8931    108.23622   -3040.6569 
 1739000    893.69292   -3148.8571     106.5084   -3042.3487 
 1739200     920.1256   -3146.5394    109.65859   -3036.8808 
 1739400    904.66507    -3145.533    107.81604   -3037.7169 
 1739600    922.54621   -3149.0118    109.94708   -3039.0647 
 1739800    910.73641   -3147.3681    108.53961   -3038.8285 
 1740000    883.02948   -3145.3642    105.23756   -3040.1267 
 1740200    912.22779   -3146.8804    108.71735    -3038.163 
 1740400    913.25049   -3150.3291    108.83923   -3041.4899 
 1740600    890.61702   -3147.4462    106.14182   -3041.3043 
 1740800    933.44845   -3148.5273    111.24638   -3037.2809 
 1741000    887.58552   -3147.1449    105.78054   -3041.3644 
 1741200     911.1803   -3153.2003    108.59251   -3044.6077 
 1741400    895.79167   -3145.1426    106.75853    -3038.384 
 1741600    952.15077   -3149.7573    113.47529    -3036.282 
 1741800    903.95542   -3155.5354    107.73147   -3047.8039 
 1742000    931.49156   -3151.1808    111.01317   -3040.1676 
 1742200    921.65825   -3140.5884    109.84125   -3030.7471 
 1742400    903.31769   -3147.6578    107.65546   -3040.0023 
 1742600    921.89979   -3151.8738    109.87004   -3042.0037 
 1742800    883.40519    -3139.523    105.28234   -3034.2406 
 1743000    913.92756   -3147.6191    108.91993   -3038.6992 
 1743200    900.27815   -3149.8129    107.29322   -3042.5197 
 1743400    906.97347   -3145.2949    108.09115   -3037.2037 
 1743600    900.28798   -3144.4727    107.29439   -3037.1783 
 1743800    919.98044   -3149.9159    109.64129   -3040.2746 
 1744000    970.42803   -3151.1075    115.65353    -3035.454 
 1744200    907.14694   -3152.8679    108.11183    -3044.756 
 1744400    923.69495    -3156.447    110.08398    -3046.363 
 1744600     947.9314   -3141.5918    112.97243   -3028.6194 
 1744800    906.02364   -3145.8617    107.97795   -3037.8838 
 1745000    864.74224    -3152.753    103.05812   -3049.6949 
 1745200    935.41565   -3144.2955    111.48083   -3032.8146 
 1745400    921.00918   -3148.4375     109.7639   -3038.6736 
 1745600    891.41619   -3153.3269    106.23707   -3047.0898 
 1745800    961.66341   -3149.1406    114.60898   -3034.5316 
 1746000    913.83434   -3150.1483    108.90882   -3041.2395 
 1746200    902.39009   -3148.3676    107.54491   -3040.8226 
 1746400    943.29533   -3144.3644    112.41991   -3031.9444 
 1746600     869.0693   -3151.2169    103.57381   -3047.6431 
 1746800    960.20171   -3152.1108    114.43478   -3037.6761 
 1747000    908.50466   -3142.0561    108.27364   -3033.7825 
 1747200    884.06345   -3153.2611    105.36078   -3047.9003 
 1747400    898.84774   -3150.6354    107.12274   -3043.5127 
 1747600    957.18301   -3147.9815    114.07502   -3033.9065 
 1747800    903.16397   -3152.7796    107.63714   -3045.1425 
 1748000    921.36488   -3150.0737    109.80629   -3040.2675 
 1748200    953.12356   -3142.5033    113.59122   -3028.9121 
 1748400    905.97658   -3150.6779    107.97234   -3042.7055 
 1748600     926.8988   -3145.7637    110.46581   -3035.2979 
 1748800    944.30212   -3145.3583     112.5399   -3032.8184 
 1749000    861.40047   -3145.7214    102.65986   -3043.0616 
 1749200    908.03267   -3144.4159    108.21738   -3036.1985 
 1749400    927.59436   -3138.9866    110.54871   -3028.4379 
 1749600    901.09736   -3148.9132    107.39085   -3041.5223 
 1749800    899.36449   -3148.9999    107.18433   -3041.8155 
 1750000    911.84186   -3142.3661    108.67136   -3033.6947 
 1750200    897.57332   -3142.4613    106.97086   -3035.4904 
 1750400    931.54137   -3148.3822     111.0191   -3037.3631 
 1750600    918.66108   -3153.8049    109.48406   -3044.3208 
 1750800    916.11408   -3150.6231    109.18051   -3041.4426 
 1751000    931.63667    -3145.959    111.03046   -3034.9285 
 1751200    925.28011    -3152.591     110.2729   -3042.3181 
 1751400    906.90748   -3149.9556    108.08329   -3041.8723 
 1751600    939.56495   -3147.8742    111.97533   -3035.8988 
 1751800    850.81417   -3142.6305    101.39821   -3041.2323 
 1752000    912.74018   -3148.8171    108.77842   -3040.0387 
 1752200    968.95465    -3148.322    115.47794   -3032.8441 
 1752400    885.43039   -3148.8344    105.52369   -3043.3107 
 1752600    906.05485   -3149.1183    107.98167   -3041.1366 
 1752800    939.30266   -3144.3399    111.94408   -3032.3958 
 1753000     869.7152   -3147.6857    103.65079   -3044.0349 
 1753200    894.24299   -3141.0725    106.57396   -3034.4985 
 1753400    944.71982   -3140.1783    112.58968   -3027.5886 
 1753600    890.59546   -3146.0284    106.13926   -3039.8892 
 1753800    906.59207   -3146.2398     108.0457   -3038.1941 
 1754000    925.60702   -3140.4815    110.31186   -3030.1696 
 1754200    914.84117   -3138.6221    109.02881   -3029.5933 
 1754400    879.41512   -3143.4077    104.80681   -3038.6009 
 1754600    894.75802   -3142.8666    106.63534   -3036.2312 
 1754800    942.57377   -3142.8058    112.33392   -3030.4719 
 1755000    900.04678    -3142.255    107.26564   -3034.9893 
 1755200    893.07803   -3141.9858    106.43512   -3035.5507 
 1755400    915.85186   -3147.0025    109.14926   -3037.8533 
 1755600    883.80282   -3150.1304    105.32972   -3044.8007 
 1755800    921.96317   -3142.5133    109.87759   -3032.6357 
 1756000     958.8079   -3145.2159    114.26867   -3030.9472 
 1756200    899.74857   -3155.5865     107.2301   -3048.3564 
 1756400    880.93919   -3145.4632    104.98844   -3040.4748 
 1756600    944.78742   -3139.5578    112.59774   -3026.9601 
 1756800    894.15522   -3149.6015     106.5635    -3043.038 
 1757000    902.05552   -3151.3774    107.50504   -3043.8723 
 1757200    945.51815   -3143.4444    112.68482   -3030.7596 
 1757400    903.47363   -3144.5136    107.67405   -3036.8396 
 1757600    883.02815   -3145.4345     105.2374   -3040.1971 
 1757800     906.3233   -3142.5719    108.01367   -3034.5582 
 1758000    963.68364   -3148.6443    114.84975   -3033.7946 
 1758200    918.18353     -3149.88    109.42714   -3040.4528 
 1758400    886.76531   -3146.4107    105.68279   -3040.7279 
 1758600    942.17157   -3145.4094    112.28599   -3033.1234 
 1758800    892.74197   -3139.0718    106.39507   -3032.6767 
 1759000    928.36339   -3142.7508    110.64036   -3032.1105 
 1759200    905.05516   -3146.0035    107.86253   -3038.1409 
 1759400    886.31081   -3143.9145    105.62862   -3038.2858 
 1759600    889.31051    -3138.866    105.98612   -3032.8799 
 1759800    927.51543   -3147.5957     110.5393   -3037.0564 
 1760000    919.79319   -3147.6734    109.61898   -3038.0544 
 1760200    927.44608   -3141.2538    110.53103   -3030.7227 
 1760400    939.21956   -3143.9511    111.93417    -3032.017 
 1760600     884.0368   -3138.9826    105.35761    -3033.625 
 1760800    911.26241   -3143.5038     108.6023   -3034.9015 
 1761000    870.05887   -3139.6754    103.69175   -3035.9836 
 1761200    916.43751   -3144.3342    109.21905   -3035.1152 
 1761400    892.05198   -3145.7277    106.31284   -3039.4149 
 1761600    917.01192   -3143.4654    109.28751   -3034.1779 
 1761800     954.3078   -3143.5022    113.73235   -3029.7698 
 1762000    904.91963   -3145.7583    107.84638   -3037.9119 
 1762200    907.84281   -3145.4951    108.19476   -3037.3004 
 1762400    905.50037   -3140.4627    107.91559   -3032.5471 
 1762600    886.17868   -3146.2199    105.61287    -3040.607 
 1762800    903.11512   -3144.7507    107.63132   -3037.1194 
 1763000    957.20962   -3144.8678    114.07819   -3030.7896 
 1763200    876.95772   -3152.5888    104.51394   -3048.0748 
 1763400    888.96745   -3144.3682    105.94523    -3038.423 
 1763600    927.45982   -3137.6737    110.53267   -3027.1411 
 1763800     869.2388    -3150.475    103.59401    -3046.881 
 1764000    916.60994   -3149.2593    109.23961   -3040.0197 
 1764200    954.82972    -3142.604    113.79456   -3028.8095 
 1764400    904.07483   -3149.6704     107.7457   -3041.9247 
 1764600    953.13556   -3152.4753    113.59265   -3038.8826 
 1764800    900.25255   -3141.0967    107.29017   -3033.8066 
 1765000    885.66833   -3149.0427    105.55205   -3043.4906 
 1765200    934.68682   -3150.2915    111.39397   -3038.8975 
 1765400    942.55139   -3142.1024    112.33125   -3029.7712 
 1765600    936.57869    -3147.548    111.61944   -3035.9285 
 1765800     890.4256   -3144.2309    106.11901   -3038.1119 
 1766000    908.99348    -3142.827    108.33189   -3034.4951 
 1766200    921.28871   -3146.2233    109.79721   -3036.4261 
 1766400    935.42368   -3146.4258    111.48179    -3034.944 
 1766600    932.11618    -3142.126    111.08761   -3031.0384 
 1766800    886.40271   -3141.7712    105.63957   -3036.1317 
 1767000    922.20289   -3147.0782    109.90616    -3037.172 
 1767200    899.93393    -3146.513    107.25219   -3039.2608 
 1767400    911.11378   -3142.3905    108.58458    -3033.806 
 1767600    907.07504   -3145.4619    108.10326   -3037.3586 
 1767800     920.0049   -3148.7508    109.64421   -3039.1066 
 1768000     908.9141   -3140.0409    108.32243   -3031.7184 
 1768200    894.22469   -3136.6008    106.57178    -3030.029 
 1768400    888.31468    -3143.548    105.86744   -3037.6806 
 1768600    950.89911   -3148.8763    113.32611   -3035.5502 
 1768800    935.28364   -3147.5566     111.4651   -3036.0915 
 1769000    946.40443   -3146.7115    112.79045    -3033.921 
 1769200    908.54295    -3140.356     108.2782   -3032.0778 
 1769400    914.35726   -3146.6097    108.97114   -3037.6385 
 1769600    881.37608   -3138.6834    105.04051   -3033.6429 
 1769800    941.40863   -3142.1724    112.19506   -3029.9773 
 1770000    879.33732   -3144.1361    104.79753   -3039.3386 
 1770200    946.89551   -3145.6148    112.84897   -3032.7658 
 1770400    906.37935   -3140.2036    108.02035   -3032.1832 
 1770600    906.33103   -3137.9806    108.01459    -3029.966 
 1770800    923.22525   -3135.5501      110.028   -3025.5221 
 1771000    923.38859   -3144.5126    110.04747   -3034.4652 
 1771200     919.8786    -3147.244    109.62916   -3037.6148 
 1771400    932.28329   -3138.9944    111.10752   -3027.8869 
 1771600    954.14854   -3146.0587    113.71338   -3032.3454 
 1771800     871.4951   -3146.0493    103.86292   -3042.1864 
 1772000    942.47632   -3141.1795    112.32231   -3028.8572 
 1772200    956.42223   -3144.0149    113.98435   -3030.0306 
 1772400    921.94505   -3148.2342    109.87543   -3038.3588 
 1772600    910.90317   -3143.1772    108.55948   -3034.6177 
 1772800    879.66095   -3145.3046     104.8361   -3040.4685 
 1773000    938.08481    -3139.784    111.79893   -3027.9851 
 1773200    930.80991   -3139.0809    110.93193    -3028.149 
 1773400    855.30501   -3145.5893    101.93342   -3043.6559 
 1773600    900.45398   -3138.4646    107.31417   -3031.1504 
 1773800    989.80913   -3139.4054    117.96333   -3021.4421 
 1774000    884.87817   -3147.8438    105.45788    -3042.386 
 1774200     895.8205   -3141.2398    106.76196   -3034.4778 
 1774400    925.01584   -3133.5694     110.2414    -3023.328 
 1774600    909.36954   -3146.3171    108.37671   -3037.9404 
 1774800    912.63567   -3144.8871    108.76596   -3036.1211 
 1775000    880.66067   -3139.1152    104.95525     -3034.16 
 1775200    932.20631    -3145.002    111.09835   -3033.9036 
 1775400    909.73508   -3141.5545    108.42027   -3033.1343 
 1775600    963.97914   -3150.4478    114.88496   -3035.5628 
 1775800    896.59539   -3144.5922    106.85431   -3037.7379 
 1776000    922.48348   -3137.0921     109.9396   -3027.1525 
 1776200    975.70836   -3148.3132    116.28283   -3032.0304 
 1776400    886.52757   -3145.9391    105.65445   -3040.2846 
 1776600    918.14643   -3145.9628    109.42272     -3036.54 
 1776800    895.36445   -3142.8181    106.70761   -3036.1105 
 1777000    914.01544   -3140.2857     108.9304   -3031.3553 
 1777200    926.13271    -3138.572    110.37451   -3028.1975 
 1777400    923.84251    -3147.339    110.10157   -3037.2375 
 1777600    870.61651   -3144.2884    103.75821   -3040.5302 
 1777800    924.93649   -3144.5383    110.23195   -3034.3063 
 1778000    892.89945    -3141.852    106.41384   -3035.4382 
 1778200    967.11027   -3144.8219    115.25813   -3029.5638 
 1778400    913.21931   -3143.9952    108.83552   -3035.1597 
 1778600    923.30446   -3148.2648    110.03744   -3038.2273 
 1778800    908.17267   -3140.1416    108.23407   -3031.9075 
 1779000    914.22026   -3142.0025    108.95481   -3033.0477 
 1779200    872.11264   -3144.6003    103.93651   -3040.6638 
 1779400    925.68463   -3141.5074    110.32111   -3031.1863 
 1779600    926.53369    -3142.834     110.4223   -3032.4117 
 1779800     913.4542   -3145.8952    108.86351   -3037.0317 
 1780000    921.40679   -3142.5185    109.81128   -3032.7072 
 1780200    953.65503   -3143.9914    113.65456   -3030.3368 
 1780400    916.79544    -3139.773    109.26171   -3030.5113 
 1780600    935.91636   -3141.2107     111.5405   -3029.6702 
 1780800    904.31766   -3141.0524    107.77464   -3033.2777 
 1781000     925.6694    -3144.497    110.31929   -3034.1777 
 1781200    923.10718   -3145.9997    110.01393   -3035.9858 
 1781400    912.41279   -3142.1817     108.7394   -3033.4423 
 1781600    920.77683   -3142.8873    109.73621   -3033.1511 
 1781800    919.43882   -3148.6847    109.57675    -3039.108 
 1782000    904.55349   -3139.0051    107.80274   -3031.2024 
 1782200    950.85785   -3145.6717     113.3212   -3032.3505 
 1782400    915.30409   -3149.4798    109.08398   -3040.3958 
 1782600    925.77701    -3145.916    110.33212   -3035.5839 
 1782800    945.26529   -3147.0074    112.65469   -3034.3528 
 1783000    963.09279   -3145.6933    114.77933   -3030.9139 
 1783200    927.91114   -3142.6834    110.58646    -3032.097 
 1783400    939.48635   -3147.2983    111.96597   -3035.3323 
 1783600    921.98416   -3149.7895    109.88009   -3039.9095 
 1783800    900.74026   -3144.0069    107.34829   -3036.6587 
 1784000    969.08629   -3147.5395    115.49362   -3032.0459 
 1784200     925.6796    -3145.453    110.32051   -3035.1325 
 1784400    876.78568   -3146.3877    104.49344   -3041.8943 
 1784600    906.00437    -3141.576    107.97566   -3033.6004 
 1784800    902.09598   -3135.3564    107.50986   -3027.8465 
 1785000    947.24806   -3142.8194    112.89099   -3029.9284 
 1785200    918.09541   -3152.9425    109.41664   -3043.5259 
 1785400    887.70906   -3143.7466    105.79526   -3037.9514 
 1785600    955.37507   -3140.3408    113.85955   -3026.4812 
 1785800    903.53229   -3140.0987    107.68104   -3032.4177 
 1786000    914.91403    -3148.964    109.03749   -3039.9265 
 1786200    921.95686   -3143.8307    109.87684   -3033.9539 
 1786400    944.90521   -3142.8166    112.61177   -3030.2049 
 1786600    924.45137   -3145.5495    110.17413   -3035.3754 
 1786800     911.5777   -3150.0492    108.63987   -3041.4093 
 1787000    900.61634   -3147.0893    107.33352   -3039.7558 
 1787200    920.27604   -3142.0517    109.67652   -3032.3752 
 1787400    924.26552   -3143.6148    110.15198   -3033.4628 
 1787600    923.67847   -3149.0238    110.08202   -3038.9418 
 1787800    941.96124   -3149.6342    112.26092   -3037.3733 
 1788000    954.32657   -3145.2283    113.73459   -3031.4938 
 1788200    927.89203   -3144.8244    110.58418   -3034.2403 
 1788400    944.06796   -3145.7214    112.51199   -3033.2094 
 1788600    922.24825   -3136.0315    109.91157     -3026.12 
 1788800    915.40835   -3142.8608     109.0964   -3033.7644 
 1789000    930.83473   -3153.0895    110.93488   -3042.1547 
 1789200    948.34937   -3146.5333    113.02224   -3033.5111 
 1789400    932.53501   -3143.4554    111.13752   -3032.3179 
 1789600    909.65591   -3147.3519    108.41084   -3038.9411 
 1789800    952.68723    -3152.432    113.53922   -3038.8928 
 1790000       923.82   -3147.2415    110.09888   -3037.1426 
 1790200    907.72483   -3149.5894     108.1807   -3041.4087 
 1790400      960.249   -3148.2307    114.44041   -3033.7903 
 1790600    922.42534   -3147.2115    109.93267   -3037.2788 
 1790800    933.88425   -3146.8105    111.29832   -3035.5122 
 1791000    925.73098   -3144.6881    110.32663   -3034.3615 
 1791200    959.07708   -3144.5855    114.30075   -3030.2847 
 1791400    921.28991   -3145.1211    109.79735   -3035.3238 
 1791600    939.47902   -3145.5454    111.96509   -3033.5803 
 1791800    907.59433   -3137.2986    108.16514   -3029.1334 
 1792000     928.4427   -3146.4176    110.64981   -3035.7678 
 1792200    892.87831   -3144.1629    106.41132   -3037.7516 
 1792400    948.93064   -3144.4419    113.09152   -3031.3504 
 1792600    953.16904   -3144.2849    113.59664   -3030.6883 
 1792800    890.35058   -3144.0951    106.11007   -3037.9851 
 1793000    938.24663   -3142.5689    111.81822   -3030.7507 
 1793200     966.7255    -3140.124    115.21227   -3024.9117 
 1793400    921.46106   -3140.5599    109.81775   -3030.7422 
 1793600    884.48799   -3145.6784    105.41138    -3040.267 
 1793800    929.34616   -3142.3079    110.75748   -3031.5504 
 1794000    940.43189   -3142.0413    112.07865   -3029.9626 
 1794200    915.49643   -3142.8033     109.1069   -3033.6964 
 1794400    914.83852   -3141.9768    109.02849   -3032.9483 
 1794600    911.18673   -3142.9699    108.59328   -3034.3766 
 1794800    970.70542    -3148.711    115.68659   -3033.0244 
 1795000    916.31807   -3138.5947    109.20482   -3029.3899 
 1795200    952.65551   -3141.5909    113.53544   -3028.0555 
 1795400    909.47614   -3144.2364    108.38941   -3035.8469 
 1795600     935.7101   -3146.6876    111.51592   -3035.1716 
 1795800    916.40828   -3138.1399    109.21557   -3028.9243 
 1796000    911.53469   -3141.3069    108.63475   -3032.6722 
 1796200    906.10559   -3150.3243    107.98772   -3042.3366 
 1796400    898.49555   -3142.0711    107.08077   -3034.9903 
 1796600    949.70738   -3144.1212    113.18409   -3030.9371 
 1796800    948.15455    -3146.632    112.99902    -3033.633 
 1797000     948.1091   -3145.8707    112.99361   -3032.8771 
 1797200    917.68027    -3145.903    109.36717   -3036.5358 
 1797400    901.06428    -3140.523    107.38691   -3033.1361 
 1797600      975.571   -3141.8111    116.26646   -3025.5446 
 1797800    945.57462   -3147.0183    112.69155   -3034.3267 
 1798000    927.45953   -3150.0475    110.53264   -3039.5148 
 1798200    972.37768   -3144.5298    115.88588   -3028.6439 
 1798400    919.68034    -3140.613    109.60553   -3031.0074 
 1798600    954.54926   -3146.8978    113.76113   -3033.1366 
 1798800    922.52347   -3143.6913    109.94437   -3033.7469 
 1799000    927.85121   -3147.1413    110.57932    -3036.562 
 1799200    942.36305   -3142.0884    112.30881   -3029.7796 
 1799400    935.94077   -3146.8034    111.54341     -3035.26 
 1799600    935.68744   -3153.4726    111.51322   -3041.9594 
 1799800    923.50858   -3142.0297    110.06177   -3031.9679 
 1800000    963.31882   -3141.3104    114.80627   -3026.5041 
 1800200    884.46814   -3145.9827    105.40901   -3040.5737 
 1800400    945.62979   -3147.5688    112.69813   -3034.8707 
 1800600    969.01951   -3147.9007    115.48566   -3032.4151 
 1800800    893.71986   -3144.9018    106.51161   -3038.3902 
 1801000    964.08469   -3143.6203    114.89754   -3028.7227 
 1801200    940.74553   -3140.7722    112.11603   -3028.6562 
 1801400    944.62516   -3151.3706     112.5784   -3038.7922 
 1801600    963.46334   -3145.1625    114.82349    -3030.339 
 1801800    936.92538   -3143.7844    111.66076   -3032.1236 
 1802000    875.39964   -3143.0889    104.32825   -3038.7606 
 1802200      974.199   -3146.7239    116.10295   -3030.6209 
 1802400    937.25022   -3148.4883    111.69947   -3036.7888 
 1802600    915.71767    -3145.751    109.13327   -3036.6178 
 1802800    955.63142   -3142.1784     113.8901   -3028.2883 
 1803000    943.89054   -3145.7746    112.49085   -3033.2837 
 1803200     925.7447   -3140.7114    110.32827   -3030.3831 
 1803400    960.20167   -3148.2721    114.43477   -3033.8373 
 1803600    917.88902   -3149.8988    109.39204   -3040.5068 
 1803800    1002.4281    -3145.513    119.46723   -3026.0458 
 1804000    956.19631   -3142.3591    113.95742   -3028.4017 
 1804200    911.43182   -3147.5721    108.62249   -3038.9497 
 1804400    959.64778   -3147.0632    114.36876   -3032.6944 
 1804600    943.23806   -3145.2485    112.41309   -3032.8354 
 1804800    924.93749   -3143.7916    110.23206   -3033.5595 
 1805000    915.25254   -3142.2638    109.07783   -3033.1859 
 1805200    951.79426    -3143.421     113.4328   -3029.9882 
 1805400    925.83021   -3137.2024    110.33846   -3026.8639 
 1805600    919.75989   -3140.0041    109.61501   -3030.3891 
 1805800    960.53583   -3142.8718     114.4746   -3028.3972 
 1806000    922.18005   -3138.2635    109.90344   -3028.3601 
 1806200     955.3211   -3143.6392    113.85312    -3029.786 
 1806400    883.26403   -3137.3965    105.26551    -3032.131 
 1806600    959.90817   -3139.9689     114.3998   -3025.5691 
 1806800    915.49881   -3138.6028    109.10718   -3029.4956 
 1807000    900.23809   -3140.1133    107.28844   -3032.8248 
 1807200    970.89324   -3144.2197    115.70897   -3028.5107 
 1807400    913.11749   -3140.6747    108.82338   -3031.8513 
 1807600    916.08333   -3140.7084    109.17684   -3031.5315 
 1807800    933.37486   -3144.0157    111.23761   -3032.7781 
 1808000    939.63101   -3148.4466    111.98321   -3036.4634 
 1808200    938.02584   -3140.7257    111.79191   -3028.9338 
 1808400    910.66755   -3139.7103     108.5314   -3031.1789 
 1808600    935.90668   -3144.2647    111.53935   -3032.7253 
 1808800    937.97805   -3143.5034    111.78621   -3031.7172 
 1809000    909.38802   -3141.1955    108.37891   -3032.8165 
 1809200    920.59745   -3140.3976    109.71483   -3030.6828 
 1809400    940.65365   -3135.6095    112.10508   -3023.5044 
 1809600    914.85362   -3139.4224    109.03029   -3030.3921 
 1809800    911.37557   -3142.6349    108.61578   -3034.0191 
 1810000    957.55666   -3143.0284    114.11955   -3028.9089 
 1810200    944.14337    -3145.112    112.52098   -3032.5911 
 1810400    947.50299   -3145.8064    112.92137    -3032.885 
 1810600    932.66501   -3145.4736    111.15301   -3034.3206 
 1810800    896.70848   -3143.2403    106.86779   -3036.3726 
 1811000    955.64437   -3145.6626    113.89164   -3031.7709 
 1811200     957.7567   -3139.3227    114.14339   -3025.1793 
 1811400    905.88821   -3134.5248    107.96181    -3026.563 
 1811600     961.7311   -3145.0457    114.61705   -3030.4287 
 1811800    929.17183   -3145.2805     110.7367   -3034.5438 
 1812000    901.14729    -3135.689     107.3968   -3028.2922 
 1812200    995.38667   -3140.8702    118.62805   -3022.2422 
 1812400    920.22735   -3150.0133    109.67072   -3040.3426 
 1812600    883.77201   -3145.7447    105.32605   -3040.4187 
 1812800     970.9037   -3136.0435    115.71022   -3020.3333 
 1813000    901.16379    -3140.006    107.39877   -3032.6072 
 1813200    872.84375   -3146.6175    104.02364   -3042.5939 
 1813400    952.84043   -3143.5273    113.55748   -3029.9698 
 1813600    948.11611   -3145.3284    112.99444   -3032.3339 
 1813800     897.8155   -3145.3498    106.99972     -3038.35 
 1814000    907.95111   -3135.6928    108.20766   -3027.4851 
 1814200    957.16853   -3139.7324    114.07329   -3025.6591 
 1814400    917.00413   -3144.6274    109.28658   -3035.3408 
 1814600    923.46031   -3142.2659    110.05602   -3032.2099 
 1814800    973.23394   -3147.9071    115.98793   -3031.9192 
 1815000    921.70471   -3144.1544    109.84679   -3034.3076 
 1815200    947.51143   -3143.4245    112.92238   -3030.5022 
 1815400    944.61426   -3143.8834     112.5771   -3031.3063 
 1815600    928.68693   -3144.1791    110.67891   -3033.5001 
 1815800     927.1109   -3143.1971    110.49109    -3032.706 
 1816000    950.56294   -3144.4673    113.28605   -3031.1812 
 1816200    882.29252   -3137.0625    105.14973   -3031.9128 
 1816400    948.75761   -3135.2524     113.0709   -3022.1815 
 1816600    900.90265   -3141.2607    107.36764    -3033.893 
 1816800    879.22726   -3137.6962    104.78442   -3032.9118 
 1817000    935.92027   -3137.8231    111.54097   -3026.2821 
 1817200    912.91554   -3144.2497    108.79932   -3035.4503 
 1817400    946.79757   -3138.4667     112.8373   -3025.6294 
 1817600    986.83399   -3138.7672    117.60876   -3021.1584 
 1817800     940.4437   -3148.0103    112.08006   -3035.9302 
 1818000    902.90183   -3140.0228     107.6059   -3032.4169 
 1818200    954.36616   -3137.6057    113.73931   -3023.8664 
 1818400    929.09109   -3142.9979    110.72708   -3032.2708 
 1818600    927.01373   -3145.2522    110.47951   -3034.7727 
 1818800    954.54203   -3142.7499    113.76027   -3028.9896 
 1819000    965.21498   -3143.8766    115.03225   -3028.8444 
 1819200    947.48609   -3145.9994    112.91936   -3033.0801 
 1819400    926.08224   -3144.2703    110.36849   -3033.9018 
 1819600    949.21853   -3139.6072    113.12583   -3026.4813 
 1819800    910.22444   -3140.0168     108.4786   -3031.5382 
 1820000    935.45497   -3137.5588    111.48552   -3026.0733 
 1820200    943.87231   -3144.9022    112.48868   -3032.4135 
 1820400    929.23747    -3147.286    110.74453   -3036.5415 
 1820600    998.57569   -3143.3388    119.00811   -3024.3307 
 1820800    927.59698   -3139.9437    110.54902   -3029.3947 
 1821000    953.89515   -3147.6463    113.68318   -3033.9631 
 1821200    975.09627   -3144.2501    116.20988   -3028.0402 
 1821400    918.85371   -3144.0147    109.50701   -3034.5077 
 1821600    931.80128   -3141.0152    111.05008   -3029.9651 
 1821800    929.78301   -3144.0873    110.80954   -3033.2778 
 1822000    919.25933   -3142.3559    109.55535   -3032.8006 
 1822200    958.13542   -3142.3227    114.18852   -3028.1341 
 1822400    904.75593   -3142.4044    107.82687   -3034.5775 
 1822600    931.07513   -3145.3134    110.96354   -3034.3499 
 1822800     1005.144   -3145.7001     119.7909   -3025.9092 
 1823000    911.97399   -3144.6126     108.6871   -3035.9255 
 1823200    901.69856   -3140.7416     107.4625   -3033.2791 
 1823400    1009.2997   -3136.3755    120.28617   -3016.0894 
 1823600    909.73625   -3146.9146    108.42041   -3038.4942 
 1823800    906.69546   -3145.4185    108.05802   -3037.3605 
 1824000    980.69497   -3140.1473    116.87712   -3023.2702 
 1824200    917.03315   -3143.3152    109.29004   -3034.0252 
 1824400    935.47574   -3143.5211    111.48799   -3032.0331 
 1824600    967.59087    -3143.251     115.3154   -3027.9356 
 1824800    913.26379   -3144.5776    108.84082   -3035.7368 
 1825000    948.54841   -3139.2751    113.04596   -3026.2291 
 1825200    922.03632   -3139.7663    109.88631   -3029.8799 
 1825400    910.08012   -3144.4072    108.46139   -3035.9458 
 1825600     960.3049   -3141.3941    114.44708    -3026.947 
 1825800    961.12144   -3142.2761    114.54439   -3027.7317 
 1826000    896.50941   -3146.5546    106.84407   -3039.7106 
 1826200    942.43536    -3143.581    112.31742   -3031.2636 
 1826400    937.86745   -3137.4271    111.77303   -3025.6541 
 1826600     910.9047   -3143.3098    108.55967   -3034.7502 
 1826800    951.87893   -3145.8769    113.44289    -3032.434 
 1827000    945.54027   -3146.9987    112.68746   -3034.3112 
 1827200    929.61088   -3142.1001    110.78903   -3031.3111 
 1827400    955.36374   -3143.2838     113.8582   -3029.4256 
 1827600    929.58735   -3143.3468    110.78622   -3032.5606 
 1827800    954.47688   -3146.5224    113.75251   -3032.7699 
 1828000    901.34075   -3141.4972    107.41986   -3034.0773 
 1828200    935.58268   -3139.1358    111.50074   -3027.6351 
 1828400    957.29648   -3149.8029    114.08854   -3035.7144 
 1828600    941.78777   -3151.8277    112.24024   -3039.5874 
 1828800    975.73214   -3148.1693    116.28566   -3031.8836 
 1829000    926.13443   -3135.8957    110.37471    -3025.521 
 1829200    954.77939   -3144.4285    113.78856   -3030.6399 
 1829400     888.2326   -3146.5562    105.85765   -3040.6986 
 1829600    959.37517   -3146.3255    114.33627   -3031.9892 
 1829800    946.10199   -3144.4869     112.7544   -3031.7325 
 1830000    989.67227   -3148.5311    117.94702   -3030.5841 
 1830200    950.22126   -3146.2805    113.24533   -3033.0352 
 1830400    935.79212   -3141.5931     111.5257   -3030.0674 
 1830600    946.49752   -3138.6075    112.80154   -3025.8059 
 1830800    918.61282   -3142.6441     109.4783   -3033.1658 
 1831000    968.42607   -3152.0519    115.41494    -3036.637 
 1831200     963.6975   -3145.9748     114.8514   -3031.1234 
 1831400    924.22442   -3143.2279    110.14708   -3033.0808 
 1831600    921.37491     -3144.55    109.80748   -3034.7425 
 1831800    950.91326   -3146.0635     113.3278   -3032.7357 
 1832000    953.75952   -3144.7867    113.66701   -3031.1197 
 1832200     895.9432   -3140.7598    106.77659   -3033.9832 
 1832400    935.16468   -3144.0317    111.45092   -3032.5808 
 1832600     980.2951   -3143.1747    116.82947   -3026.3452 
 1832800    935.94266    -3144.768    111.54364   -3033.2243 
 1833000    902.96818   -3145.4942    107.61381   -3037.8804 
 1833200    954.13095    -3141.977    113.71128   -3028.2657 
 1833400    973.89938   -3143.5301    116.06724   -3027.4628 
 1833600    930.30169   -3142.6534    110.87136    -3031.782 
 1833800    913.47151    -3134.109    108.86557   -3025.2434 
 1834000     932.6427   -3137.8569    111.15035   -3026.7065 
 1834200    958.70346   -3148.1244    114.25622   -3033.8681 
 1834400    937.49845   -3144.2433    111.72905   -3032.5142 
 1834600     953.3623    -3138.536    113.61967   -3024.9163 
 1834800     957.6036   -3144.7313    114.12514   -3030.6062 
 1835000    925.25016   -3142.8886    110.26933   -3032.6193 
 1835200    962.52646   -3141.8269    114.71184    -3027.115 
 1835400    951.45571     -3150.12    113.39245   -3036.7275 
 1835600    960.52657    -3141.383     114.4735   -3026.9096 
 1835800    972.68681    -3138.237    115.92273   -3022.3143 
 1836000    929.63174   -3149.0148    110.79152   -3038.2233 
 1836200    924.47719   -3144.4294    110.17721   -3034.2522 
 1836400    926.94135   -3137.8553    110.47088   -3027.3844 
 1836600    970.73787   -3145.6958    115.69046   -3030.0054 
 1836800    930.62595   -3143.9265       110.91   -3033.0165 
 1837000    955.70868   -3143.9014    113.89931   -3030.0021 
 1837200    923.89923   -3142.0491    110.10833   -3031.9408 
 1837400    953.41026    -3139.837    113.62539   -3026.2116 
 1837600    945.02601   -3138.4183    112.62617   -3025.7922 
 1837800    904.80256   -3143.5816    107.83243   -3035.7492 
 1838000    942.33658   -3143.0312    112.30565   -3030.7256 
 1838200    956.81662    -3133.705    114.03135   -3019.6737 
 1838400    934.85999   -3145.9887    111.41461   -3034.5741 
 1838600     949.7214   -3147.3747    113.18576   -3034.1889 
 1838800    968.72354    -3145.253    115.45039   -3029.8026 
 1839000     903.2711   -3138.6289    107.64991    -3030.979 
 1839200    946.35702     -3140.01     112.7848   -3027.2252 
 1839400    956.64044   -3147.2547    114.01035   -3033.2443 
 1839600    945.12035   -3147.4634    112.63741    -3034.826 
 1839800    948.15698   -3136.0653    112.99931    -3023.066 
 1840000    955.00722   -3138.7078    113.81571   -3024.8921 
 1840200    906.84155   -3145.3088    108.07543   -3037.2334 
 1840400     928.6544   -3140.1294    110.67504   -3029.4544 
 1840600    967.44645   -3136.6599    115.29819   -3021.3617 
 1840800    941.07716   -3147.5184    112.15556   -3035.3628 
 1841000    922.42846    -3145.087    109.93304   -3035.1539 
 1841200    938.30343   -3140.4761    111.82499   -3028.6511 
 1841400    959.72971   -3139.6116    114.37853   -3025.2331 
 1841600    951.52344   -3145.2626    113.40052    -3031.862 
 1841800    920.29352   -3146.3033    109.67861   -3036.6247 
 1842000    951.83945   -3142.2264    113.43818   -3028.7883 
 1842200    943.29416   -3136.2381    112.41977   -3023.8183 
 1842400    947.50884   -3141.3292    112.92207   -3028.4071 
 1842600    921.75668   -3142.5068    109.85298   -3032.6538 
 1842800    967.36368   -3142.9007    115.28833   -3027.6124 
 1843000     917.8777   -3139.1763    109.39069   -3029.7856 
 1843200    940.61173   -3137.7649    112.10009   -3025.6648 
 1843400    957.61272   -3138.7359    114.12623   -3024.6097 
 1843600    917.13765   -3141.0948     109.3025   -3031.7923 
 1843800     934.8354   -3137.4127    111.41168   -3026.0011 
 1844000    949.03548   -3135.0551    113.10401   -3021.9511 
 1844200    933.68954   -3140.1603    111.27511   -3028.8852 
 1844400    983.39183   -3142.2277    117.19853   -3025.0292 
 1844600    925.76612   -3140.9055    110.33082   -3030.5747 
 1844800    896.17351   -3141.8238    106.80404   -3035.0197 
 1845000    970.55483   -3143.8965    115.66864   -3028.2278 
 1845200    935.33783    -3144.101    111.47156   -3032.6295 
 1845400    954.79475   -3145.7907    113.79039   -3032.0004 
 1845600      969.261   -3140.2125    115.51445    -3024.698 
 1845800    931.20653   -3140.4225     110.9792   -3029.4433 
 1846000    961.90361   -3144.6159    114.63761   -3029.9783 
 1846200    942.77034   -3142.0552    112.35735   -3029.6978 
 1846400     951.3517   -3140.0146    113.38005   -3026.6346 
 1846600    930.11627   -3140.3965    110.84926   -3029.5472 
 1846800    973.36933   -3144.2707    116.00407   -3028.2667 
 1847000    953.44567   -3146.5792    113.62961   -3032.9495 
 1847200    927.33673    -3142.642      110.518    -3032.124 
 1847400    969.11996   -3144.1837    115.49764   -3028.6861 
 1847600     950.9455   -3138.2204    113.33164   -3024.8887 
 1847800    923.62593   -3138.5742    110.07576   -3028.4984 
 1848000    942.90608   -3143.4811    112.37352   -3031.1075 
 1848200    960.62356   -3137.1692    114.48505   -3022.6841 
 1848400    934.91773   -3137.4609    111.42149   -3026.0394 
 1848600    965.64719   -3143.9954    115.08376   -3028.9116 
 1848800    922.46844   -3138.6483    109.93781   -3028.7105 
 1849000    967.01402     -3138.69    115.24665   -3023.4434 
 1849200    935.42104    -3140.201    111.48147   -3028.7195 
 1849400    923.51357   -3142.0719    110.06236   -3032.0095 
 1849600    966.34482   -3138.2506     115.1669   -3023.0837 
 1849800    975.58855   -3141.0875    116.26855    -3024.819 
 1850000    933.13233   -3141.8073    111.20871   -3030.5986 
 1850200    934.08934   -3140.5452    111.32276   -3029.2225 
 1850400    956.39585   -3136.1957     113.9812   -3022.2145 
 1850600    960.31279   -3141.6527    114.44802   -3027.2047 
 1850800     938.2021   -3145.1648    111.81291   -3033.3519 
 1851000    991.34485   -3139.0741    118.14635   -3020.9277 
 1851200    975.55234   -3139.1937    116.26423   -3022.9295 
 1851400    926.50028   -3144.3816    110.41832   -3033.9633 
 1851600    979.81593   -3138.9229    116.77236   -3022.1505 
 1851800    955.24379   -3137.7204     113.8439   -3023.8765 
 1852000    927.18329   -3144.7114    110.49971   -3034.2117 
 1852200     966.7472   -3145.5361    115.21486   -3030.3213 
 1852400    940.48397   -3145.4586    112.08486   -3033.3737 
 1852600    944.33361   -3142.5698    112.54365   -3030.0262 
 1852800    957.33354    -3139.248    114.09296   -3025.1551 
 1853000     913.8177   -3143.4298    108.90683    -3034.523 
 1853200    954.73422    -3142.402    113.78318   -3028.6188 
 1853400    999.24697   -3140.4359    119.08811   -3021.3477 
 1853600     909.4125   -3148.1549    108.38183   -3039.7731 
 1853800    948.61156   -3144.7633    113.05349   -3031.7099 
 1854000    976.45736   -3136.7241    116.37209    -3020.352 
 1854200    922.97505   -3141.4286    109.99819   -3031.4304 
 1854400    966.97007   -3147.7152    115.24142   -3032.4737 
 1854600    973.63009   -3141.2082    116.03514   -3025.1731 
 1854800    943.07652   -3142.6098    112.39384    -3030.216 
 1855000    952.12995   -3140.1167     113.4728   -3026.6439 
 1855200    920.72087   -3140.2346    109.72954   -3030.5051 
 1855400    968.52942   -3148.8513    115.42726    -3033.424 
 1855600    967.74476   -3143.2788    115.33374   -3027.9451 
 1855800    966.93687   -3143.5588    115.23746   -3028.3214 
 1856000    975.53283   -3145.0134    116.26191   -3028.7515 
 1856200    950.42386   -3144.6729    113.26948   -3031.4034 
 1856400    954.75624   -3143.6509     113.7858   -3029.8651 
 1856600    976.61852   -3142.8737     116.3913   -3026.4824 
 1856800    974.51852   -3146.3211    116.14103   -3030.1801 
 1857000    939.58345   -3144.4867    111.97754   -3032.5091 
 1857200    967.24184   -3143.0764    115.27381   -3027.8026 
 1857400    980.38003   -3143.9967    116.83959   -3027.1571 
 1857600     917.6456   -3143.3573    109.36303   -3033.9943 
 1857800    960.51034   -3146.4212    114.47156   -3031.9496 
 1858000    957.11964   -3147.3492    114.06746   -3033.2817 
 1858200    932.12006   -3141.6278    111.08807   -3030.5397 
 1858400    1000.5077    -3142.285    119.23836   -3023.0466 
 1858600     939.0695   -3143.8134    111.91629   -3031.8971 
 1858800    938.20992   -3148.5054    111.81384   -3036.6915 
 1859000    937.96938   -3139.2202    111.78518    -3027.435 
 1859200    930.65551   -3139.8069    110.91353   -3028.8934 
 1859400    930.65001   -3141.1922    110.91287   -3030.2793 
 1859600    977.14398    -3140.193    116.45392    -3023.739 
 1859800    937.30112   -3148.0718    111.70554   -3036.3663 
 1860000    934.76102   -3150.8947    111.40281   -3039.4919 
 1860200     992.8661   -3143.4986    118.32765    -3025.171 
 1860400    922.81629   -3141.7499    109.97926   -3031.7706 
 1860600      924.559   -3140.9357    110.18696   -3030.7488 
 1860800    975.16802   -3141.9845    116.21843    -3025.766 
 1861000    938.33313    -3145.412    111.82853   -3033.5835 
 1861200    923.62074   -3142.5277    110.07514   -3032.4525 
 1861400    978.22348   -3140.1811    116.58257   -3023.5985 
 1861600    977.68015   -3137.8592    116.51782   -3021.3414 
 1861800    927.37995   -3144.5617    110.52315   -3034.0385 
 1862000    947.40077   -3142.7085    112.90919   -3029.7993 
 1862200    984.66838   -3138.9412    117.35066   -3021.5905 
 1862400    951.02029    -3143.844    113.34056   -3030.5035 
 1862600    925.86053   -3141.9226    110.34207   -3031.5806 
 1862800    996.79191   -3136.5297    118.79552   -3017.7342 
 1863000     952.2053    -3139.159    113.48178   -3025.6772 
 1863200    944.10726   -3137.4732    112.51668   -3024.9565 
 1863400    997.40744   -3136.6662    118.86888   -3017.7973 
 1863600    948.51171   -3147.9232    113.04159   -3034.8816 
 1863800    953.46147   -3151.0613    113.63149   -3037.4298 
 1864000    1016.3842   -3140.6119    121.13049   -3019.4814 
 1864200    966.53567   -3143.2355    115.18965   -3028.0459 
 1864400    898.08867   -3148.6176    107.03228   -3041.5853 
 1864600    1000.3776   -3145.5135    119.22285   -3026.2906 
 1864800    948.52726   -3134.5782    113.04344   -3021.5347 
 1865000    927.86885   -3143.7117    110.58142   -3033.1303 
 1865200    921.80539   -3140.4874    109.85879   -3030.6286 
 1865400    988.66369   -3137.6745    117.82682   -3019.8477 
 1865600    966.02169   -3138.3797    115.12839   -3023.2514 
 1865800    974.77147   -3143.9253    116.17117   -3027.7541 
 1866000    949.72019   -3147.8708    113.18561   -3034.6852 
 1866200    938.24303    -3144.051    111.81779   -3032.2332 
 1866400    996.87158    -3138.716    118.80502    -3019.911 
 1866600     955.7205   -3143.0774    113.90072   -3029.1766 
 1866800    912.94329   -3143.4627    108.80262   -3034.6601 
 1867000    999.62216    -3141.045    119.13282   -3021.9122 
 1867200     948.1648   -3140.6003    113.00025   -3027.6001 
 1867400    963.97421   -3147.6041    114.88438   -3032.7197 
 1867600    943.91304   -3140.3162    112.49353   -3027.8227 
 1867800    956.67634   -3140.8337    114.01463    -3026.819 
 1868000    941.32392   -3141.0195    112.18496   -3028.8345 
 1868200    958.13222   -3139.8724    114.18814   -3025.6843 
 1868400    942.75951   -3135.7162    112.35605   -3023.3602 
 1868600    948.73666   -3140.5307     113.0684   -3027.4623 
 1868800    941.56354   -3136.6805    112.21352    -3024.467 
 1869000    972.78012   -3137.3472    115.93385   -3021.4133 
 1869200    944.70816   -3146.6915    112.58829   -3034.1032 
 1869400    907.11018   -3140.8902    108.10744   -3032.7827 
 1869600    995.54617   -3139.5091    118.64706   -3020.8621 
 1869800    961.31801   -3141.9099    114.56782   -3027.3421 
 1870000    958.00487   -3146.4787    114.17296   -3032.3057 
 1870200    976.41965   -3143.0724     116.3676   -3026.7048 
 1870400    951.52109   -3141.7358    113.40024   -3028.3356 
 1870600    934.90137   -3138.1014    111.41954   -3026.6818 
 1870800    975.04785   -3139.7747    116.20411   -3023.5705 
 1871000    959.15463   -3144.0974    114.30999   -3029.7875 
 1871200    943.39155   -3137.5086    112.43138   -3025.0772 
 1871400    974.41141   -3136.4845    116.12826   -3020.3563 
 1871600    943.55895   -3142.3387    112.45133   -3029.8874 
 1871800    939.64168   -3134.4977    111.98448   -3022.5132 
 1872000    945.35389   -3138.5757    112.66525   -3025.9104 
 1872200    929.87315   -3145.4276    110.82029   -3034.6073 
 1872400    957.40685   -3138.1567    114.10169    -3024.055 
 1872600    958.45699   -3136.9476    114.22685   -3022.7207 
 1872800    929.93158   -3144.0795    110.82725   -3033.2523 
 1873000    925.60881   -3144.5087    110.31207   -3034.1966 
 1873200    968.64799   -3138.3734    115.44139   -3022.9321 
 1873400    962.01985   -3144.8132    114.65146   -3030.1617 
 1873600    949.88774   -3142.6495    113.20558   -3029.4439 
 1873800     991.5657   -3141.2315    118.17267   -3023.0588 
 1874000      963.385    -3149.433    114.81416   -3034.6188 
 1874200    961.65215   -3144.8569    114.60764   -3030.2493 
 1874400     978.3387   -3140.6387    116.59631   -3024.0424 
 1874600    944.54829    -3141.508    112.56924   -3028.9388 
 1874800    974.41379   -3140.5751    116.12854   -3024.4465 
 1875000    955.48888   -3138.6903    113.87311   -3024.8172 
 1875200    965.44135   -3140.7696    115.05923   -3025.7104 
 1875400    1021.3024    -3143.735    121.71662   -3022.0184 
 1875600    898.60007   -3136.7343    107.09323   -3029.6411 
 1875800    928.82222   -3135.4792    110.69504   -3024.7842 
 1876000    992.70273   -3139.1804    118.30818   -3020.8722 
 1876200    936.05436   -3145.1457    111.55695   -3033.5887 
 1876400    970.81143   -3142.7762    115.69922    -3027.077 
 1876600    1039.4983   -3141.1423    123.88517   -3017.2571 
 1876800    927.63678   -3144.5441    110.55376   -3033.9904 
 1877000    930.30332   -3137.9938    110.87155   -3027.1222 
 1877200    1015.6791   -3137.7928    121.04645   -3016.7464 
 1877400    921.23548   -3144.2787    109.79087   -3034.4878 
 1877600    977.25651   -3135.5595    116.46733   -3019.0922 
 1877800    957.59523   -3134.3737    114.12414   -3020.2496 
 1878000    920.78603   -3146.8361     109.7373   -3037.0988 
 1878200    958.88476   -3143.0858    114.27783   -3028.8079 
 1878400    999.84248   -3141.7958    119.15908   -3022.6367 
 1878600    969.38452   -3140.8709    115.52917   -3025.3417 
 1878800    940.41206   -3139.6066    112.07629   -3027.5303 
 1879000    962.46827    -3143.472     114.7049   -3028.7671 
 1879200    947.21259   -3143.8262    112.88676   -3030.9394 
 1879400    935.42312   -3140.6608    111.48172   -3029.1791 
 1879600    965.45685   -3141.6328    115.06108   -3026.5717 
 1879800    934.59298    -3136.373    111.38279   -3024.9902 
 1880000    927.84047   -3138.0254    110.57804   -3027.4474 
 1880200    973.89204   -3143.0897    116.06636   -3027.0233 
 1880400    942.66136   -3139.3757    112.34436   -3027.0313 
 1880600     937.3387   -3138.7198    111.71001   -3027.0098 
 1880800    972.94682   -3146.0296    115.95371   -3030.0759 
 1881000    932.70375   -3142.5827    111.15763   -3031.4251 
 1881200    1019.1406   -3136.7783    121.45899   -3015.3193 
 1881400    932.20385   -3137.4957    111.09805   -3026.3976 
 1881600    921.67019   -3150.0615    109.84268   -3040.2189 
 1881800    980.90708   -3141.3145     116.9024   -3024.4121 
 1882000    976.51372   -3136.1357    116.37881   -3019.7569 
 1882200    966.07159   -3144.3608    115.13434   -3029.2265 
 1882400    909.00503   -3144.4601    108.33327   -3036.1268 
 1882600    1005.0241   -3144.4083    119.77661   -3024.6317 
 1882800    972.05341   -3139.2846    115.84724   -3023.4373 
 1883000     937.6815   -3138.3428    111.75087   -3026.5919 
 1883200    965.34254   -3145.5496    115.04745   -3030.5021 
 1883400    965.21421   -3141.3808    115.03216   -3026.3487 
 1883600    991.12034   -3135.2411    118.11959   -3017.1215 
 1883800    918.53731    -3140.377    109.46931   -3030.9076 
 1884000    977.99083   -3147.3688    116.55485   -3030.8139 
 1884200    964.70412   -3135.5614    114.97137     -3020.59 
 1884400    961.90792   -3139.6233    114.63812   -3024.9852 
 1884600    946.18019   -3140.3047    112.76372    -3027.541 
 1884800    956.12419   -3145.5657    113.94883   -3031.6169 
 1885000    916.43267   -3138.8513    109.21848   -3029.6329 
 1885200    987.40603   -3139.0004    117.67693   -3021.3235 
 1885400     941.4187    -3141.896    112.19626   -3029.6998 
 1885600    972.49536   -3140.7088    115.89991   -3024.8089 
 1885800    951.48237   -3133.6711    113.39563   -3020.2755 
 1886000    922.80584   -3138.0505    109.97802   -3028.0725 
 1886200     918.7022   -3134.0783    109.48896   -3024.5893 
 1886400      1008.42   -3139.7688    120.18133   -3019.5875 
 1886600    914.90848   -3138.4749    109.03683   -3029.4381 
 1886800    990.78489   -3135.3858    118.07962   -3017.3062 
 1887000    998.94992   -3136.8933    119.05271   -3017.8406 
 1887200    941.39451   -3144.5282    112.19338   -3032.3348 
 1887400    958.54535   -3133.5286    114.23738   -3019.2912 
 1887600     1005.907   -3128.4846    119.88184   -3008.6028 
 1887800    941.22821   -3136.8108    112.17356   -3024.6372 
 1888000    952.79106   -3139.2855    113.55159   -3025.7339 
 1888200    969.07947   -3136.2262    115.49281   -3020.7334 
 1888400    941.34159    -3138.085    112.18707    -3025.898 
 1888600    1014.8998   -3143.8506    120.95358   -3022.8971 
 1888800    976.77594    -3139.153    116.41006   -3022.7429 
 1889000    953.18072   -3141.3204    113.59803   -3027.7223 
 1889200    976.79448    -3140.803    116.41227   -3024.3908 
 1889400    931.34548     -3140.47    110.99575   -3029.4742 
 1889600    956.31071   -3140.7729    113.97106   -3026.8018 
 1889800    1009.9593   -3139.3623    120.36478   -3018.9975 
 1890000    962.34155   -3138.2639     114.6898   -3023.5741 
 1890200    935.38685   -3139.5983     111.4774   -3028.1209 
 1890400    941.53502    -3138.224    112.21012   -3026.0139 
 1890600    961.04183   -3139.0584     114.5349   -3024.5235 
 1890800    994.62109   -3139.0487    118.53681   -3020.5119 
 1891000    952.17437   -3134.1922     113.4781   -3020.7141 
 1891200    957.57519   -3141.9524    114.12176   -3027.8307 
 1891400    972.64788   -3134.3307    115.91809   -3018.4126 
 1891600    983.30586   -3134.1017    117.18828   -3016.9134 
 1891800    966.91466   -3137.7845    115.23481   -3022.5497 
 1892000    941.13336   -3137.9722    112.16225   -3025.8099 
 1892200    941.20729   -3139.4216    112.17106   -3027.2505 
 1892400    991.57371   -3139.0436    118.17363     -3020.87 
 1892600    936.85351    -3137.025    111.65219   -3025.3728 
 1892800    977.40803   -3140.7678    116.48539   -3024.2824 
 1893000    922.16543   -3135.9549     109.9017   -3026.0532 
 1893200    978.24235    -3140.472    116.58482   -3023.8872 
 1893400    959.40182   -3138.8933    114.33945   -3024.5538 
 1893600    964.88452   -3135.3611    114.99287   -3020.3682 
 1893800    968.40301   -3135.0411    115.41219   -3019.6289 
 1894000    968.67521   -3143.6705    115.44463   -3028.2259 
 1894200    940.76995   -3138.8962    112.11894   -3026.7773 
 1894400    964.22028   -3137.6363     114.9137   -3022.7226 
 1894600    918.19897    -3137.483    109.42898    -3028.054 
 1894800    952.00712   -3138.2087    113.45817   -3024.7506 
 1895000    1006.1355   -3141.9925    119.90907   -3022.0835 
 1895200    982.79662   -3139.2418    117.12759   -3022.1142 
 1895400    943.39943   -3141.8598    112.43232   -3029.4275 
 1895600    982.35742   -3145.5022    117.07525   -3028.4269 
 1895800    955.07341   -3133.8165     113.8236   -3019.9929 
 1896000    1000.7388   -3140.4547    119.26591   -3021.1888 
 1896200    940.89592   -3145.2222    112.13396   -3033.0883 
 1896400    980.32321   -3135.7612    116.83282   -3018.9284 
 1896600    997.65905   -3131.7634    118.89886   -3012.8646 
 1896800    938.67888   -3137.2879    111.86973   -3025.4182 
 1897000    938.46344   -3138.6315    111.84406   -3026.7874 
 1897200    982.05792   -3130.7757    117.03956   -3013.7362 
 1897400    1006.1347   -3133.5832    119.90897   -3013.6743 
 1897600    1002.0325   -3138.0564    119.42008   -3018.6363 
 1897800    993.89309   -3137.9294    118.45004   -3019.4793 
 1898000    996.60706   -3133.7636    118.77349   -3014.9901 
 1898200    954.81898    -3129.914    113.79328   -3016.1208 
 1898400    955.64135    -3133.027    113.89129   -3019.1357 
 1898600    954.37894   -3133.6899    113.74083   -3019.9491 
 1898800     938.2395    -3128.654    111.81737   -3016.8366 
 1899000    934.77422   -3127.2418    111.40439   -3015.8374 
 1899200    959.02186   -3135.5674    114.29417   -3021.2732 
 1899400    945.91178   -3133.6392    112.73174   -3020.9074 
 1899600    992.30153   -3132.2886    118.26037   -3014.0282 
 1899800    1000.1346   -3142.1376    119.19389   -3022.9437 
 1900000    924.04972   -3130.0356    110.12626   -3019.9093 
 1900200    993.42917   -3129.0926    118.39476   -3010.6979 
 1900400    959.77882   -3130.6679    114.38438   -3016.2835 
 1900600    1001.8267   -3139.0426    119.39555   -3019.6471 
 1900800    967.48437   -3138.5881    115.30271   -3023.2854 
 1901000    966.31436   -3135.6039    115.16327   -3020.4406 
 1901200    1009.7053   -3132.9732    120.33451   -3012.6387 
 1901400    971.35579   -3135.8146     115.7641   -3020.0505 
 1901600    934.35433   -3134.9214    111.35434   -3023.5671 
 1901800    995.79924   -3134.9329    118.67722   -3016.2557 
 1902000    980.82899   -3135.9487    116.89309   -3019.0556 
 1902200    976.88658   -3136.5187    116.42325   -3020.0955 
 1902400     998.0379    -3137.468    118.94401    -3018.524 
 1902600    963.75994   -3132.0988    114.85884   -3017.2399 
 1902800     966.4365   -3133.2701    115.17783   -3018.0923 
 1903000    974.61827   -3137.5955    116.15291   -3021.4425 
 1903200    935.94305   -3133.5526    111.54368   -3022.0089 
 1903400    979.05633   -3130.2828    116.68183    -3013.601 
 1903600    938.74002   -3138.0208    111.87702   -3026.1437 
 1903800    957.99021   -3138.2333    114.17122   -3024.0621 
 1904000    997.20901   -3131.3219    118.84523   -3012.4766 
 1904200    950.06254   -3134.9641    113.22641   -3021.7377 
 1904400    958.04882   -3142.3779     114.1782   -3028.1997 
 1904600    946.77044   -3131.0649    112.83407   -3018.2308 
 1904800    993.91476   -3132.0305    118.45263   -3013.5779 
 1905000    956.00375   -3138.8138    113.93448   -3024.8793 
 1905200    997.82713   -3139.3749     118.9189    -3020.456 
 1905400    979.98387   -3126.8027    116.79237   -3010.0103 
 1905600    921.12973   -3131.2625    109.77826   -3021.4842 
 1905800    958.71811   -3134.2373    114.25797   -3019.9794 
 1906000     1028.602   -3138.3646    122.58657    -3015.778 
 1906200    954.04985   -3134.8198    113.70161   -3021.1182 
 1906400    963.79079   -3131.1922    114.86252   -3016.3297 
 1906600    949.51831   -3132.3041    113.16155   -3019.1425 
 1906800    921.34601   -3134.1599    109.80404   -3024.3559 
 1907000    970.91437   -3126.1692    115.71149   -3010.4577 
 1907200     974.5672   -3128.2375    116.14683   -3012.0906 
 1907400    953.40811   -3132.3388    113.62513   -3018.7137 
 1907600    955.87899   -3130.4476    113.91961    -3016.528 
 1907800    1019.9557    -3133.171    121.55613   -3011.6149 
 1908000    947.74138   -3132.6136    112.94978   -3019.6638 
 1908200    989.82787   -3136.8748    117.96556   -3018.9093 
 1908400    958.02885   -3135.2339    114.17582    -3021.058 
 1908600    994.88739     -3127.96    118.56854   -3009.3914 
 1908800    976.98565   -3127.1724    116.43505   -3010.7373 
 1909000    921.81965   -3138.9319    109.86049   -3029.0714 
 1909200    940.95231   -3129.3246    112.14068    -3017.184 
 1909400    1006.7328   -3125.5395    119.98026   -3005.5592 
 1909600    950.52217    -3141.126    113.28119   -3027.8448 
 1909800    938.52064   -3139.1128    111.85088   -3027.2619 
 1910000     997.1185   -3126.4096    118.83444   -3007.5752 
 1910200    970.09203   -3129.7612    115.61349   -3014.1477 
 1910400    950.15908   -3138.9703    113.23792   -3025.7324 
 1910600    976.15327   -3135.6974    116.33585   -3019.3615 
 1910800    968.30091   -3133.1221    115.40002   -3017.7221 
 1911000    920.74697   -3130.5661    109.73265   -3020.8335 
 1911200    987.35252   -3132.3052    117.67055   -3014.6347 
 1911400    958.99903   -3135.9214    114.29145   -3021.6299 
 1911600    981.54955   -3136.2173    116.97897   -3019.2383 
 1911800    978.26598   -3129.9304    116.58764   -3013.3428 
 1912000    955.11805   -3135.0227    113.82892   -3021.1938 
 1912200    960.73603   -3137.1368    114.49846   -3022.6384 
 1912400    982.54648   -3132.5525    117.09778   -3015.4548 
 1912600    958.67026   -3138.9567    114.25226   -3024.7045 
 1912800    967.51485   -3140.5653    115.30634    -3025.259 
 1913000     993.2841   -3135.5351    118.37747   -3017.1577 
 1913200    981.35021   -3137.9182    116.95521   -3020.9629 
 1913400    971.72022   -3137.5976    115.80753     -3021.79 
 1913600     1000.549   -3137.7438    119.24329   -3018.5005 
 1913800    956.50098    -3131.794    113.99373   -3017.8003 
 1914000    1004.0146   -3135.9223     119.6563    -3016.266 
 1914200    946.30801   -3135.5347    112.77896   -3022.7557 
 1914400    961.32374   -3129.6012     114.5685   -3015.0327 
 1914600    998.96596   -3130.5231    119.05462   -3011.4685 
 1914800    953.46061   -3130.7316    113.63139   -3017.1002 
 1915000    968.90422   -3130.3339    115.47193    -3014.862 
 1915200    1005.7069   -3132.1687    119.85799   -3012.3107 
 1915400    968.83195   -3131.7312    115.46331   -3016.2679 
 1915600    985.16064   -3131.6554    117.40933   -3014.2461 
 1915800    952.96318   -3137.2948    113.57211   -3023.7227 
 1916000    940.43574   -3131.6598    112.07911   -3019.5807 
 1916200    1002.3154   -3124.1061     119.4538   -3004.6523 
 1916400    1006.1825   -3135.8157    119.91467    -3015.901 
 1916600    945.40922   -3142.6704    112.67184   -3029.9985 
 1916800    1014.3204   -3134.2091    120.88453   -3013.3246 
 1917000    980.32429   -3127.4095    116.83294   -3010.5765 
 1917200    935.77026   -3134.3082    111.52309   -3022.7851 
 1917400    952.10492   -3137.4761    113.46982   -3024.0063 
 1917600     975.2466   -3128.8741     116.2278   -3012.6464 
 1917800    937.62012    -3128.494    111.74355   -3016.7504 
 1918000    930.32627   -3133.5986    110.87429   -3022.7243 
 1918200    945.81832    -3133.657     112.7206   -3020.9364 
 1918400    958.16127   -3131.1616     114.1916     -3016.97 
 1918600    965.50295   -3129.5127    115.06657   -3014.4461 
 1918800    976.16275   -3135.6912    116.33698   -3019.3542 
 1919000    912.63172   -3134.3255    108.76549     -3025.56 
 1919200    1012.4709   -3137.4471    120.66411    -3016.783 
 1919400    966.31514   -3133.9241    115.16336   -3018.7607 
 1919600    945.09592    -3139.007     112.6345   -3026.3725 
 1919800     982.3071   -3138.4396    117.06925   -3021.3704 
 1920000    970.05085   -3138.0728    115.60858   -3022.4642 
 1920200    941.31397   -3141.3962    112.18378   -3029.2124 
 1920400    982.16708     -3134.31    117.05256   -3017.2574 
 1920600     1019.348   -3139.3328    121.48371   -3017.8491 
 1920800    972.29696   -3139.9785    115.87626   -3024.1023 
 1921000    998.77861   -3137.3423    119.03229     -3018.31 
 1921200    1025.5366    -3134.874    122.22125   -3012.6528 
 1921400     960.0323   -3137.9156    114.41459   -3023.5011 
 1921600    978.63203    -3138.372    116.63127   -3021.7408 
 1921800    984.63561   -3135.3361    117.34676   -3017.9894 
 1922000    944.34875   -3129.9344    112.54546    -3017.389 
 1922200    951.15804   -3135.8655    113.35697   -3022.5086 
 1922400     1005.231   -3135.9161    119.80127   -3016.1148 
 1922600    982.36034   -3138.1004     117.0756   -3021.0248 
 1922800    958.91403   -3134.7215    114.28132   -3020.4402 
 1923000    1025.0373   -3134.2629    122.16174   -3012.1011 
 1923200    982.51882   -3142.7411    117.09448   -3025.6466 
 1923400    979.94034   -3136.6852    116.78719    -3019.898 
 1923600    991.57357   -3130.4377    118.17361   -3012.2641 
 1923800     1009.027   -3129.2581    120.25367   -3009.0045 
 1924000    955.47087   -3131.9429    113.87097   -3018.0719 
 1924200    976.00053   -3137.5487    116.31765    -3021.231 
 1924400    1004.7468   -3131.6862    119.74357   -3011.9427 
 1924600    985.34956   -3134.5233    117.43185   -3017.0914 
 1924800    924.14362   -3134.0737    110.13745   -3023.9363 
 1925000    996.81735   -3133.3472    118.79855   -3014.5486 
 1925200    998.47193   -3132.1805    118.99574   -3013.1848 
 1925400    913.64047    -3134.802    108.88571   -3025.9163 
 1925600    977.58714   -3135.8007    116.50674    -3019.294 
 1925800    987.79094    -3134.567     117.7228   -3016.8442 
 1926000    979.27748   -3137.3185    116.70819   -3020.6103 
 1926200    971.19437   -3134.0099    115.74486    -3018.265 
 1926400    971.95016   -3138.8141    115.83493   -3022.9792 
 1926600    990.56669   -3136.1687    118.05361   -3018.1151 
 1926800    985.97129   -3126.6165    117.50594   -3009.1105 
 1927000    955.48162    -3130.316    113.87225   -3016.4437 
 1927200    973.94603   -3138.1362     116.0728   -3022.0634 
 1927400     1017.544   -3136.1807    121.26871    -3014.912 
 1927600    968.30358   -3135.0529    115.40034   -3019.6526 
 1927800    996.44164   -3135.5196    118.75378   -3016.7659 
 1928000    1022.2503   -3132.1219     121.8296   -3010.2923 
 1928200    933.95093   -3133.3194    111.30627   -3022.0131 
 1928400    980.65406   -3133.2752    116.87225    -3016.403 
 1928600     979.3996   -3132.8685    116.72274   -3016.1458 
 1928800    959.02571   -3139.5423    114.29463   -3025.2477 
 1929000     1012.376   -3138.7854    120.65279   -3018.1326 
 1929200    966.75201   -3131.7745    115.21543   -3016.5591 
 1929400    951.84578   -3136.4851    113.43894   -3023.0462 
 1929600    991.94436   -3140.3171     118.2178   -3022.0993 
 1929800    1003.4249   -3136.1017    119.58603   -3016.5157 
 1930000    976.61218   -3133.8481    116.39054   -3017.4576 
 1930200    961.01132   -3131.1156    114.53127   -3016.5843 
 1930400    967.31028   -3133.8311    115.28196   -3018.5492 
 1930600    936.11894   -3138.8824    111.56465   -3027.3177 
 1930800    961.41424    -3129.803    114.57929   -3015.2237 
 1931000    997.40413   -3128.7742    118.86848   -3009.9057 
 1931200    904.48428   -3131.3035    107.79449    -3023.509 
 1931400    996.77226   -3133.2702    118.79318    -3014.477 
 1931600    995.58005   -3123.5212    118.65109   -3004.8701 
 1931800    924.42454   -3133.0094    110.17093   -3022.8384 
 1932000    954.24575   -3137.9081    113.72496   -3024.1831 
 1932200    986.35535   -3130.1953    117.55171   -3012.6436 
 1932400    972.12374   -3128.6902    115.85562   -3012.8345 
 1932600    973.49147   -3125.6839    116.01862   -3009.6653 
 1932800    987.69345    -3131.907    117.71118   -3014.1958 
 1933000    967.42491   -3139.3442    115.29562   -3024.0486 
 1933200    1004.2456   -3130.3156    119.68383   -3010.6318 
 1933400    998.07638   -3127.9848     118.9486   -3009.0362 
 1933600      978.468   -3135.9298    116.61172    -3019.318 
 1933800     1015.229   -3134.7214    120.99281   -3013.7286 
 1934000    1000.6452   -3136.8861    119.25474   -3017.6313 
 1934200    982.31646   -3140.9859    117.07037   -3023.9155 
 1934400    1006.8443   -3134.8167    119.99355   -3014.8232 
 1934600    981.35074   -3131.9735    116.95527   -3015.0182 
 1934800    960.41782   -3131.4029    114.46053   -3016.9424 
 1935000    986.15834   -3133.4468    117.52823   -3015.9186 
 1935200    930.98881   -3136.4692    110.95325   -3025.5159 
 1935400    988.71502   -3134.4175    117.83293   -3016.5845 
 1935600     992.2619   -3130.2883    118.25564   -3012.0327 
 1935800    913.53308   -3133.7775    108.87291   -3024.9046 
 1936000    972.01211    -3139.131    115.84232   -3023.2887 
 1936200    990.74056   -3130.8515    118.07433   -3012.7771 
 1936400     969.2556   -3132.4561     115.5138   -3016.9423 
 1936600     990.8178   -3132.3243    118.08354   -3014.2407 
 1936800    958.13748    -3130.143    114.18877   -3015.9542 
 1937000    970.12715   -3133.5009    115.61767   -3017.8833 
 1937200    982.76673   -3134.8973    117.12403   -3017.7732 
 1937400     979.0143   -3131.0117    116.67682   -3014.3349 
 1937600     977.2007    -3129.857    116.46068   -3013.3963 
 1937800    988.14707   -3133.5985    117.76525   -3015.8333 
 1938000    964.65881   -3139.9194    114.96597   -3024.9534 
 1938200    979.21508   -3136.9281    116.70075   -3020.2274 
 1938400    998.06576   -3130.1843    118.94734   -3011.2369 
 1938600     977.2302   -3140.7435     116.4642   -3024.2793 
 1938800    946.85048   -3142.3814    112.84361   -3029.5378 
 1939000    1028.6967   -3131.3086    122.59787   -3008.7107 
 1939200    987.01253   -3132.2682    117.63003   -3014.6382 
 1939400     957.2914   -3137.9468    114.08793   -3023.8589 
 1939600    998.03328   -3130.5536    118.94346   -3011.6102 
 1939800    1030.6862   -3135.6611    122.83497   -3012.8262 
 1940000    906.51692   -3132.0309    108.03674   -3023.9941 
 1940200     1040.041   -3138.5014    123.94985   -3014.5516 
 1940400    1000.5715   -3132.9936    119.24597   -3013.7477 
 1940600    962.26754   -3133.1891    114.68098   -3018.5081 
 1940800    987.75386    -3137.441    117.71839   -3019.7227 
 1941000    952.48782   -3129.1712    113.51545   -3015.6557 
 1941200    1039.6589   -3128.4031    123.90432   -3004.4988 
 1941400    940.92319    -3126.128    112.13721   -3013.9908 
 1941600    1002.6884    -3137.877    119.49825   -3018.3788 
 1941800     995.2602   -3133.9313    118.61297   -3015.3183 
 1942000    1008.7649   -3134.1124    120.22244     -3013.89 
 1942200    959.59361   -3132.6989    114.36231   -3018.3366 
 1942400    981.81124    -3134.759    117.01016   -3017.7488 
 1942600     961.6934   -3127.6088    114.61256   -3012.9962 
 1942800    995.26119   -3128.1256    118.61309   -3009.5125 
 1943000    951.49521    -3131.237    113.39716   -3017.8399 
 1943200    953.98476   -3137.5502    113.69386   -3023.8563 
 1943400    987.74271   -3130.3282    117.71706   -3012.6111 
 1943600    987.45922   -3126.4854    117.68327   -3008.8021 
 1943800    968.66268   -3133.8461    115.44314   -3018.4029 
 1944000    951.98027    -3135.557    113.45496   -3022.1021 
 1944200    988.52528   -3137.9131    117.81032   -3020.1027 
 1944400    1035.2412    -3132.238    123.37783   -3008.8602 
 1944600     936.9753   -3126.6623    111.66671   -3014.9956 
 1944800    959.42981   -3129.6352    114.34279   -3015.2924 
 1945000     960.2572   -3130.9833    114.44139   -3016.5419 
 1945200    972.26044    -3127.959    115.87191   -3012.0871 
 1945400    1020.1402   -3127.8854    121.57812   -3006.3073 
 1945600     938.9139   -3132.3968    111.89774   -3020.4991 
 1945800    1006.8028   -3137.0016    119.98859    -3017.013 
 1946000     999.5813   -3133.1487    119.12795   -3014.0208 
 1946200    983.28583   -3131.7755    117.18589   -3014.5896 
 1946400    988.88177   -3129.2705    117.85281   -3011.4177 
 1946600    987.58113   -3127.3404     117.6978   -3009.6426 
 1946800    947.46473   -3123.9093    112.91681   -3010.9925 
 1947000    1007.1759   -3132.4397    120.03306   -3012.4066 
 1947200    972.13739   -3130.9999    115.85725   -3015.1427 
 1947400    997.13519   -3124.2556    118.83643   -3005.4191 
 1947600    1012.5211   -3129.8444    120.67009   -3009.1743 
 1947800    894.61201   -3131.2695    106.61794   -3024.6516 
 1948000    1029.8123   -3133.4943    122.73082   -3010.7635 
 1948200     1001.548   -3127.5326    119.36235   -3008.1703 
 1948400     955.3381   -3134.1679    113.85514   -3020.3128 
 1948600    993.77895   -3139.4041    118.43644   -3020.9677 
 1948800    1003.0582   -3131.0502    119.54232   -3011.5079 
 1949000    1017.2201   -3134.5739    121.23011   -3013.3438 
 1949200    1005.0009   -3142.4763    119.77385   -3022.7025 
 1949400    975.03184   -3136.7995     116.2022   -3020.5973 
 1949600    1012.5146   -3134.3494    120.66931   -3013.6801 
 1949800    976.22408    -3135.929    116.34429   -3019.5847 
 1950000    948.44167   -3126.1928    113.03324   -3013.1595 
 1950200    959.05432    -3130.405    114.29804   -3016.1069 
 1950400    950.61444   -3129.1473    113.29219   -3015.8551 
 1950600    1012.7888   -3132.1157      120.702   -3011.4137 
 1950800     975.1271   -3139.8374    116.21355   -3023.6238 
 1951000    1000.3134   -3133.9821     119.2152   -3014.7669 
 1951200    1016.6504   -3124.9928    121.16222   -3003.8306 
 1951400    962.04497    -3134.456    114.65446   -3019.8015 
 1951600    975.90792   -3136.3082    116.30661   -3020.0016 
 1951800    992.02622   -3130.6331    118.22756   -3012.4055 
 1952000     977.1403   -3133.3523    116.45348   -3016.8988 
 1952200    952.61006   -3132.7877    113.53002   -3019.2577 
 1952400    992.61387   -3135.7708    118.29759   -3017.4732 
 1952600     972.5368   -3137.3103    115.90485   -3021.4054 
 1952800    999.70835   -3130.8153     119.1431   -3011.6722 
 1953000    1015.1868   -3128.8667    120.98778   -3007.8789 
 1953200    975.09138   -3134.1801     116.2093   -3017.9708 
 1953400    956.93851   -3134.9065    114.04588   -3020.8607 
 1953600    1020.6039   -3131.0686    121.63338   -3009.4352 
 1953800    1034.2569   -3132.1758    123.26051   -3008.9153 
 1954000    981.96544   -3137.3261    117.02853   -3020.2976 
 1954200    991.83684   -3138.2599    118.20499   -3020.0549 
 1954400    1001.9352   -3129.9247    119.40848   -3010.5162 
 1954600    1029.6928   -3137.4047    122.71658   -3014.6882 
 1954800    954.61974   -3140.7402    113.76953   -3026.9706 
 1955000    983.07582   -3135.6127    117.16087   -3018.4518 
 1955200    964.74868   -3131.2266    114.97668   -3016.2499 
 1955400    965.90875   -3133.1117    115.11493   -3017.9967 
 1955600    1030.8614   -3137.5563    122.85585   -3014.7004 
 1955800    945.45271   -3133.9625    112.67702   -3021.2855 
 1956000    1003.9184    -3132.112    119.64484   -3012.4671 
 1956200    999.66183   -3131.8623    119.13755   -3012.7247 
 1956400    966.92811   -3142.9969    115.23642   -3027.7605 
 1956600    976.64077   -3136.7068    116.39395   -3020.3129 
 1956800    1009.8704   -3132.4193    120.35419   -3012.0651 
 1957000    938.77642   -3137.0343    111.88136   -3025.1529 
 1957200    988.02001   -3138.7166     117.7501   -3020.9665 
 1957400    1031.0286   -3137.9435    122.87578   -3015.0677 
 1957600    972.18377    -3136.749    115.86277   -3020.8862 
 1957800    995.77706   -3138.7704    118.67457   -3020.0958 
 1958000    992.71954   -3136.7486    118.31018   -3018.4384 
 1958200     949.7539   -3129.1629    113.18963   -3015.9733 
 1958400    1014.7877   -3127.4957    120.94022   -3006.5555 
 1958600    961.61067   -3128.5094     114.6027   -3013.9067 
 1958800    959.58892   -3137.8134    114.36175   -3023.4517 
 1959000    982.87545   -3126.1211    117.13699   -3008.9841 
 1959200    1035.0146   -3128.6806    123.35082   -3005.3297 
 1959400    913.72015   -3136.7827    108.89521   -3027.8875 
 1959600    1003.1817   -3137.7167    119.55704   -3018.1597 
 1959800    976.41804   -3132.3927    116.36741   -3016.0253 
 1960000    973.19141   -3135.1099    115.98286    -3019.127 
 1960200    1033.4606   -3132.0408    123.16561   -3008.8752 
 1960400    988.90681   -3131.4398    117.85579    -3013.584 
 1960600    959.63558   -3135.8431    114.36731   -3021.4758 
 1960800    1014.0629   -3130.7801    120.85385   -3009.9263 
 1961000    1018.0663   -3133.7318    121.33096   -3012.4008 
 1961200    947.02637   -3135.6497    112.86457   -3022.7852 
 1961400    971.80076   -3129.5324    115.81713   -3013.7153 
 1961600    1018.6659   -3128.3815    121.40241   -3006.9791 
 1961800    955.59095   -3137.7805    113.88528   -3023.8952 
 1962000    968.51081   -3141.3964    115.42504   -3025.9714 
 1962200    1031.1349   -3130.0956    122.88845   -3007.2072 
 1962400    995.94753   -3125.2891    118.69489   -3006.5942 
 1962600    936.46426   -3131.1088     111.6058    -3019.503 
 1962800    978.90167   -3131.0132     116.6634   -3014.3498 
 1963000    1066.7924   -3132.1371    127.13802   -3004.9991 
 1963200    972.12057   -3127.9293    115.85524    -3012.074 
 1963400    1017.4934   -3126.7462    121.26268   -3005.4835 
 1963600    967.73304   -3127.0142    115.33235   -3011.6818 
 1963800    978.68176   -3130.2563    116.63719   -3013.6191 
 1964000    997.15583    -3121.987    118.83889   -3003.1481 
 1964200    989.91162   -3133.1502    117.97554   -3015.1747 
 1964400    942.65801   -3135.7857    112.34396   -3023.4417 
 1964600    987.37251   -3126.1462    117.67294   -3008.4732 
 1964800    1007.0418   -3120.1123    120.01708   -3000.0953 
 1965000    983.09624   -3131.9377     117.1633   -3014.7744 
 1965200    980.23546   -3136.8348    116.82236   -3020.0124 
 1965400     994.4648   -3122.9332    118.51818    -3004.415 
 1965600    985.61194   -3117.9406    117.46312   -3000.4775 
 1965800    947.68258   -3125.2077    112.94278   -3012.2649 
 1966000    1007.1882   -3130.0891    120.03453   -3010.0546 
 1966200    989.55027   -3126.2369    117.93248   -3008.3044 
 1966400    967.66816   -3122.9902    115.32461   -3007.6656 
 1966600    1033.4804   -3120.9694    123.16798   -2997.8014 
 1966800    969.28758   -3126.5887    115.51761   -3011.0711 
 1967000    993.25456   -3129.8314    118.37395   -3011.4574 
 1967200    1039.8197   -3126.8617    123.92348   -3002.9382 
 1967400    952.64007    -3133.661     113.5336   -3020.1274 
 1967600    945.00506   -3132.0935    112.62367   -3019.4698 
 1967800    992.35844   -3126.5795    118.26715   -3008.3124 
 1968000    973.76996   -3122.6314    116.05181   -3006.5796 
 1968200    965.38676   -3130.7714    115.05272   -3015.7187 
 1968400    964.92766   -3131.1033    114.99801   -3016.1052 
 1968600    1041.1764   -3126.6989    124.08517   -3002.6137 
 1968800    961.52947   -3127.3432    114.59302   -3012.7502 
 1969000    999.85285   -3131.3473    119.16032   -3012.1869 
 1969200     1014.763   -3130.1065    120.93727   -3009.1692 
 1969400    1035.5041   -3138.2439    123.40915   -3014.8347 
 1969600    1011.9471   -3133.2725    120.60168   -3012.6708 
 1969800    969.30835   -3132.4874    115.52009   -3016.9673 
 1970000    991.62159   -3133.2979    118.17933   -3015.1186 
 1970200    975.00416   -3123.8142     116.1989   -3007.6153 
 1970400    958.10039   -3128.6236    114.18435   -3014.4392 
 1970600    993.59611   -3133.6295    118.41465   -3015.2148 
 1970800    965.91288   -3130.5523    115.11542   -3015.4369 
 1971000    992.64022   -3126.3405    118.30073   -3008.0398 
 1971200    962.48159   -3124.9935    114.70649    -3010.287 
 1971400    934.55447   -3128.9121     111.3782   -3017.5339 
 1971600    1004.4449    -3128.841    119.70759   -3009.1334 
 1971800    1027.4249   -3127.6123    122.44629    -3005.166 
 1972000    964.07968   -3131.9445    114.89695   -3017.0476 
 1972200    1008.4491   -3135.7254     120.1848   -3015.5406 
 1972400    1006.9822   -3130.0845    120.00997   -3010.0745 
 1972600    980.27053   -3128.9244    116.82654   -3012.0979 
 1972800    1009.0768   -3131.5994    120.25961   -3011.3398 
 1973000    981.58114   -3129.9769    116.98273   -3012.9942 
 1973200    1008.1436   -3132.1749    120.14839   -3012.0265 
 1973400    955.34021   -3130.8343     113.8554   -3016.9789 
 1973600    946.06877   -3133.0642    112.75045   -3020.3138 
 1973800    1010.0786   -3133.4692      120.379   -3013.0902 
 1974000    1007.5094   -3131.6027    120.07281   -3011.5299 
 1974200    999.23682   -3130.2704     119.0869   -3011.1835 
 1974400    951.96512    -3139.055    113.45316   -3025.6019 
 1974600    980.08761   -3137.6217    116.80474    -3020.817 
 1974800     1048.072   -3135.2353    124.90697   -3010.3284 
 1975000    976.10923   -3125.2531     116.3306   -3008.9225 
 1975200    943.35388   -3131.2085    112.42689   -3018.7816 
 1975400    970.67995   -3134.2806    115.68355    -3018.597 
 1975600    983.35578   -3133.7193    117.19423   -3016.5251 
 1975800     1010.517   -3134.8969    120.43125   -3014.4657 
 1976000     938.2408   -3130.2569    111.81753   -3018.4394 
 1976200    967.76219   -3134.0455    115.33582   -3018.7097 
 1976400    997.54434   -3132.0738    118.88519   -3013.1886 
 1976600    996.63516    -3137.939    118.77684   -3019.1621 
 1976800    1007.3147   -3139.7507    120.04961   -3019.7011 
 1977000    1023.4357   -3131.6798    121.97087    -3009.709 
 1977200    933.41326   -3136.4235    111.24219   -3025.1813 
 1977400    991.92714   -3135.9927    118.21575   -3017.7769 
 1977600    1067.2155   -3132.7152    127.18845   -3005.5267 
 1977800     949.9747   -3131.2349    113.21595   -3018.0189 
 1978000    1003.4542   -3134.5719    119.58951   -3014.9824 
 1978200    1012.7854   -3131.1313    120.70159   -3010.4298 
 1978400     958.2751    -3133.104    114.20517   -3018.8988 
 1978600    1002.7975   -3129.4605    119.51126   -3009.9492 
 1978800    990.08888   -3128.5805    117.99667   -3010.5839 
 1979000    1001.1459   -3137.2402    119.31442   -3017.9258 
 1979200     980.2945    -3134.112    116.82939   -3017.2826 
 1979400    1027.5667   -3135.9414    122.46319   -3013.4782 
 1979600    971.65824   -3139.0102    115.80014     -3023.21 
 1979800    1016.5128   -3134.1679    121.14582   -3013.0221 
 1980000    1009.7776   -3127.8555    120.34313   -3007.5124 
 1980200    951.18471   -3131.5381    113.36015    -3018.178 
 1980400    1016.7698   -3131.7764    121.17644      -3010.6 
 1980600    990.07803   -3135.3374    117.99537    -3017.342 
 1980800    961.92077   -3135.3542    114.63965   -3020.7146 
 1981000    994.86122   -3132.4654    118.56543      -3013.9 
 1981200    967.20701   -3127.8968    115.26966   -3012.6272 
 1981400    963.63899   -3125.9148    114.84443   -3011.0703 
 1981600    1021.2896    -3132.758     121.7151   -3011.0429 
 1981800    986.80883   -3134.2512    117.60576   -3016.6454 
 1982000    1005.3927   -3130.0441    119.82054   -3010.2236 
 1982200    998.73014   -3128.5835    119.02651    -3009.557 
 1982400     956.1493    -3134.842    113.95182   -3020.8902 
 1982600    959.49959   -3128.0713     114.3511   -3013.7202 
 1982800    1048.8721   -3126.7666    125.00232   -3001.7643 
 1983000    979.89748   -3129.7953    116.78208   -3013.0133 
 1983200    1013.1495   -3133.4881    120.74498   -3012.7431 
 1983400    973.41188   -3133.4032    116.00914   -3017.3941 
 1983600    967.69198   -3129.8466    115.32745   -3014.5192 
 1983800    1013.1058   -3122.8984    120.73978   -3002.1586 
 1984000    1001.5548   -3135.2886    119.36315   -3015.9255 
 1984200    956.04665    -3138.605    113.93959   -3024.6654 
 1984400    1042.8594   -3135.3538    124.28574    -3011.068 
 1984600    983.05065   -3124.4131    117.15787   -3007.2553 
 1984800    1027.9941   -3136.4749    122.51413   -3013.9608 
 1985000    965.67209   -3126.7162    115.08673   -3011.6295 
 1985200    990.88143   -3129.7221    118.09112    -3011.631 
 1985400    966.18745   -3134.2206    115.14815   -3019.0724 
 1985600    1037.7823   -3131.2419    123.68067   -3007.5612 
 1985800    1002.4985    -3125.428    119.47562   -3005.9524 
 1986000    976.75736   -3132.5609    116.40785   -3016.1531 
 1986200    1011.2568   -3129.2076    120.51941   -3008.6882 
 1986400    992.76161   -3128.9702     118.3152   -3010.6551 
 1986600    936.49252   -3129.6178    111.60917   -3018.0086 
 1986800    1022.6746   -3133.0985    121.88016   -3011.2184 
 1987000    987.75908      -3128.6    117.71901    -3010.881 
 1987200      1032.05    -3129.082    122.99751   -3006.0845 
 1987400    966.00049   -3130.3664    115.12587   -3015.2406 
 1987600    977.19438   -3132.5305    116.45993   -3016.0705 
 1987800    1030.8813   -3124.2084    122.85822   -3001.3502 
 1988000    977.78202   -3132.0704    116.52996   -3015.5404 
 1988200     956.1068   -3137.8818    113.94676   -3023.9351 
 1988400    1010.6213    -3129.204    120.44367   -3008.7603 
 1988600    999.18125   -3127.7949    119.08028   -3008.7146 
 1988800    998.09105   -3137.4076    118.95035   -3018.4572 
 1989000    1019.1532   -3137.6127    121.46049   -3016.1522 
 1989200    1021.3712   -3132.3913    121.72482   -3010.6664 
 1989400    992.30106   -3131.3662    118.26031   -3013.1059 
 1989600    998.30614   -3136.6255    118.97598   -3017.6495 
 1989800    1002.3918   -3135.7414     119.4629   -3016.2785 
 1990000    1028.3157   -3138.1893    122.55246   -3015.6369 
 1990200    1022.2606   -3135.9743    121.83082   -3014.1435 
 1990400    1002.2105   -3134.9244     119.4413   -3015.4831 
 1990600    1018.7654   -3136.8898    121.41427   -3015.4755 
 1990800     981.9784   -3135.8653    117.03008   -3018.8353 
 1991000    1016.1731   -3133.7438    121.10533   -3012.6385 
 1991200    975.13796   -3133.5952    116.21485   -3017.3804 
 1991400    980.58966   -3140.7072    116.86457   -3023.8427 
 1991600    996.11944   -3128.8827    118.71538   -3010.1673 
 1991800    979.95883   -3120.2924    116.78939    -3003.503 
 1992000    1008.2247   -3132.9256    120.15806   -3012.7676 
 1992200    1024.3337   -3138.7861     122.0779   -3016.7083 
 1992400     988.3093   -3128.6095    117.78458   -3010.8249 
 1992600    1033.6754   -3131.2783    123.19122   -3008.0871 
 1992800    1019.1597   -3132.2171    121.46127   -3010.7559 
 1993000    985.97891   -3136.3381    117.50685   -3018.8313 
 1993200    1017.3332   -3134.5346    121.24359    -3013.291 
 1993400    1006.2602   -3134.2316    119.92393   -3014.3076 
 1993600    936.28922   -3129.3313    111.58494   -3017.7464 
 1993800    1006.1947    -3127.703    119.91613   -3007.7869 
 1994000    986.98116   -3132.1637     117.6263   -3014.5374 
 1994200     995.0632   -3136.3652     118.5895   -3017.7757 
 1994400    982.24854   -3132.6921    117.06227   -3015.6298 
 1994600    1035.1774   -3134.6649    123.37022   -3011.2946 
 1994800    1038.3508   -3135.4608    123.74842   -3011.7124 
 1995000     982.0391   -3129.1015    117.03731   -3012.0642 
 1995200    997.02331   -3129.2946     118.8231   -3010.4715 
 1995400    1014.6626   -3129.0378    120.92531   -3008.1125 
 1995600    981.40408   -3124.6995    116.96163   -3007.7378 
 1995800    982.01825   -3127.7416    117.03483   -3010.7068 
 1996000    1025.2655   -3127.0307    122.18895   -3004.8417 
 1996200    994.79116   -3126.5522    118.55708   -3007.9952 
 1996400    962.66343   -3134.4761    114.72816   -3019.7479 
 1996600    1029.6581   -3130.0593    122.71245   -3007.3469 
 1996800    1031.5235   -3128.1779    122.93476   -3005.2432 
 1997000    999.58051   -3135.1753    119.12786   -3016.0474 
 1997200    1012.4085   -3132.1599    120.65667   -3011.5032 
 1997400    990.49522   -3127.5629    118.04509   -3009.5178 
 1997600    1012.1712   -3129.7346    120.62839   -3009.1063 
 1997800    1003.0262   -3130.4984    119.53851   -3010.9599 
 1998000    1003.3679   -3133.2941    119.57923   -3013.7149 
 1998200    1015.9005   -3126.5707    121.07284   -3005.4979 
 1998400    983.75356   -3130.1454    117.24164   -3012.9038 
 1998600      962.839    -3134.163    114.74909   -3019.4139 
 1998800    996.63903   -3120.2734     118.7773   -3001.4961 
 1999000    1026.6001   -3124.9308      122.348   -3002.5828 
 1999200    926.81337   -3134.6694    110.45563   -3024.2138 
 1999400    1008.0467   -3128.7231    120.13684   -3008.5863 
 1999600    993.52941    -3126.745     118.4067   -3008.3383 
 1999800    984.79175   -3133.3413    117.36537   -3015.9759 
 2000000    1041.6057   -3135.1203    124.13633   -3010.9839 
Loop time of 14836.5 on 1 procs for 2000000 steps with 923 atoms

Performance: 11.647 ns/day, 2.061 hours/ns, 134.802 timesteps/s
99.6% CPU use with 1 MPI tasks x 1 OpenMP threads

MPI task timing breakdown:
Section |  min time  |  avg time  |  max time  |%varavg| %total
---------------------------------------------------------------
Pair    | 14704      | 14704      | 14704      |   0.0 | 99.11
Neigh   | 38.818     | 38.818     | 38.818     |   0.0 |  0.26
Comm    | 1.3473     | 1.3473     | 1.3473     |   0.0 |  0.01
Output  | 23.542     | 23.542     | 23.542     |   0.0 |  0.16
Modify  | 60.221     | 60.221     | 60.221     |   0.0 |  0.41
Other   |            | 8.611      |            |       |  0.06

Nlocal:    923 ave 923 max 923 min
Histogram: 1 0 0 0 0 0 0 0 0 0
Nghost:    0 ave 0 max 0 min
Histogram: 1 0 0 0 0 0 0 0 0 0
Neighs:    18033 ave 18033 max 18033 min
Histogram: 1 0 0 0 0 0 0 0 0 0
FullNghs:  36066 ave 36066 max 36066 min
Histogram: 1 0 0 0 0 0 0 0 0 0

Total # of neighbors = 36066
Ave neighs/atom = 39.0748
Neighbor list builds = 15234
Dangerous builds = 0
All done!
Total wall time: 4:07:16
