LAMMPS (22 Aug 2018)
OMP_NUM_THREADS environment is not set. Defaulting to 1 thread. (src/comm.cpp:87)
  using 1 OpenMP thread(s) per MPI task
Reading data file ...
  orthogonal box = (-0 -0 -0) to (100 100 100)
  1 by 1 by 1 MPI processor grid
  reading atoms ...
  561 atoms
WARNING: The pair_style meam command is unsupported. Please use pair_style meam/c instead (src/MEAM/pair_meam.cpp:51)
Reading potential file library.meam with DATE: 2012-06-29
Neighbor list info ...
  update every 1 steps, delay 10 steps, check yes
  max neighbors/atom: 2000, page size: 100000
  master list distance cutoff = 6
  ghost atom cutoff = 6
  binsize = 3, bins = 34 34 34
  2 neighbor lists, perpetual/occasional/extra = 2 0 0
  (1) pair meam, perpetual
      attributes: full, newton on
      pair build: full/bin/atomonly
      stencil: full/bin/3d
      bin: standard
  (2) pair meam, perpetual, half/full from (1)
      attributes: half, newton on
      pair build: halffull/newton
      stencil: none
      bin: none
Setting up Verlet run ...
  Unit style    : metal
  Current step  : 0
  Time step     : 0.0001
Per MPI rank memory allocation (min/avg/max) = 9.723 | 9.723 | 9.723 Mbytes
Step Temp PotEng KinEng TotEng 
       0          600   -2952.8017    43.431409   -2909.3703 
     200    603.86499     -2945.99    43.711179   -2902.2788 
     400    604.39411   -2935.4239     43.74948   -2891.6744 
     600    607.06428   -2928.9134    43.942762   -2884.9706 
     800    592.88236   -2932.5081    42.916194   -2889.5919 
    1000    587.59546   -2937.2696    42.533497   -2894.7361 
    1200    591.77535   -2937.1568    42.836061   -2894.3208 
    1400    594.45757   -2937.7055    43.030216   -2894.6753 
    1600     601.3727    -2939.564    43.530773   -2896.0333 
    1800    605.39329    -2943.046    43.821806   -2899.2242 
    2000    609.22889   -2945.7141    44.099448   -2901.6146 
    2200    608.91269    -2946.455     44.07656   -2902.3784 
    2400    605.52237   -2946.8791    43.831149   -2903.0479 
    2600    603.02977   -2947.7141    43.650721   -2904.0634 
    2800    597.84729   -2949.3322    43.275583   -2906.0566 
    3000    593.98708   -2950.4206    42.996159   -2907.4244 
    3200    590.39114   -2950.6425    42.735865   -2907.9066 
    3400    593.15363   -2948.8913     42.93583   -2905.9555 
    3600    596.02217   -2948.0799    43.143471   -2904.9364 
    3800    599.91732   -2949.2242    43.425424   -2905.7988 
    4000    602.44516   -2951.7667    43.608403   -2908.1583 
    4200    605.80496   -2953.8258    43.851605   -2909.9741 
    4400     607.4887   -2955.1199    43.973483   -2911.1464 
    4600    605.72595   -2955.8675    43.845886   -2912.0217 
    4800    603.59376   -2954.9152    43.691545   -2911.2236 
    5000    600.24936   -2953.9606    43.449459   -2910.5112 
    5200     595.7384   -2953.4327     43.12293   -2910.3097 
    5400    594.69741   -2953.5439    43.047577   -2910.4963 
    5600    591.35981   -2955.4395    42.805983   -2912.6335 
    5800    594.20458   -2955.8013    43.011903   -2912.7894 
    6000    594.22962   -2956.8731    43.013716   -2913.8594 
    6200    602.40324   -2955.4331    43.605369   -2911.8277 
    6400    606.87957   -2954.2601    43.929391   -2910.3308 
    6600    607.56499   -2955.0103    43.979006   -2911.0313 
    6800    609.51784   -2954.7366    44.120364   -2910.6162 
    7000    606.82756   -2955.1937    43.925627    -2911.268 
    7200    602.03415    -2956.914    43.578652   -2913.3353 
    7400    596.78974   -2958.1495    43.199032   -2914.9505 
    7600    592.50553   -2958.6817    42.888917   -2915.7928 
    7800    589.73373   -2958.4314    42.688278   -2915.7431 
    8000    590.27041   -2957.6538    42.727126   -2914.9266 
    8200    593.93705   -2957.8767    42.992538   -2914.8842 
    8400    599.42184   -2958.7371    43.389558   -2915.3476 
    8600    607.22751   -2959.7237    43.954577   -2915.7691 
    8800    609.31426   -2960.6935    44.105628   -2916.5879 
    9000    611.36983   -2959.4816    44.254422   -2915.2272 
    9200    606.89755   -2957.3044    43.930693   -2913.3737 
    9400    603.07719   -2954.9975    43.654153   -2911.3433 
    9600    597.15375   -2954.2619    43.225381   -2911.0365 
    9800    594.41442   -2953.9493    43.027093   -2910.9222 
   10000    587.25123   -2954.8934    42.508581   -2912.3848 
   10200    588.92196   -2954.3084    42.629517   -2911.6789 
   10400    592.09777   -2953.3381      42.8594   -2910.4787 
   10600    602.14362   -2952.4441    43.586576   -2908.8575 
   10800    607.91272   -2953.6728    44.004176   -2909.6686 
   11000    614.03578   -2955.3671    44.447398   -2910.9197 
   11200    612.83949   -2957.2709    44.360804   -2912.9101 
   11400    609.95457   -2956.9244    44.151977   -2912.7724 
   11600    601.44107   -2956.6675    43.535721   -2913.1317 
   11800    593.27244   -2957.2815     42.94443    -2914.337 
   12000    587.46177   -2958.2923     42.52382   -2915.7685 
   12200    586.42413   -2959.0718     42.44871    -2916.623 
   12400    587.91058   -2958.9807    42.556308   -2916.4243 
   12600    596.04967    -2957.914    43.145461   -2914.7685 
   12800    602.06587   -2959.1471    43.580948   -2915.5661 
   13000    607.39747   -2960.8995     43.96688   -2916.9326 
   13200    613.06869   -2960.5721    44.377394   -2916.1947 
   13400    613.07656   -2959.6642    44.377964   -2915.2862 
   13600    608.43159   -2959.4102    44.041735   -2915.3685 
   13800    600.42108   -2958.6703    43.461889   -2915.2084 
   14000    592.46028   -2957.8216    42.885641    -2914.936 
   14200    586.65277   -2958.0156    42.465261   -2915.5504 
   14400    584.77138   -2958.6259    42.329075   -2916.2968 
   14600    588.25534   -2958.7692    42.581264   -2916.1879 
   14800    593.30519   -2959.2795      42.9468   -2916.3327 
   15000    599.07351   -2959.4018    43.364344   -2916.0375 
   15200    608.92874   -2958.7156    44.077722   -2914.6379 
   15400    613.26723   -2960.0466    44.391766   -2915.6549 
   15600    613.30819   -2961.4263    44.394731   -2917.0315 
   15800    608.85502   -2960.4821    44.072385   -2916.4097 
   16000    603.57788    -2957.682    43.690396   -2913.9916 
   16200    596.76951   -2956.1878    43.197568   -2912.9902 
   16400    587.37234   -2956.9376    42.517347   -2914.4202 
   16600    585.70529    -2957.482    42.396677   -2915.0853 
   16800     586.3984   -2957.0761    42.446848   -2914.6293 
   17000    595.74856    -2954.839    43.123666   -2911.7153 
   17200    601.12647   -2955.1917    43.512949   -2911.6788 
   17400    607.08006    -2956.967    43.943903   -2913.0231 
   17600    611.97577   -2957.0102    44.298283   -2912.7119 
   17800    613.72455   -2954.5691     44.42487   -2910.1442 
   18000    610.08626   -2952.8517     44.16151   -2908.6902 
   18200     603.2383   -2954.2303    43.665816   -2910.5645 
   18400    592.97312   -2956.9311    42.922763   -2914.0084 
   18600    589.55241   -2957.4764    42.675153   -2914.8012 
   18800    586.04149   -2957.4184    42.421012   -2914.9974 
   19000      590.991   -2956.7584    42.779286   -2913.9792 
   19200    596.13347   -2957.4605    43.151527    -2914.309 
   19400    605.24503   -2957.5035    43.811074   -2913.6924 
   19600     611.6901   -2957.5906    44.277604    -2913.313 
   19800    616.04077   -2957.2352    44.592531   -2912.6427 
   20000    613.61738   -2956.7131    44.417112   -2912.2959 
   20200    605.60127   -2956.2026     43.83686   -2912.3657 
   20400    598.35353   -2955.7462    43.312228    -2912.434 
   20600    589.54607   -2957.3486    42.674694   -2914.6739 
   20800    583.08021   -2958.9352    42.206658   -2916.7285 
   21000    586.70867   -2957.9969    42.469307   -2915.5276 
   21200    589.89901   -2957.8957    42.700241   -2915.1955 
   21400    596.97438   -2958.3167    43.212397   -2915.1043 
   21600    604.95435   -2958.3837    43.790033   -2914.5936 
   21800    612.01719   -2957.9604    44.301281   -2913.6591 
   22000    614.41629   -2957.5337    44.474941   -2913.0588 
   22200    612.97911   -2957.0276    44.370911   -2912.6567 
   22400    608.66631   -2956.3658    44.058725   -2912.3071 
   22600    598.44891   -2957.1763    43.319132   -2913.8571 
   22800    591.09429   -2958.5408    42.786763   -2915.7541 
   23000    583.99333   -2959.6328    42.272755     -2917.36 
   23200    586.01822   -2958.2885    42.419328   -2915.8692 
   23400    591.58455   -2956.5589    42.822251   -2913.7367 
   23600    600.72131   -2956.1126    43.483621    -2912.629 
   23800    606.69361   -2957.5367    43.915931   -2913.6208 
   24000    613.57634   -2957.7681    44.414141    -2913.354 
   24200    615.21804   -2958.0018    44.532977   -2913.4688 
   24400    611.00084   -2958.3119    44.227712   -2914.0842 
   24600    606.76178    -2957.151    43.920865   -2913.2302 
   24800    593.97937   -2957.6157    42.995601   -2914.6201 
   25000    588.12632   -2956.1691    42.571924   -2913.5971 
   25200     585.7967   -2955.5017    42.403293   -2913.0984 
   25400    585.64476   -2957.7866    42.392295   -2915.3943 
   25600    590.91966    -2959.897    42.774122   -2917.1228 
   25800    600.52489   -2960.1742    43.469403   -2916.7048 
   26000     611.1841   -2958.3711    44.240978   -2914.1302 
   26200    614.66819   -2957.5817    44.493176   -2913.0885 
   26400     614.0272   -2957.5728    44.446777    -2913.126 
   26600    612.47913   -2956.8874    44.334719   -2912.5527 
   26800    602.20926   -2957.8444    43.591328    -2914.253 
   27000     595.1263   -2957.4436    43.078622   -2914.3649 
   27200    589.61912   -2957.4878    42.679982   -2914.8078 
   27400    582.75514   -2959.9462    42.183128   -2917.7631 
   27600    584.28772   -2960.7779    42.294064   -2918.4838 
   27800    590.97394   -2960.8612    42.778051   -2918.0831 
   28000    602.55641   -2960.1437    43.616456   -2916.5272 
   28200    610.35444   -2959.5546    44.180922   -2915.3737 
   28400     617.4163   -2958.4691    44.692099    -2913.777 
   28600    616.33424   -2958.7634    44.613774   -2914.1496 
   28800    610.72868   -2958.7557    44.208012   -2914.5477 
   29000    601.82801   -2958.5316    43.563731   -2914.9678 
   29200    593.82825   -2958.7894    42.984663   -2915.8047 
   29400    584.67344   -2959.9391    42.321985   -2917.6171 
   29600    582.60139   -2960.2815    42.171998   -2918.1095 
   29800    584.51749   -2959.7381    42.310697   -2917.4274 
   30000    590.85231   -2958.5704    42.769247   -2915.8012 
   30200    601.39542   -2956.9522    43.532417   -2913.4198 
   30400    610.44486   -2956.5626    44.187467   -2912.3751 
   30600    616.39427   -2956.3133    44.618119   -2911.6952 
   30800    619.53588   -2955.1528    44.845527   -2910.3072 
   31000    613.87052   -2955.9303    44.435436   -2911.4948 
   31200    603.70124   -2958.7408    43.699325   -2915.0414 
   31400    591.78306   -2961.3938     42.83662   -2918.5572 
   31600    585.98401   -2961.8776    42.416852   -2919.4608 
   31800    581.28053   -2960.8553    42.076387   -2918.7789 
   32000    586.16941   -2958.0154    42.430272   -2915.5851 
   32200    591.98338   -2956.3695     42.85112   -2913.5184 
   32400    601.77665   -2956.2938    43.560013   -2912.7338 
   32600    609.81095     -2957.78    44.141581   -2913.6384 
   32800    617.12456   -2958.1783    44.670981   -2913.5073 
   33000    615.26903   -2959.4312    44.536668   -2914.8946 
   33200    611.34392   -2960.5423    44.252546   -2916.2897 
   33400    605.93355   -2960.4409    43.860913     -2916.58 
   33600    595.53018   -2961.6671    43.107858   -2918.5592 
   33800    589.22477    -2962.714    42.651436   -2920.0626 
   34000    585.38837   -2963.1988    42.373736   -2920.8251 
   34200    585.83639    -2963.889    42.406166   -2921.4828 
   34400    591.74012    -2964.386    42.833512   -2921.5525 
   34600    598.61799   -2964.0375    43.331371   -2920.7061 
   34800    608.40227   -2962.8524    44.039613   -2918.8128 
   35000    612.98228   -2962.5207     44.37114   -2918.1496 
   35200    614.90166   -2961.7443    44.510075   -2917.2342 
   35400    611.57116   -2961.6461    44.268995   -2917.3771 
   35600    604.48248   -2961.8093    43.755876   -2918.0534 
   35800    595.96397   -2962.1801    43.139258   -2919.0409 
   36000    587.20299   -2962.6469    42.505088   -2920.1418 
   36200    584.35052    -2961.354    42.298611   -2919.0554 
   36400    586.07436   -2960.4201    42.423392   -2917.9967 
   36600    590.38449   -2962.0414    42.735384    -2919.306 
   36800     598.5216   -2962.8991    43.324394   -2919.5747 
   37000    608.99252   -2961.7994    44.082338    -2917.717 
   37200    615.02597   -2960.6794    44.519074   -2916.1603 
   37400    614.71676   -2961.3291    44.496692   -2916.8324 
   37600    610.13209   -2962.9889    44.164827   -2918.8241 
   37800    604.56774   -2963.0366    43.762048   -2919.2745 
   38000    596.09653   -2962.3873    43.148853   -2919.2385 
   38200    591.26876   -2962.0222    42.799392   -2919.2228 
   38400    584.63438   -2963.4531    42.319158    -2921.134 
   38600    585.52893   -2963.8766     42.38391   -2921.4926 
   38800     589.2753   -2963.4097    42.655094   -2920.7546 
   39000    599.81209   -2961.3939    43.417807   -2917.9761 
   39200    606.79665   -2960.3305    43.923389   -2916.4071 
   39400    616.20856   -2958.7454    44.604676   -2914.1407 
   39600    616.45922   -2958.6622    44.622821   -2914.0394 
   39800    614.48459   -2958.3476    44.479886   -2913.8677 
   40000    606.25233   -2958.3527    43.883988   -2914.4687 
   40200    594.48635   -2959.9822      43.0323   -2916.9499 
   40400    587.16541   -2961.2631    42.502368   -2918.7607 
   40600    582.94768    -2962.157    42.197065     -2919.96 
   40800    585.65565   -2962.7507    42.393083   -2920.3576 
   41000     591.4957   -2963.4216    42.815819   -2920.6058 
   41200    600.25537   -2963.9864    43.449894   -2920.5365 
   41400    608.70171   -2964.2567    44.061288   -2920.1954 
   41600     614.2737   -2963.1365     44.46462   -2918.6719 
   41800    614.04437   -2961.4197     44.44802   -2916.9716 
   42000    609.87119   -2960.6697    44.145941   -2916.5238 
   42200    600.29208   -2961.1452    43.452551   -2917.6927 
   42400    594.11519   -2960.1931    43.005432   -2917.1877 
   42600     588.4271   -2959.2986    42.593696   -2916.7049 
   42800    587.11204   -2959.1918    42.498505   -2916.6933 
   43000    587.74321    -2958.948    42.544192   -2916.4039 
   43200    594.74231   -2957.8892    43.050827   -2914.8384 
   43400     600.8483   -2957.8221    43.492813   -2914.3293 
   43600    608.06588    -2957.432    44.015263   -2913.4167 
   43800    615.14237   -2957.4449      44.5275   -2912.9174 
   44000    615.53688   -2959.1512    44.556056   -2914.5951 
   44200    609.35789   -2961.1714    44.108786   -2917.0626 
   44400    602.56192   -2962.0099    43.616855   -2918.3931 
   44600    598.48112   -2960.8756    43.321464   -2917.5542 
   44800    591.22748   -2960.0341    42.796404   -2917.2377 
   45000    588.86051   -2960.0528    42.625069   -2917.4277 
   45200    586.89788    -2960.792    42.483003    -2918.309 
   45400    590.72877   -2960.5867    42.760304   -2917.8264 
   45600    597.45768   -2960.2255    43.247381   -2916.9781 
   45800    605.18775   -2959.5751    43.806927   -2915.7681 
   46000    609.61803   -2959.4282    44.127616   -2915.3006 
   46200    613.31575   -2958.6012    44.395278   -2914.2059 
   46400    612.14071   -2957.3576    44.310222   -2913.0474 
   46600    607.31934   -2957.0533    43.961224   -2913.0921 
   46800    599.08196   -2958.7879    43.364956   -2915.4229 
   47000    590.89716   -2961.1759    42.772493   -2918.4034 
   47200    587.76228   -2962.2347    42.545573   -2919.6891 
   47400    589.50466   -2962.2682    42.671696   -2919.5965 
   47600    592.46822   -2962.8405    42.886216   -2919.9543 
   47800    599.02387   -2963.1854    43.360751   -2919.8246 
   48000     604.5154    -2962.671    43.758259   -2918.9127 
   48200    607.95508   -2961.8744    44.007243   -2917.8672 
   48400    611.73717   -2960.5324    44.281012   -2916.2514 
   48600    610.46522   -2959.5996    44.188941   -2915.4106 
   48800     605.6774   -2959.3849    43.842371   -2915.5425 
   49000     598.4245   -2959.8117    43.317365   -2916.4943 
   49200    593.99629   -2961.1707    42.996826   -2918.1739 
   49400    586.83126    -2963.284    42.478181   -2920.8058 
   49600    588.76084   -2962.2156    42.617854   -2919.5977 
   49800    591.80425   -2960.4398    42.838154   -2917.6016 
   50000    598.85269   -2959.7927     43.34836   -2916.4443 
   50200    604.68166   -2961.1722    43.770294   -2917.4019 
   50400    609.67158   -2961.7883    44.131492   -2917.6569 
   50600    611.04015   -2961.0553    44.230557   -2916.8248 
   50800    608.58721   -2960.9955       44.053   -2916.9425 
   51000    602.71233   -2961.5824    43.627743   -2917.9547 
   51200    599.19673   -2960.5713    43.373263    -2917.198 
   51400    595.38417   -2958.9239    43.097289   -2915.8266 
   51600    591.58836   -2959.1276    42.822527   -2916.3051 
   51800    589.83982    -2961.026    42.695957     -2918.33 
   52000    592.48721   -2963.3479     42.88759   -2920.4604 
   52200    596.51874   -2964.9795    43.179415   -2921.8001 
   52400    603.06743   -2964.7888    43.653447   -2921.1353 
   52600    607.88235   -2964.4048    44.001978   -2920.4029 
   52800    607.53366   -2963.9479    43.976738   -2919.9712 
   53000    608.54782   -2961.1914    44.050149   -2917.1412 
   53200    605.32414   -2958.9853      43.8168   -2915.1685 
   53400    600.97726   -2959.1535    43.502149   -2915.6514 
   53600    594.61884   -2960.7391     43.04189   -2917.6972 
   53800    587.79736   -2962.2925    42.548112   -2919.7444 
   54000    590.31713   -2961.2228    42.730508   -2918.4922 
   54200     591.9644   -2961.0467    42.849746   -2918.1969 
   54400     600.5173   -2960.8716    43.468854   -2917.4027 
   54600    602.80362   -2962.4682     43.63435   -2918.8339 
   54800    610.60076   -2963.0796    44.198752   -2918.8808 
   55000    611.67424   -2963.5469    44.276456   -2919.2704 
   55200    609.07891   -2963.4424    44.088592   -2919.3538 
   55400    606.45388   -2962.4085    43.898577   -2918.5099 
   55600    600.11226   -2962.0211    43.439534   -2918.5815 
   55800      594.657   -2961.4886    43.044652    -2918.444 
   56000    589.50574   -2961.6965    42.671775   -2919.0247 
   56200    588.19866   -2962.6587    42.577161   -2920.0815 
   56400    589.74374   -2963.7864    42.689002   -2921.0974 
   56600    596.03166   -2963.8013    43.144158   -2920.6571 
   56800    604.24956   -2963.0564    43.739016   -2919.3174 
   57000    609.34198   -2963.3458    44.107634   -2919.2382 
   57200    610.67172   -2964.1512    44.203889   -2919.9473 
   57400    610.43795   -2963.5759    44.186967   -2919.3889 
   57600     606.0002    -2963.056    43.865738   -2919.1903 
   57800    600.50822   -2963.3459    43.468196   -2919.8777 
   58000    594.39475   -2963.2238    43.025669   -2920.1981 
   58200    591.24465   -2962.0907    42.797647   -2919.2931 
   58400    590.06633   -2962.2092    42.712353   -2919.4969 
   58600    589.20381   -2963.8271    42.649919   -2921.1772 
   58800     595.2841   -2963.9778    43.090045   -2920.8877 
   59000    602.99329   -2963.1171     43.64808    -2919.469 
   59200    609.35159   -2962.5919     44.10833   -2918.4836 
   59400    610.53269   -2962.2547    44.193825   -2918.0609 
   59600    610.94668   -2961.2688    44.223792    -2917.045 
   59800    605.61895    -2960.905     43.83814   -2917.0669 
   60000    602.17835   -2959.9375     43.58909   -2916.3484 
   60200    595.18254    -2960.241    43.082693   -2917.1583 
   60400    588.21709   -2961.5518    42.578494   -2918.9733 
   60600    588.24628   -2962.2912    42.580608   -2919.7106 
   60800    589.07067   -2963.0392    42.640282    -2920.399 
   61000    595.48119   -2962.7767    43.104312   -2919.6724 
   61200    600.53802   -2962.9757    43.470353   -2919.5054 
   61400    606.55534   -2962.6948    43.905921   -2918.7889 
   61600    610.80746   -2962.7765    44.213714   -2918.5628 
   61800    609.91938   -2963.3324     44.14943    -2919.183 
   62000     608.7745   -2963.6044    44.066557   -2919.5378 
   62200    601.44493   -2964.6825    43.536001   -2921.1465 
   62400    598.46029   -2964.0569    43.319956   -2920.7369 
   62600    595.50911   -2964.1655    43.106333   -2921.0592 
   62800    590.64857   -2966.3497    42.754499   -2923.5952 
   63000    590.45087   -2968.0892    42.740188    -2925.349 
   63200    596.05217   -2967.1445    43.145642   -2923.9989 
   63400    600.33128   -2965.4738    43.455388   -2922.0184 
   63600    603.34588   -2964.2158    43.673603   -2920.5422 
   63800    607.43553   -2962.6691    43.969634   -2918.6995 
   64000    608.59989   -2962.0333    44.053918   -2917.9794 
   64200    609.25727   -2961.6889    44.101502   -2917.5874 
   64400    606.58889   -2963.1434     43.90835   -2919.2351 
   64600    600.37206   -2964.9419    43.458341   -2921.4835 
   64800    596.13299   -2964.4975    43.151492    -2921.346 
   65000    590.98854   -2963.8559    42.779108   -2921.0768 
   65200    587.73945   -2964.0607    42.543921   -2921.5168 
   65400    591.44736   -2963.4682     42.81232   -2920.6559 
   65600     595.6376   -2963.2175    43.115634   -2920.1018 
   65800    598.75763   -2964.2905    43.341479    -2920.949 
   66000    605.61771   -2964.0113    43.838051   -2920.1732 
   66200    608.05906   -2963.6929     44.01477   -2919.6781 
   66400    610.74841   -2962.6533     44.20944   -2918.4439 
   66600    609.43231   -2961.7878    44.114173   -2917.6737 
   66800    604.25822   -2962.7538    43.739643   -2919.0141 
   67000    597.70705   -2963.9993    43.265432   -2920.7339 
   67200    593.86773      -2964.4    42.987521   -2921.4125 
   67400    589.19223   -2964.1871    42.649081    -2921.538 
   67600    591.34239   -2961.9893    42.804722   -2919.1846 
   67800    592.30094    -2961.166    42.874107   -2918.2919 
   68000      598.135   -2960.7413    43.296409   -2917.4449 
   68200    604.26804   -2960.7123    43.740353    -2916.972 
   68400    608.96081   -2961.0899    44.080043   -2917.0099 
   68600    609.87235     -2962.04    44.146025    -2917.894 
   68800    608.68911   -2962.0756    44.060376   -2918.0152 
   69000    603.54236   -2962.6518    43.687825    -2918.964 
   69200    599.99897   -2963.6136    43.431334   -2920.1823 
   69400    595.10934   -2964.2049    43.077395   -2921.1275 
   69600    593.14458   -2964.1099    42.935174   -2921.1748 
   69800    594.52271   -2963.6451    43.034932   -2920.6101 
   70000    594.20253   -2963.7817    43.011755   -2920.7699 
   70200    595.82017   -2964.3242    43.128849   -2921.1953 
   70400    599.95918    -2965.042    43.428454   -2921.6136 
   70600    601.46997   -2965.9985    43.537814   -2922.4607 
   70800    606.63474   -2965.1667    43.911669    -2921.255 
   71000    608.38362   -2964.0434    44.038263   -2920.0052 
   71200    606.00997   -2963.7679    43.866444   -2919.9015 
   71400    603.70552   -2963.5271    43.699636   -2919.8275 
   71600     598.9262   -2963.6301    43.353681   -2920.2765 
   71800    596.23157   -2963.5581    43.158629   -2920.3995 
   72000    593.65525   -2964.3138     42.97214   -2921.3417 
   72200    589.48774   -2965.3872    42.670472   -2922.7168 
   72400    593.55895   -2965.0552    42.965169     -2922.09 
   72600    595.73184   -2965.6669    43.122455   -2922.5444 
   72800    601.72718   -2965.5535    43.556432    -2921.997 
   73000    606.66684   -2965.5858    43.913993   -2921.6718 
   73200    609.27976   -2965.7226     44.10313   -2921.6195 
   73400    608.35701   -2965.5896    44.036336   -2921.5532 
   73600    603.73399   -2966.4508    43.701696   -2922.7491 
   73800    598.75797   -2966.9701    43.341504   -2923.6285 
   74000    595.14286   -2965.6542    43.079821   -2922.5744 
   74200    592.88862   -2964.4236    42.916647    -2921.507 
   74400    590.82034   -2963.8691    42.766933   -2921.1021 
   74600    594.64182   -2963.2585    43.043553   -2920.2149 
   74800    598.28406   -2963.9512    43.307199    -2920.644 
   75000    604.55256   -2964.4262    43.760949   -2920.6653 
   75200    607.47197    -2965.317    43.972272   -2921.3447 
   75400    607.05931   -2966.1782    43.942402   -2922.2358 
   75600    606.56229   -2965.7337    43.906424   -2921.8273 
   75800     601.8458   -2965.2397    43.565018   -2921.6747 
   76000    599.56214   -2963.7678    43.399714    -2920.368 
   76200    596.32816    -2963.472     43.16562   -2920.3064 
   76400    591.11334   -2965.1069    42.788142   -2922.3188 
   76600    592.99252   -2966.2915    42.924168   -2923.3674 
   76800    595.93903   -2967.2481    43.137453   -2924.1106 
   77000    597.91522   -2967.4186      43.2805   -2924.1381 
   77200    602.00108   -2966.6974    43.576258   -2923.1212 
   77400    606.65946   -2965.9946    43.913458   -2922.0812 
   77600    609.01605   -2965.4609    44.084041   -2921.3769 
   77800    608.85905   -2964.6352    44.072677   -2920.5626 
   78000    602.68165   -2965.1582    43.625521   -2921.5327 
   78200    600.68554   -2965.4496    43.481032   -2921.9685 
   78400    596.60426   -2966.2944    43.185606   -2923.1088 
   78600    593.61551   -2967.1101    42.969263   -2924.1408 
   78800    592.64535   -2967.4548    42.899038   -2924.5558 
   79000    593.83906   -2966.8286    42.985445   -2923.8431 
   79200     597.3032   -2965.9859    43.236199   -2922.7497 
   79400     600.4103   -2966.3771    43.461109    -2922.916 
   79600    604.84083   -2967.5733    43.781815   -2923.7914 
   79800    606.40035    -2968.955    43.894703   -2925.0602 
   80000    606.91703   -2969.0646    43.932103   -2925.1325 
   80200    605.15849    -2968.963    43.804809   -2925.1582 
   80400    600.82136   -2969.2153    43.490863   -2925.7244 
   80600    598.76729   -2968.4557    43.342178   -2925.1135 
   80800    593.75862    -2967.652    42.979622   -2924.6723 
   81000     593.2264    -2966.775    42.941097   -2923.8339 
   81200    594.48356   -2966.9009    43.032097   -2923.8688 
   81400     597.0331    -2967.264    43.216648   -2924.0474 
   81600    600.74309   -2966.3561    43.485198   -2922.8709 
   81800    606.61595   -2964.6042    43.910309   -2920.6939 
   82000    605.89095   -2965.3347    43.857829   -2921.4769 
   82200    606.92279   -2966.8026     43.93252   -2922.8701 
   82400    603.06986   -2968.6546    43.653623    -2925.001 
   82600    601.68269   -2968.8585    43.553212   -2925.3053 
   82800    599.07435   -2969.2444    43.364405     -2925.88 
   83000    594.97996   -2970.2524    43.068029   -2927.1844 
   83200    592.49466   -2970.0919     42.88813   -2927.2038 
   83400    594.41713   -2968.3182    43.027289   -2925.2909 
   83600    596.52894   -2967.6088    43.180154   -2924.4286 
   83800    598.83063   -2969.0641    43.346763   -2925.7173 
   84000    601.99382   -2970.4412    43.575733   -2926.8654 
   84200    609.04088   -2969.3314    44.085839   -2925.2455 
   84400    608.31199   -2969.2633    44.033077   -2925.2302 
   84600    606.47892   -2970.4977     43.90039   -2926.5973 
   84800    601.54794   -2971.2624    43.543458   -2927.7189 
   85000    596.10653   -2970.8713    43.149577   -2927.7217 
   85200    593.09152   -2969.7613    42.931334   -2926.8299 
   85400     593.5731   -2968.7061    42.966193   -2925.7399 
   85600    594.64448   -2968.8769    43.043746   -2925.8331 
   85800    596.60099   -2970.4193    43.185369    -2927.234 
   86000     599.0687   -2972.3491    43.363996   -2928.9851 
   86200    604.06202   -2972.1316    43.725441   -2928.4062 
   86400    607.17746     -2971.19    43.950954    -2927.239 
   86600    606.72271   -2970.2255    43.918036   -2926.3074 
   86800    604.46388   -2968.6294     43.75453   -2924.8748 
   87000    603.47482   -2968.1048    43.682936   -2924.4218 
   87200    596.69564   -2970.3709    43.192221   -2927.1787 
   87400    594.81851   -2971.4156    43.056343   -2928.3593 
   87600     593.3042   -2971.4128    42.946729   -2928.4661 
   87800    593.98488   -2970.3528    42.996001   -2927.3568 
   88000    596.30347   -2968.6744    43.163833   -2925.5106 
   88200    600.56431   -2967.7345    43.472257   -2924.2623 
   88400    603.14153    -2968.298     43.65881   -2924.6392 
   88600    605.59993   -2968.0821    43.836763   -2924.2453 
   88800    609.37353   -2966.3646    44.109918   -2922.2547 
   89000    606.64301   -2966.9986    43.912268   -2923.0864 
   89200     601.7794   -2969.2242    43.560212    -2925.664 
   89400    595.81927   -2970.7545    43.128784   -2927.6258 
   89600    594.18841   -2970.7309    43.010733   -2927.7202 
   89800    594.31536   -2970.2681    43.019922   -2927.2482 
   90000    594.35346   -2970.7629     43.02268   -2927.7402 
   90200     592.7079   -2972.3279    42.903565   -2929.4243 
   90400     598.1914   -2971.2676    43.300492   -2927.9671 
   90600    603.48702   -2970.4096    43.683819   -2926.7257 
   90800    606.83548   -2971.6023      43.9262   -2927.6761 
   91000    607.58797   -2973.0127    43.980669    -2929.032 
   91200    608.51476   -2972.8699    44.047755   -2928.8221 
   91400    603.17441   -2972.4773    43.661191   -2928.8161 
   91600    601.71954   -2970.8317    43.555879   -2927.2758 
   91800    594.23959   -2970.3272    43.014437   -2927.3128 
   92000    592.12704   -2970.3797    42.861519   -2927.5182 
   92200    589.97163    -2970.673    42.705498   -2927.9675 
   92400    594.37388   -2969.4793    43.024158   -2926.4551 
   92600    598.88553   -2969.2332    43.350737   -2925.8824 
   92800    604.29402   -2968.5501    43.742234   -2924.8079 
   93000    610.77367   -2968.6306    44.211268   -2924.4193 
   93200     610.0928   -2970.9067    44.161983   -2926.7447 
   93400    608.34663   -2970.6694    44.035585   -2926.6338 
   93600    605.46959   -2969.0667    43.827329   -2925.2394 
   93800    597.63061   -2969.6033    43.259899   -2926.3434 
   94000    592.28687   -2971.0539    42.873089   -2928.1809 
   94200     588.6234   -2971.8955    42.607906   -2929.2876 
   94400    592.09868   -2970.4978    42.859466   -2927.6384 
   94600    592.94622    -2971.113    42.920816   -2928.1922 
   94800    598.83417   -2972.2442    43.347019   -2928.8971 
   95000    603.45471   -2972.1518     43.68148   -2928.4703 
   95200    608.58041   -2971.5521    44.052508   -2927.4996 
   95400    609.18957   -2970.9498    44.096602   -2926.8532 
   95600    609.44137    -2970.211    44.114829   -2926.0962 
   95800    602.89899   -2971.3914    43.641254   -2927.7501 
   96000    597.07714   -2972.1422    43.219835   -2928.9224 
   96200    592.40734    -2972.258    42.881809   -2929.3761 
   96400     590.0056   -2972.4661    42.707957   -2929.7581 
   96600    588.56656    -2971.614    42.603792   -2929.0102 
   96800    596.33825   -2969.3908    43.166351   -2926.2245 
   97000    600.55414    -2969.999    43.471521   -2926.5275 
   97200    605.78463   -2970.6844    43.850133   -2926.8342 
   97400    610.01769   -2970.5237    44.156546   -2926.3671 
   97600    612.07431   -2968.9752    44.305416   -2924.6698 
   97800    610.31697   -2968.1975    44.178209   -2924.0193 
   98000    599.42481   -2969.8697    43.389773     -2926.48 
   98200    591.61647   -2970.4806    42.824561   -2927.6561 
   98400    586.47586   -2969.8698    42.452455   -2927.4174 
   98600    586.64393   -2967.8132     42.46462   -2925.3486 
   98800    591.98356   -2966.8076    42.851133   -2923.9564 
   99000    594.57234   -2968.3588    43.038524   -2925.3203 
   99200    604.55706    -2967.787    43.761275   -2924.0257 
   99400    611.91743    -2966.942     44.29406   -2922.6479 
   99600     614.6737   -2967.4003    44.493575   -2922.9067 
   99800    612.30951   -2968.4791    44.322441   -2924.1567 
  100000    605.56604   -2969.4922     43.83431   -2925.6579 
Loop time of 504.23 on 1 procs for 100000 steps with 561 atoms

Performance: 1.714 ns/day, 14.006 hours/ns, 198.322 timesteps/s
99.6% CPU use with 1 MPI tasks x 1 OpenMP threads

MPI task timing breakdown:
Section |  min time  |  avg time  |  max time  |%varavg| %total
---------------------------------------------------------------
Pair    | 501.33     | 501.33     | 501.33     |   0.0 | 99.42
Neigh   | 0.025961   | 0.025961   | 0.025961   |   0.0 |  0.01
Comm    | 0.021101   | 0.021101   | 0.021101   |   0.0 |  0.00
Output  | 0.73408    | 0.73408    | 0.73408    |   0.0 |  0.15
Modify  | 1.8545     | 1.8545     | 1.8545     |   0.0 |  0.37
Other   |            | 0.2687     |            |       |  0.05

Nlocal:    561 ave 561 max 561 min
Histogram: 1 0 0 0 0 0 0 0 0 0
Nghost:    0 ave 0 max 0 min
Histogram: 1 0 0 0 0 0 0 0 0 0
Neighs:    12091 ave 12091 max 12091 min
Histogram: 1 0 0 0 0 0 0 0 0 0
FullNghs:  24182 ave 24182 max 24182 min
Histogram: 1 0 0 0 0 0 0 0 0 0

Total # of neighbors = 24182
Ave neighs/atom = 43.1052
Neighbor list builds = 18
Dangerous builds = 0
All done!
Total wall time: 0:08:24
