LAMMPS (22 Aug 2018)
OMP_NUM_THREADS environment is not set. Defaulting to 1 thread. (src/comm.cpp:87)
  using 1 OpenMP thread(s) per MPI task
Reading data file ...
  orthogonal box = (-0 -0 -0) to (100 100 100)
  1 by 1 by 1 MPI processor grid
  reading atoms ...
  561 atoms
WARNING: The pair_style meam command is unsupported. Please use pair_style meam/c instead (src/MEAM/pair_meam.cpp:51)
Reading potential file library.meam with DATE: 2012-06-29
Neighbor list info ...
  update every 1 steps, delay 10 steps, check yes
  max neighbors/atom: 2000, page size: 100000
  master list distance cutoff = 6
  ghost atom cutoff = 6
  binsize = 3, bins = 34 34 34
  2 neighbor lists, perpetual/occasional/extra = 2 0 0
  (1) pair meam, perpetual
      attributes: full, newton on
      pair build: full/bin/atomonly
      stencil: full/bin/3d
      bin: standard
  (2) pair meam, perpetual, half/full from (1)
      attributes: half, newton on
      pair build: halffull/newton
      stencil: none
      bin: none
Setting up Verlet run ...
  Unit style    : metal
  Current step  : 0
  Time step     : 0.0001
Per MPI rank memory allocation (min/avg/max) = 9.723 | 9.723 | 9.723 Mbytes
Step Temp PotEng KinEng TotEng 
       0          600    -1726.413    43.431409   -1682.9816 
     200    591.15192   -1723.8901    42.790934   -1681.0991 
     400    634.38854    -1706.281    45.920646   -1660.3604 
     600    601.01754   -1717.2488    43.505064   -1673.7437 
     800    592.23261   -1741.0119    42.869161   -1698.1427 
    1000    591.66091   -1757.0592    42.827778   -1714.2314 
    1200    594.89797   -1767.1681    43.062095    -1724.106 
    1400    595.00696   -1775.2367    43.069984   -1732.1667 
    1600    597.90029   -1781.7762     43.27942   -1738.4968 
    1800    598.80772   -1787.3707    43.345105   -1744.0256 
    2000    602.11302    -1789.436    43.584361   -1745.8517 
    2200    602.57727    -1788.435    43.617966   -1744.8171 
    2400      600.294   -1784.3371     43.45269   -1740.8845 
    2600    601.10295    -1777.049    43.511246   -1733.5377 
    2800    593.03002   -1772.1075    42.926882   -1729.1806 
    3000    591.89504    -1765.857    42.844726   -1723.0123 
    3200    596.73528   -1755.4584     43.19509   -1712.2633 
    3400    598.41022    -1748.668    43.316331   -1705.3517 
    3600    599.80827   -1746.8852     43.41753   -1703.4676 
    3800    592.00975   -1751.0715    42.853029   -1708.2184 
    4000    599.53615   -1758.2149    43.397833   -1714.8171 
    4200    612.69408   -1766.2833    44.350278   -1721.9331 
    4400    615.09886   -1773.1035     44.52435   -1728.5792 
    4600    614.14389   -1776.1473    44.455224   -1731.6921 
    4800      604.914    -1777.793    43.787112   -1734.0059 
    5000    596.23005   -1779.6711    43.158518   -1736.5126 
    5200    593.54142   -1779.9519      42.9639    -1736.988 
    5400    591.24089   -1777.9451    42.797374   -1735.1478 
    5600    592.27791   -1775.4855     42.87244    -1732.613 
    5800    595.01734   -1772.7697    43.070735    -1729.699 
    6000    602.06539     -1767.79    43.580913   -1724.2091 
    6200    597.51633   -1765.2769    43.251627   -1722.0253 
    6400    597.34718   -1762.3506    43.239383   -1719.1112 
    6600    602.20306   -1758.7183    43.590879   -1715.1274 
    6800    597.15451   -1758.9653    43.225436   -1715.7398 
    7000    603.26186   -1758.0631     43.66752   -1714.3955 
    7200    604.50857   -1756.8113    43.757765   -1713.0536 
    7400    607.68628   -1756.6075    43.987785   -1712.6198 
    7600    601.45351   -1761.3676    43.536622    -1717.831 
    7800    596.99573   -1766.6506    43.213942   -1723.4366 
    8000     597.2461   -1770.6969    43.232066   -1727.4648 
    8200    595.94543   -1774.0593    43.137916   -1730.9213 
    8400    592.74024   -1777.1783    42.905906   -1734.2724 
    8600    597.15116    -1778.807    43.225194   -1735.5818 
    8800    597.79245   -1779.9676    43.271614    -1736.696 
    9000    600.69236   -1779.2806    43.481525    -1735.799 
    9200    597.21901   -1778.5881    43.230105    -1735.358 
    9400    598.16853   -1775.9082    43.298836   -1732.6094 
    9600    596.83846   -1773.6032    43.202558   -1730.4006 
    9800    599.89698   -1771.8678    43.423952   -1728.4439 
   10000    601.04117   -1768.7441    43.506774   -1725.2373 
   10200    597.18325   -1765.3308    43.227516   -1722.1033 
   10400    604.58854   -1763.9573    43.763554   -1720.1937 
   10600    616.86962   -1765.6982    44.652528   -1721.0457 
   10800    618.80852   -1767.7725    44.792876   -1722.9796 
   11000     613.2941    -1768.888    44.393712   -1724.4943 
   11200    608.28714   -1770.1642    44.031279   -1726.1329 
   11400    601.62058   -1771.0425    43.548716   -1727.4937 
   11600    589.32203   -1772.5059    42.658476   -1729.8475 
   11800    582.35894   -1772.6547    42.154448   -1730.5002 
   12000    573.39315   -1773.4573    41.505454   -1731.9519 
   12200    576.33031   -1773.1397    41.718062   -1731.4216 
   12400    586.97586    -1771.763    42.488647   -1729.2743 
   12600    597.64784   -1770.6354    43.261146   -1727.3743 
   12800    609.77063   -1770.5772    44.138663   -1726.4385 
   13000    615.01126   -1770.4378    44.518009   -1725.9198 
   13200    621.29515   -1768.2685    44.972873   -1723.2956 
   13400    627.76141    -1768.561    45.440937     -1723.12 
   13600    622.09647   -1769.8142    45.030876   -1724.7833 
   13800    611.77922   -1768.8916    44.284055   -1724.6075 
   14000    597.20287    -1768.892    43.228936   -1725.6631 
   14200    583.21007   -1770.7286    42.216059   -1728.5126 
   14400    575.81906   -1772.9526    41.681055   -1731.2715 
   14600    581.26935   -1773.4635    42.075578   -1731.3879 
   14800    592.18987   -1773.8748    42.866067   -1731.0088 
   15000    595.61359   -1775.3904    43.113896   -1732.2765 
   15200    607.31986     -1775.08    43.961262   -1731.1187 
   15400     614.0966   -1774.9548    44.451801    -1730.503 
   15600    613.91901    -1775.285    44.438946    -1730.846 
   15800     614.8312   -1774.6367    44.504975   -1730.1317 
   16000    603.10517   -1774.4502    43.656179    -1730.794 
   16200    599.78212   -1771.7144    43.415637   -1728.2988 
   16400    596.04919   -1768.0725    43.145427   -1724.9271 
   16600    582.29001   -1766.8423    42.149459   -1724.6928 
   16800    575.27515    -1767.296    41.641684   -1725.6543 
   17000    578.73603   -1768.3836    41.892201   -1726.4914 
   17200    585.79643   -1769.5701    42.403273   -1727.1668 
   17400    591.60337   -1771.1038    42.823613   -1728.2802 
   17600    596.26852   -1772.1505    43.161303   -1728.9892 
   17800    604.83059   -1771.9176    43.781075   -1728.1365 
   18000    609.46803   -1772.0883    44.116759   -1727.9715 
   18200    614.35174   -1772.6674    44.470269   -1728.1971 
   18400    618.25572   -1772.3368    44.752861   -1727.5839 
   18600    623.32788   -1771.9895    45.120013   -1726.8695 
   18800    613.05873   -1773.1176    44.376674    -1728.741 
   19000    602.94063    -1771.695    43.644268   -1728.0507 
   19200    594.12783    -1770.747    43.006348   -1727.7407 
   19400    585.84474   -1770.6787     42.40677   -1728.2719 
   19600    581.48048   -1769.5691    42.090861   -1727.4782 
   19800    582.54628   -1768.4332     42.16801   -1726.2652 
   20000    589.43531   -1768.0895    42.666676   -1725.4228 
   20200    601.26939   -1768.1594    43.523295   -1724.6361 
   20400     609.9382   -1770.7089    44.150792   -1726.5581 
   20600    620.95437   -1773.0536    44.948205   -1728.1054 
   20800    621.93111   -1772.6576    45.018907   -1727.6387 
   21000    615.72544     -1771.75    44.569706   -1727.1803 
   21200    605.21564   -1773.6101    43.808947   -1729.8011 
   21400    594.58273   -1773.9718    43.039276   -1730.9326 
   21600    581.94847   -1773.9697    42.124737    -1731.845 
   21800    583.93179   -1773.9424    42.268301   -1731.6741 
   22000    583.46145   -1774.1844    42.234254   -1731.9501 
   22200    583.04013    -1773.355    42.203757   -1731.1512 
   22400    589.85702   -1771.8628    42.697202   -1729.1656 
   22600    590.17208   -1771.2677    42.720008   -1728.5477 
   22800    600.51684   -1768.9793    43.468821   -1725.5105 
   23000    608.11242   -1769.5708    44.018632   -1725.5522 
   23200    619.16932   -1770.2291    44.818993   -1725.4101 
   23400    616.40946   -1771.7112    44.619218    -1727.092 
   23600    613.58325   -1770.4558    44.414641   -1726.0412 
   23800    600.30178    -1769.877    43.453254   -1726.4237 
   24000    594.09174   -1771.8257    43.003736    -1728.822 
   24200    590.91031   -1773.3328    42.773445   -1730.5594 
   24400    594.85527   -1772.2921    43.059004   -1729.2331 
   24600    603.79776   -1771.0404    43.706312   -1727.3341 
   24800     599.0689   -1770.2467     43.36401   -1726.8827 
   25000      600.151   -1768.3118    43.442339   -1724.8695 
   25200    605.02698   -1767.8675     43.79529   -1724.0722 
   25400    606.81416   -1769.1589    43.924656   -1725.2342 
   25600    610.29738   -1771.0226    44.176791   -1726.8458 
   25800    611.19487   -1770.9206    44.241757   -1726.6788 
   26000    611.04155   -1769.7817    44.230659   -1725.5511 
   26200    597.84052    -1771.292    43.275093   -1728.0169 
   26400     595.5404   -1771.5694    43.108597   -1728.4608 
   26600    592.12323   -1769.8182    42.861244    -1726.957 
   26800    588.73021   -1768.1508    42.615637   -1725.5352 
   27000    584.92623   -1771.2821    42.340284   -1728.9418 
   27200    589.08606   -1772.4153    42.641396   -1729.7739 
   27400    594.35779   -1772.1442    43.022994   -1729.1212 
   27600    599.35581   -1771.5029    43.384779   -1728.1181 
   27800    608.50598   -1770.2693     44.04712   -1726.2222 
   28000     612.0196   -1770.3957    44.301456   -1726.0943 
   28200    608.40336   -1771.0848    44.039691   -1727.0451 
   28400    603.90534   -1771.1658    43.714099   -1727.4517 
   28600    599.93788   -1770.6057    43.426912   -1727.1788 
   28800    596.72872   -1771.8244    43.194615   -1728.6298 
   29000    590.59019   -1773.4187    42.750273   -1730.6685 
   29200    590.66852   -1772.2702    42.755943   -1729.5142 
   29400    591.86274   -1771.1543    42.842388   -1728.3119 
   29600    595.34362   -1770.9875    43.094353   -1727.8931 
   29800    607.04443   -1770.9694    43.941324   -1727.0281 
   30000    610.57408   -1772.7159     44.19682   -1728.5191 
   30200    612.08966   -1773.9274    44.306527   -1729.6208 
   30400    619.64553   -1771.4333    44.853464   -1726.5799 
   30600    618.30897   -1769.0114    44.756716   -1724.2547 
   30800    612.40128   -1769.4197    44.329084   -1725.0907 
   31000     600.6984   -1770.7388    43.481963   -1727.2568 
   31200    589.98615     -1769.54    42.706549   -1726.8334 
   31400    583.17607   -1769.8674    42.213597   -1727.6538 
   31600    584.73248   -1771.1818    42.326259   -1728.8556 
   31800    586.89985    -1771.547    42.483145   -1729.0638 
   32000    595.79115    -1771.395    43.126748   -1728.2683 
   32200    606.99367   -1770.4085    43.937651   -1726.4708 
   32400    610.85359   -1769.9297    44.217054   -1725.7126 
   32600    613.69551   -1770.6477    44.422768   -1726.2249 
   32800    611.48567   -1771.4315    44.262807   -1727.1687 
   33000    610.89393   -1769.9026    44.219973   -1725.6826 
   33200    606.81682    -1769.768    43.924849   -1725.8432 
   33400    598.98904   -1770.8254     43.35823   -1727.4671 
   33600    592.29832   -1771.8642    42.873918   -1728.9903 
   33800    593.08193    -1772.112     42.93064   -1729.1813 
   34000    593.58745   -1770.9907    42.967232   -1728.0235 
   34200    592.59491   -1770.7964    42.895387   -1727.9011 
   34400    609.67623   -1769.4205    44.131829   -1725.2886 
   34600    607.27934   -1771.2733    43.958329    -1727.315 
   34800    604.75924   -1772.9175     43.77591   -1729.1416 
   35000    608.06313   -1773.0651    44.015064     -1729.05 
   35200    605.12741   -1772.0357     43.80256   -1728.2332 
   35400    594.74618   -1772.7604    43.051107   -1729.7093 
   35600     587.4977   -1775.0099    42.526421   -1732.4835 
   35800    587.63802   -1774.9423    42.536578   -1732.4057 
   36000    596.32733   -1771.4586     43.16556    -1728.293 
   36200    592.40913   -1772.0557    42.881939   -1729.1738 
   36400    602.75513   -1772.3241    43.630841   -1728.6933 
   36600     597.8619    -1771.904    43.276641   -1728.6274 
   36800    595.45314   -1771.2004    43.102281   -1728.0981 
   37000    595.40974   -1771.9806     43.09914   -1728.8814 
   37200    600.68968   -1771.1095    43.481332   -1727.6281 
   37400    616.49036   -1768.6769    44.625075   -1724.0518 
   37600    617.34178   -1770.6527    44.686705    -1725.966 
   37800     614.8099   -1771.4872    44.503433   -1726.9838 
   38000    615.02516   -1769.2881    44.519016   -1724.7691 
   38200      607.644    -1769.997    43.984725   -1726.0122 
   38400    600.48137    -1771.109    43.466253   -1727.6428 
   38600    595.46248   -1770.3663    43.102957   -1727.2633 
   38800    592.00802   -1769.8728    42.852904   -1727.0199 
   39000    597.16966   -1770.5128    43.226533   -1727.2863 
   39200    597.10332   -1772.1846    43.221731   -1728.9628 
   39400     601.1438   -1773.3931    43.514203   -1729.8789 
   39600    609.77254   -1773.8587    44.138801   -1729.7199 
   39800    610.98385   -1773.5128    44.226482   -1729.2863 
   40000    601.81187   -1773.4965    43.562562   -1729.9339 
   40200    600.36063   -1772.0337    43.457513   -1728.5762 
   40400    586.21312   -1771.3116    42.433436   -1728.8782 
   40600    589.09983    -1767.839    42.642393   -1725.1966 
   40800     585.8657   -1767.4177    42.408288   -1725.0094 
   41000    587.90284   -1769.3605    42.555747   -1726.8048 
   41200    591.86629   -1771.7119    42.842645   -1728.8693 
   41400    609.01493   -1772.9213    44.083961   -1728.8374 
   41600    626.49888   -1772.6015    45.349548   -1727.2519 
   41800    625.82862   -1772.1757    45.301031   -1726.8747 
   42000    628.84137   -1771.0499    45.519111   -1725.5308 
   42200    623.41216   -1771.3444    45.126114   -1726.2183 
   42400    607.58082   -1771.4261    43.980151    -1727.446 
   42600    588.65555   -1770.8008    42.610233   -1728.1905 
   42800    580.20231   -1771.5531     41.99834   -1729.5547 
   43000    575.95668   -1773.2351    41.691016   -1731.5441 
   43200    584.51519   -1772.4631     42.31053   -1730.1525 
   43400    606.51941   -1769.4064     43.90332    -1725.503 
   43600     610.5841   -1770.4608    44.197546   -1726.2633 
   43800    618.34017   -1772.3228    44.758974   -1727.5638 
   44000    623.49872   -1773.2943     45.13238    -1728.162 
   44200    630.12368    -1770.726    45.611932   -1725.1141 
   44400    620.55437   -1769.3791    44.919251   -1724.4599 
   44600    609.69461   -1769.8866     44.13316   -1725.7535 
   44800    595.09655   -1771.0776    43.076469   -1728.0011 
   45000    585.54805   -1770.6476    42.385295   -1728.2623 
   45200     577.5358   -1769.5587    41.805322   -1727.7534 
   45400    571.77516   -1770.2878    41.388334   -1728.8994 
   45600    569.52601   -1772.3083    41.225528   -1731.0827 
   45800    577.67543   -1771.8058    41.815429   -1729.9904 
   46000    597.91954   -1771.6998    43.280813   -1728.4189 
   46200     614.6409   -1771.8176      44.4912   -1727.3264 
   46400    622.38234    -1770.536     45.05157   -1725.4844 
   46600    624.62416   -1770.3478    45.213845   -1725.1339 
   46800    617.84057   -1771.9392     44.72281   -1727.2164 
   47000    608.27633   -1771.4561    44.030496   -1727.4256 
   47200    608.74104   -1770.3706    44.064135   -1726.3065 
   47400    600.84226   -1773.0401    43.492376   -1729.5477 
   47600    600.63898   -1772.4038    43.477662   -1728.9262 
   47800    593.74791   -1770.1222    42.978847   -1727.1433 
   48000    589.68707   -1768.1753      42.6849   -1725.4904 
   48200    572.48858   -1770.3547    41.439976   -1728.9148 
   48400    561.57176   -1772.1741    40.649755   -1731.5243 
   48600    565.87615   -1772.1903    40.961331   -1731.2289 
   48800    576.71328   -1771.8291    41.745784   -1730.0834 
   49000    594.53808   -1770.2482    43.036044   -1727.2122 
   49200     609.8433   -1770.5137    44.143923   -1726.3698 
   49400    617.00533   -1772.9771    44.662351   -1728.3148 
   49600    626.80568   -1771.9659    45.371756   -1726.5941 
   49800    627.81433   -1769.1197    45.444768   -1723.6749 
   50000    615.30499    -1769.405    44.539271   -1724.8658 
   50200    599.60872   -1769.6228    43.403085   -1726.2197 
   50400    587.24451    -1768.389    42.508094   -1725.8809 
   50600    582.99986   -1768.4162    42.200842   -1726.2153 
   50800    580.55972   -1769.6936    42.024211   -1727.6694 
   51000    589.31369     -1768.57    42.657873   -1725.9121 
   51200    594.99742   -1768.8056    43.069294   -1725.7363 
   51400    592.35971   -1771.6496    42.878361   -1728.7712 
   51600    604.90857   -1770.5068    43.786719     -1726.72 
   51800    615.57842   -1769.4035    44.559063   -1724.8444 
   52000     611.7003   -1770.7628    44.278343   -1726.4844 
   52200    602.33298   -1772.0724    43.600283   -1728.4722 
   52400    608.73991   -1771.1347    44.064053   -1727.0706 
   52600    604.96533   -1771.4024    43.790827   -1727.6116 
   52800    598.08031    -1772.623    43.292451   -1729.3305 
   53000    594.93726   -1772.3165    43.064939   -1729.2516 
   53200    595.12805   -1769.9607     43.07875    -1726.882 
   53400    595.58544   -1769.9263    43.111858   -1726.8144 
   53600    586.44851   -1772.0843    42.450475   -1729.6339 
   53800    586.18041   -1771.4256    42.431068   -1728.9945 
   54000    593.78813   -1769.3342    42.981759   -1726.3525 
   54200    591.65887   -1769.5517     42.82763   -1726.7241 
   54400    601.69242   -1770.2395    43.553916   -1726.6856 
   54600    602.78231   -1772.4854    43.632808   -1728.8526 
   54800    599.82159   -1774.2098    43.418495   -1730.7913 
   55000      603.752   -1773.4636       43.703   -1729.7606 
   55200    598.50498   -1771.7354    43.323191   -1728.4122 
   55400    595.55551   -1769.7708    43.109691   -1726.6611 
   55600    592.59685   -1769.8963    42.895527   -1727.0007 
   55800    602.65572   -1769.4405    43.623645   -1725.8168 
   56000    606.27826   -1770.3626    43.885865   -1726.4767 
   56200    615.73513   -1770.2751    44.570407   -1725.7047 
   56400    615.41556    -1768.877    44.547275   -1724.3297 
   56600    609.12233   -1769.4656    44.091735   -1725.3738 
   56800    603.36769    -1772.222    43.675181   -1728.5468 
   57000    602.58656   -1771.0136    43.618638    -1727.395 
   57200    590.42877   -1770.3097    42.738589   -1727.5711 
   57400    589.45265   -1770.5027    42.667931   -1727.8347 
   57600    592.89161   -1772.1743    42.916863   -1729.2574 
   57800    597.71951   -1773.7489    43.266334   -1730.4826 
   58000    604.67672   -1773.3937    43.769937   -1729.6237 
   58200    598.30282   -1774.0565    43.308557    -1730.748 
   58400    600.94241    -1773.709    43.499626   -1730.2094 
   58600    603.91564   -1773.5162    43.714845   -1729.8014 
   58800    603.72043   -1772.3501    43.700715   -1728.6494 
   59000    598.62616   -1772.4236    43.331962   -1729.0916 
   59200    602.16228   -1772.2116    43.587927   -1728.6236 
   59400    600.17435   -1772.0003    43.444029   -1728.5563 
   59600    601.76208   -1770.8979    43.558958   -1727.3389 
   59800    599.40769   -1771.1829    43.388534   -1727.7944 
   60000     595.5346   -1773.0835    43.108178   -1729.9753 
   60200    588.73384   -1774.0684      42.6159   -1731.4525 
   60400     589.4141   -1771.1927    42.665141   -1728.5275 
   60600    590.34609   -1770.4902    42.732604   -1727.7576 
   60800    590.55609   -1772.1663    42.747805   -1729.4185 
   61000    594.98563   -1771.0696     43.06844   -1728.0011 
   61200    592.75767   -1771.0007    42.907168   -1728.0935 
   61400    591.76489   -1772.1914    42.835305   -1729.3561 
   61600    602.84057   -1769.3368    43.637025   -1725.6997 
   61800    603.42026   -1768.9079    43.678987   -1725.2289 
   62000    605.01628   -1770.7217    43.794516   -1726.9271 
   62200    611.43405   -1771.5112     44.25907   -1727.2522 
   62400    601.92184   -1771.7292    43.570523   -1728.1586 
   62600    592.45646   -1771.4531    42.885365   -1728.5677 
   62800    580.82876   -1773.8326    42.043685   -1731.7889 
   63000    579.80168   -1774.4394     41.96934     -1732.47 
   63200    591.84011   -1773.6105    42.840749   -1730.7697 
   63400     604.5292   -1774.2136    43.759258   -1730.4543 
   63600    615.40229   -1773.4398    44.546314   -1728.8935 
   63800    613.21164   -1771.6694    44.387743   -1727.2817 
   64000    611.31089   -1771.0487    44.250155   -1726.7986 
   64200    608.28416   -1772.6324    44.031064   -1728.6014 
   64400    599.74096   -1772.9425    43.412658   -1729.5298 
   64600     602.1356   -1770.3025    43.585995   -1726.7165 
   64800    595.43692   -1770.6334    43.101107   -1727.5323 
   65000    588.23489   -1770.6826    42.579783   -1728.1028 
   65200    592.60618   -1769.0395    42.896202   -1726.1433 
   65400    595.53617   -1771.2162    43.108292   -1728.1079 
   65600    599.95362   -1773.7057    43.428051   -1730.2777 
   65800    613.08028   -1772.4245    44.378233   -1728.0463 
   66000    619.01637     -1770.77    44.807922   -1725.9621 
   66200     613.0733   -1770.8636    44.377729   -1726.4858 
   66400    597.66521   -1771.3693    43.262403   -1728.1069 
   66600    586.93645   -1770.6952    42.485794   -1728.2094 
   66800    584.47854   -1768.7066    42.307877   -1726.3987 
   67000     584.4175   -1768.6982    42.303459   -1726.3947 
   67200    586.51486   -1771.4267    42.455278   -1728.9714 
   67400    594.81332   -1772.3571    43.055968   -1729.3011 
   67600    607.78747   -1771.4396     43.99511   -1727.4445 
   67800    619.85732   -1771.9582    44.868795   -1727.0894 
   68000    625.48214   -1771.9157    45.275951   -1726.6397 
   68200    627.01811   -1771.5942    45.387133   -1726.2071 
   68400     617.9631   -1772.6397     44.73168    -1727.908 
   68600    601.82324   -1773.4343    43.563385   -1729.8709 
   68800    590.40351   -1773.0222     42.73676   -1730.2854 
   69000     583.2096   -1771.3588    42.216024   -1729.1428 
   69200    578.90505   -1771.5182    41.904437   -1729.6137 
   69400    588.29663   -1771.4865    42.584252   -1728.9023 
   69600    601.20994   -1771.2005    43.518991   -1727.6815 
   69800    615.09579   -1771.4745    44.524128   -1726.9504 
   70000    626.93956   -1771.6624    45.381447   -1726.2809 
   70200    618.08878   -1771.8709    44.740778   -1727.1301 
   70400    608.25763   -1770.8126    44.029143   -1726.7835 
   70600    600.67471   -1770.3082    43.480248    -1726.828 
   70800    590.64177   -1770.0067    42.754007   -1727.2527 
   71000    579.02461    -1770.226    41.913091   -1728.3129 
   71200    578.69044   -1770.8256    41.888902   -1728.9367 
   71400    581.19185    -1771.216    42.069968    -1729.146 
   71600    581.68008   -1771.3847    42.105309   -1729.2794 
   71800    596.91248   -1770.7197    43.207916   -1727.5118 
   72000    608.38035    -1772.122    44.038026    -1728.084 
   72200    617.02048   -1773.1442    44.663448   -1728.4807 
   72400    624.90429   -1771.9274    45.234122   -1726.6932 
   72600    612.35425   -1771.7126     44.32568    -1727.387 
   72800    611.92122   -1770.9824    44.294334    -1726.688 
   73000    604.02601   -1771.9653    43.722834   -1728.2424 
   73200    591.14782    -1771.547    42.790638   -1728.7564 
   73400    584.23086   -1771.2081    42.289949   -1728.9181 
   73600    572.41469    -1772.197    41.434627   -1730.7624 
   73800     567.4551   -1771.2709    41.075624   -1730.1953 
   74000    579.43154   -1769.9006    41.942547    -1727.958 
   74200    596.18826   -1770.9836    43.155493   -1727.8281 
   74400    621.89066   -1771.9119    45.015979   -1726.8959 
   74600    638.77337   -1771.8483    46.238046   -1725.6103 
   74800    641.75671   -1771.7899    46.453997   -1725.3359 
   75000    643.53139   -1770.7636    46.582458   -1724.1812 
   75200    620.13074   -1771.8899    44.888586   -1727.0013 
   75400    595.48911   -1771.9434    43.104885   -1728.8385 
   75600    574.45079   -1771.9378    41.582012   -1730.3558 
   75800    558.58507   -1771.1973    40.433561   -1730.7637 
   76000    545.86859   -1771.1897     39.51307   -1731.6766 
   76200    553.57789   -1769.9855    40.071112   -1729.9143 
   76400    571.07304   -1769.2517    41.337511   -1727.9142 
   76600    596.50538    -1768.936    43.178448   -1725.7576 
   76800    624.38229   -1771.2859    45.196337   -1726.0896 
   77000    654.21107   -1772.6576    47.355514   -1725.3021 
   77200    663.50071   -1772.5253    48.027951   -1724.4973 
   77400    658.69229   -1770.8526     47.67989   -1723.1727 
   77600    643.91381   -1769.8842     46.61014    -1723.274 
   77800    608.54655   -1771.7902    44.050056   -1727.7401 
   78000    582.60938   -1771.7953    42.172577   -1729.6228 
   78200    562.03768   -1771.6811     40.68348   -1730.9976 
   78400    547.00933   -1772.0322    39.595643   -1732.4365 
   78600    544.09263   -1772.4207    39.384515   -1733.0362 
   78800    558.22248   -1770.5239    40.407315   -1730.1165 
   79000    573.91299   -1771.4767    41.543083   -1729.9336 
   79200    604.95272   -1772.0048    43.789915   -1728.2149 
   79400     625.7664   -1771.6056    45.296527   -1726.3091 
   79600    637.38362   -1772.1023    46.137447   -1725.9649 
   79800    640.12731   -1772.1748    46.336051   -1725.8388 
   80000    638.96118   -1770.5927    46.251641    -1724.341 
   80200    616.29929   -1770.8287    44.611244   -1726.2174 
   80400    585.63435   -1771.4834    42.391541   -1729.0919 
   80600    577.21697   -1771.0661    41.782244   -1729.2838 
   80800    566.43089   -1772.6305    41.001486    -1731.629 
   81000    565.64575   -1772.1672    40.944653   -1731.2225 
   81200     574.6825   -1770.7686    41.598785   -1729.1698 
   81400    581.24889   -1770.4595    42.074097   -1728.3854 
   81600    592.30088   -1772.2575    42.874102   -1729.3833 
   81800    608.83189   -1773.2837    44.070711    -1729.213 
   82000    621.84326   -1772.3177    45.012548   -1727.3052 
   82200    636.91296   -1771.5626    46.103379   -1725.4592 
   82400     634.0698   -1772.8435    45.897574   -1726.9459 
   82600    627.88841   -1771.9773     45.45013   -1726.5271 
   82800    616.03388   -1770.6771    44.592032   -1726.0851 
   83000    602.66386   -1770.8328    43.624234   -1727.2086 
   83200    591.91506   -1772.4309    42.846175   -1729.5847 
   83400    578.35777   -1772.6002    41.864821   -1730.7354 
   83600    566.01209   -1772.0517     40.97117   -1731.0805 
   83800    570.60692   -1771.1927     41.30377   -1729.8889 
   84000    576.48144   -1771.2714    41.729001   -1729.5424 
   84200     592.6786   -1770.4417    42.901444   -1727.5402 
   84400    613.35732   -1770.9298    44.398287   -1726.5315 
   84600    624.56425    -1771.329    45.209508   -1726.1195 
   84800     622.6684   -1771.7856    45.072276   -1726.7133 
   85000    622.44222   -1770.6556    45.055904   -1725.5997 
   85200    611.50477   -1770.2646     44.26419   -1726.0004 
   85400     597.2088   -1771.0346    43.229365   -1727.8052 
   85600    582.70467   -1772.6394    42.179475     -1730.46 
   85800    570.77146   -1774.5104    41.315681   -1733.1947 
   86000    566.85807    -1774.099    41.032408   -1733.0666 
   86200    576.34474    -1772.119    41.719107   -1730.3999 
   86400    592.17327    -1771.017    42.864865   -1728.1521 
   86600    608.73532   -1772.0101    44.063721   -1727.9464 
   86800    627.27129    -1772.267     45.40546   -1726.8615 
   87000    635.49744   -1772.1376    46.000915   -1726.1366 
   87200     640.2488   -1771.2067    46.344846   -1724.8619 
   87400    629.79204   -1770.3038    45.587926   -1724.7159 
   87600    601.25764   -1771.2755    43.522444    -1727.753 
   87800    577.00896   -1771.6212    41.767186    -1729.854 
   88000    549.63167   -1771.6912    39.785463   -1731.9057 
   88200    542.68934   -1769.0033    39.282937   -1729.7203 
   88400    551.21529   -1767.6988    39.900095   -1727.7987 
   88600    553.90332   -1770.3803    40.094669   -1730.2857 
   88800     574.4987   -1770.5557    41.585479   -1728.9702 
   89000    599.86176    -1771.708    43.421402   -1728.2866 
   89200    631.02573   -1771.8662    45.677227    -1726.189 
   89400    651.99659   -1771.1451    47.195217   -1723.9499 
   89600    654.40592   -1771.2572    47.369619   -1723.8875 
   89800    641.94816   -1771.3086    46.467855   -1724.8408 
   90000    623.61417   -1770.0073    45.140736   -1724.8666 
   90200    597.91695    -1770.241    43.280625   -1726.9604 
   90400     577.8895   -1772.1123    41.830925   -1730.2814 
   90600    565.55414   -1771.9032    40.938021   -1730.9652 
   90800    553.44834   -1770.3807    40.061735   -1730.3189 
   91000    557.26981   -1769.4458    40.338355   -1729.1074 
   91200    568.95165   -1770.9601    41.183953   -1729.7761 
   91400    591.62903   -1773.0327     42.82547   -1730.2072 
   91600    620.99403   -1773.4174    44.951076   -1728.4663 
   91800    641.07889    -1771.684    46.404932   -1725.2791 
   92000    642.43723   -1771.6125    46.503257   -1725.1092 
   92200       637.36   -1773.3215    46.135738   -1727.1858 
   92400    623.19361   -1772.6111    45.110294   -1727.5008 
   92600    608.92184   -1768.9765    44.077222   -1724.8993 
   92800    595.74833   -1769.8284    43.123649   -1726.7047 
   93000    578.95894   -1772.2469    41.908337   -1730.3385 
   93200    566.11423   -1771.9966    40.978564    -1731.018 
   93400    566.42441    -1771.095    41.001016    -1730.094 
   93600    572.31281   -1771.4612    41.427252    -1730.034 
   93800    593.24063    -1770.427    42.942127   -1727.4849 
   94000    611.18941   -1769.7517    44.241362   -1725.5104 
   94200    624.37256   -1770.0229    45.195633   -1724.8273 
   94400    631.49385   -1770.7829    45.711112   -1725.0718 
   94600    621.66834   -1772.0971    44.999886   -1727.0972 
   94800    615.78204   -1771.7413    44.573802   -1727.1675 
   95000    604.19809   -1770.7135     43.73529   -1726.9782 
   95200     591.7393   -1770.6309    42.833453   -1727.7975 
   95400    577.26561   -1771.9942    41.785765   -1730.2084 
   95600    582.15183   -1771.4185    42.139457    -1729.279 
   95800    581.80683   -1772.0072    42.114484   -1729.8927 
   96000    588.22442   -1771.3737    42.579026   -1728.7947 
   96200    596.17757   -1771.8387     43.15472   -1728.6839 
   96400     605.0277    -1771.981    43.795342   -1728.1856 
   96600    609.39716   -1771.8888    44.111629   -1727.7772 
   96800    621.65702   -1769.4043    44.999067   -1724.4052 
   97000    612.74221   -1771.5282    44.353762   -1727.1744 
   97200    607.09978   -1772.6171    43.945331   -1728.6717 
   97400    614.51574   -1770.2013     44.48214   -1725.7192 
   97600    599.95074   -1772.0044    43.427843   -1728.5765 
   97800    594.35572   -1771.4974    43.022844   -1728.4746 
   98000    586.62391     -1771.99    42.463171   -1729.5268 
   98200    590.33473   -1772.3187    42.731782   -1729.5869 
   98400    593.66159   -1772.4578    42.972599   -1729.4852 
   98600    599.44444   -1772.2146    43.391194   -1728.8234 
   98800    600.26615    -1773.712    43.450675   -1730.2613 
   99000    602.16097   -1774.0327    43.587832   -1730.4448 
   99200    600.63073   -1773.1474    43.477064   -1729.6703 
   99400    605.57844    -1772.873    43.835208   -1729.0378 
   99600    610.44233   -1773.3139    44.187284   -1729.1266 
   99800    612.98276    -1772.783    44.371175   -1728.4119 
  100000    607.58841   -1772.2783    43.980701   -1728.2976 
Loop time of 623.167 on 1 procs for 100000 steps with 561 atoms

Performance: 1.386 ns/day, 17.310 hours/ns, 160.471 timesteps/s
99.6% CPU use with 1 MPI tasks x 1 OpenMP threads

MPI task timing breakdown:
Section |  min time  |  avg time  |  max time  |%varavg| %total
---------------------------------------------------------------
Pair    | 619.33     | 619.33     | 619.33     |   0.0 | 99.38
Neigh   | 0.074393   | 0.074393   | 0.074393   |   0.0 |  0.01
Comm    | 0.059606   | 0.059606   | 0.059606   |   0.0 |  0.01
Output  | 0.7539     | 0.7539     | 0.7539     |   0.0 |  0.12
Modify  | 2.3688     | 2.3688     | 2.3688     |   0.0 |  0.38
Other   |            | 0.5788     |            |       |  0.09

Nlocal:    561 ave 561 max 561 min
Histogram: 1 0 0 0 0 0 0 0 0 0
Nghost:    0 ave 0 max 0 min
Histogram: 1 0 0 0 0 0 0 0 0 0
Neighs:    15120 ave 15120 max 15120 min
Histogram: 1 0 0 0 0 0 0 0 0 0
FullNghs:  30240 ave 30240 max 30240 min
Histogram: 1 0 0 0 0 0 0 0 0 0

Total # of neighbors = 30240
Ave neighs/atom = 53.9037
Neighbor list builds = 50
Dangerous builds = 0
All done!
Total wall time: 0:10:23
