[1777822086.338481] [cn13:716888:0]          parser.c:1906 UCX  WARN  unused env variable: UCX_ROOT (set UCX_WARN_UNUSED_ENV_VARS=n to suppress this warning)
LAMMPS (23 Jun 2022)
OMP_NUM_THREADS environment is not set. Defaulting to 1 thread. (src/src/comm.cpp:98)
  using 1 OpenMP thread(s) per MPI task
Reading data file ...
  orthogonal box = (-0 -0 -0) to (200 200 200)
  2 by 2 by 2 MPI processor grid
  reading atoms ...
  923 atoms
  read_data CPU = 0.028 seconds
Reading eam/alloy potential file CuAgAu_Zhou04.eam.alloy with DATE: 2018-03-30
Neighbor list info ...
  update every 1 steps, delay 10 steps, check yes
  max neighbors/atom: 2000, page size: 100000
  master list distance cutoff = 8.4662927
  ghost atom cutoff = 8.4662927
  binsize = 4.2331463, bins = 48 48 48
  1 neighbor lists, perpetual/occasional/extra = 1 0 0
  (1) pair eam/alloy, perpetual
      attributes: half, newton on
      pair build: half/bin/atomonly/newton
      stencil: half/bin/3d
      bin: standard
Setting up Verlet run ...
  Unit style    : metal
  Current step  : 0
  Time step     : 0.002
Per MPI rank memory allocation (min/avg/max) = 4.708 | 4.708 | 4.709 Mbytes
   Step          Temp          E_pair         E_mol          TotEng         Press     
         0   600           -2375.1558      0             -2303.649      -109.19581    
       200   541.86478     -2546.8247      0             -2482.2464      3.0198909    
       400   326.81422     -2601.6306      0             -2562.6815      6.5354381    
       600   744.66639     -2569.8428      0             -2481.0951      2.6984548    
       800   684.2557      -2554.2257      0             -2472.6775     -29.44029     
      1000   484.74063     -2604.7006      0             -2546.9302      21.99583     
      1200   538.57224     -2604.1173      0             -2539.9314     -7.1492856    
      1400   707.40505     -2573.4536      0             -2489.1465      6.3567246    
      1600   563.13495     -2598.2746      0             -2531.1614     -9.4437522    
      1800   527.55017     -2615.1988      0             -2552.3265      12.135698    
      2000   653.50072     -2600.3257      0             -2522.4429     -7.1806913    
      2200   640.03326     -2597.6942      0             -2521.4164     -1.3451501    
      2400   556.10737     -2616.4132      0             -2550.1375      3.0064753    
      2600   584.98393     -2612.5999      0             -2542.8827      1.6749616    
      2800   645.74559     -2602.355       0             -2525.3965     -0.54651418   
      3000   561.1306      -2610.4384      0             -2543.5641     -0.30756265   
      3200   569.51662     -2619.4892      0             -2551.6155      3.0096309    
      3400   616.1467      -2617.5336      0             -2544.1026     -6.1450652    
      3600   638.43823     -2616.0617      0             -2539.974       2.1999842    
      3800   580.19277     -2620.7985      0             -2551.6523     -6.539693     
      4000   592.1353      -2619.7006      0             -2549.1312      7.9724759    
      4200   620.64973     -2615.5961      0             -2541.6284     -9.5224297    
      4400   615.13516     -2619.1023      0             -2545.7918      7.9685941    
      4600   549.56912     -2620.8141      0             -2555.3177     -9.4753922    
      4800   609.46054     -2620.6104      0             -2547.9762      5.6035844    
      5000   598.45896     -2619.2015      0             -2547.8785     -8.1650311    
      5200   591.40292     -2625.9165      0             -2555.4344      3.3565798    
      5400   605.94914     -2624.6559      0             -2552.4402     -3.7546126    
      5600   629.21843     -2625.0115      0             -2550.0226      0.77871855   
      5800   584.57917     -2628.2447      0             -2558.5759     -6.5227563    
      6000   600.3947      -2630.5188      0             -2558.9651      2.3205927    
      6200   638.55001     -2629.6254      0             -2553.5244     -5.22676      
      6400   616.53539     -2628.9748      0             -2555.4974      3.2343833    
      6600   575.15228     -2629.9803      0             -2561.4348     -4.1638684    
      6800   590.27224     -2627.7286      0             -2557.3812      4.8084087    
      7000   614.26176     -2627.287       0             -2554.0806     -4.4458924    
      7200   591.83206     -2629.9423      0             -2559.409       1.6361344    
      7400   579.77969     -2628.8868      0             -2559.7899     -0.67807442   
      7600   593.94539     -2626.227       0             -2555.4418      0.13026001   
      7800   612.05048     -2630.523       0             -2557.5801     -0.33649497   
      8000   582.10747     -2632.9512      0             -2563.5768     -2.0119279    
      8200   619.26391     -2631.5467      0             -2557.7441      0.75162642   
      8400   600.93262     -2629.3053      0             -2557.6874     -7.8114916    
      8600   571.4297      -2630.35        0             -2562.2483      1.8939649    
      8800   588.69792     -2629.3724      0             -2559.2127      1.6739364    
      9000   641.13221     -2630.1144      0             -2553.7056      4.8787613    
      9200   566.03749     -2634.284       0             -2566.8249      0.74663386   
      9400   607.43667     -2635.1258      0             -2562.7328      8.9767691    
      9600   606.14        -2627.1907      0             -2554.9522     -4.3465206    
      9800   601.30313     -2635.5929      0             -2563.9309      7.5002501    
     10000   582.82941     -2642.447       0             -2572.9866     -6.0809238    
     10200   631.47153     -2632.9419      0             -2557.6845      8.1490183    
     10400   602.60904     -2629.1906      0             -2557.3729     -9.8881604    
     10600   591.08794     -2637.2906      0             -2566.846       11.738649    
     10800   586.7855      -2635.2916      0             -2565.3598     -6.2845946    
     11000   624.68236     -2631.452       0             -2557.0037      4.352038     
     11200   588.21066     -2635.8977      0             -2565.796      -2.4184035    
     11400   595.29988     -2638.4646      0             -2567.518       4.6187523    
     11600   596.56499     -2633.4364      0             -2562.339      -4.5203622    
     11800   577.77215     -2632.5773      0             -2563.7196      5.2705563    
     12000   610.34063     -2634.9091      0             -2562.17       -2.4861015    
     12200   597.40385     -2635.9889      0             -2564.7916      9.0599295    
     12400   591.26747     -2638.2286      0             -2567.7626     -4.6066959    
     12600   593.17139     -2633.8182      0             -2563.1253      7.6867573    
     12800   596.6014      -2632.75        0             -2561.6484     -5.2835445    
     13000   571.72267     -2633.0765      0             -2564.9399      10.299225    
     13200   574.12763     -2636.0039      0             -2567.5806     -7.7816142    
     13400   623.94124     -2635.7411      0             -2561.3812      2.2858139    
     13600   594.63441     -2636.3765      0             -2565.5093     -1.6317061    
     13800   612.4654      -2636.3283      0             -2563.336       6.6696662    
     14000   603.1407      -2635.2008      0             -2563.3198      0.83187563   
     14200   593.65083     -2634.6804      0             -2563.9304     -0.69079668   
     14400   579.59773     -2633.6423      0             -2564.5671     -0.46380068   
     14600   614.74915     -2640.16        0             -2566.8955      5.4111304    
     14800   607.16979     -2639.2293      0             -2566.8681     -3.9645792    
     15000   611.03612     -2636.4741      0             -2563.6521      4.1111441    
     15200   589.47544     -2635.5337      0             -2565.2813     -2.8790026    
     15400   608.13944     -2636.2902      0             -2563.8134      11.597952    
     15600   594.00014     -2637.6749      0             -2566.8832     -5.930259     
     15800   624.91992     -2640.7498      0             -2566.2731      9.6956361    
     16000   586.80937     -2635.8788      0             -2565.9441     -3.9474344    
     16200   617.91966     -2636.2987      0             -2562.6564      6.3475325    
     16400   593.03405     -2636.1773      0             -2565.5008     -6.8796246    
     16600   595.50684     -2637.4896      0             -2566.5184      5.808901     
     16800   600.23799     -2638.3596      0             -2566.8245     -7.3896888    
     17000   601.84593     -2637.0553      0             -2565.3285      0.21300472   
     17200   603.40841     -2639.8802      0             -2567.9673      3.7062266    
     17400   626.62072     -2639.8825      0             -2565.2032      1.7206828    
     17600   597.88464     -2639.833       0             -2568.5784      1.1625512    
     17800   572.90648     -2638.7827      0             -2570.505       1.6545938    
     18000   614.86207     -2637.9395      0             -2564.6615      2.1736883    
     18200   585.67397     -2638.2946      0             -2568.4953     -2.2449044    
     18400   572.10811     -2638.9335      0             -2570.7509      5.6723876    
     18600   594.09445     -2638.0126      0             -2567.2097     -0.2508017    
     18800   609.67942     -2637.2944      0             -2564.6341      2.5031894    
     19000   605.11168     -2642.3492      0             -2570.2333      0.37666188   
     19200   587.64857     -2638.544       0             -2568.5093      2.1586499    
     19400   590.5824      -2635.7802      0             -2565.3959      1.134404     
     19600   594.43105     -2641.581       0             -2570.738       2.9616117    
     19800   601.36557     -2637.1871      0             -2565.5176      3.0559507    
     20000   595.95661     -2636.2621      0             -2565.2373     -3.1906373    
     20200   599.95259     -2641.0352      0             -2569.5341      3.352448     
     20400   591.247       -2639.7338      0             -2569.2702      0.2461933    
     20600   607.87911     -2641.3449      0             -2568.8992      2.1161245    
     20800   595.97034     -2636.6051      0             -2565.5787      6.5741202    
     21000   588.68373     -2635.8831      0             -2565.7251     -6.5703189    
     21200   575.14248     -2636.9162      0             -2568.372       5.5536487    
     21400   601.62981     -2640.9858      0             -2569.2848      0.60923186   
     21600   612.57084     -2639.2293      0             -2566.2245      5.2982033    
     21800   597.79324     -2641.6433      0             -2570.3996     -5.7298746    
     22000   585.22189     -2642.5409      0             -2572.7954      7.7199202    
     22200   623.83645     -2637.9117      0             -2563.5642     -3.0950646    
     22400   588.94144     -2634.0939      0             -2563.9051      4.2829598    
     22600   580.51823     -2643.987       0             -2574.8021     -3.9339566    
     22800   582.04644     -2643.2293      0             -2573.8622      3.1775909    
     23000   615.05874     -2639.3923      0             -2566.0909     -1.6777208    
     23200   611.37454     -2645.2542      0             -2572.3919      5.1238822    
     23400   564.275       -2645.2597      0             -2578.0107      0.81243279   
     23600   613.88071     -2638.1275      0             -2564.9665      4.8470226    
     23800   595.41895     -2639.3588      0             -2568.3981     -3.3684282    
     24000   598.8595      -2648.9531      0             -2577.5823      0.25751175   
     24200   580.43589     -2642.3535      0             -2573.1784      0.5324109    
     24400   631.23743     -2639.6587      0             -2564.4292     -4.2491792    
     24600   588.82789     -2645.3547      0             -2575.1794      1.4862766    
     24800   590.03605     -2648.5137      0             -2578.1945      3.9633887    
     25000   626.24958     -2641.3231      0             -2566.688      -0.26656831   
     25200   598.64074     -2640.0106      0             -2568.6658      3.2678391    
     25400   571.876       -2646.1984      0             -2578.0435     -3.5072547    
     25600   600.3289      -2642.2926      0             -2570.7467      4.0893368    
     25800   612.28337     -2642.373       0             -2569.4024     -4.5435797    
     26000   588.97977     -2644.1041      0             -2573.9108      3.2201466    
     26200   598.09898     -2645.3276      0             -2574.0475     -2.7228043    
     26400   602.37654     -2643.0187      0             -2571.2288      3.267477     
     26600   606.55979     -2641.7938      0             -2569.5053      2.4563161    
     26800   597.24598     -2641.6312      0             -2570.4527      5.2756074    
     27000   591.70641     -2645.044       0             -2574.5257     -7.6075102    
     27200   613.03147     -2643.4804      0             -2570.4206      5.8756988    
     27400   589.27607     -2642.6359      0             -2572.4072     -6.7082346    
     27600   602.85712     -2647.2242      0             -2575.377       6.826589     
     27800   584.4403      -2644.4909      0             -2574.8386     -2.7508059    
     28000   615.80583     -2644.2147      0             -2570.8243     -0.095537578  
     28200   605.14123     -2646.277       0             -2574.1576     -3.5208588    
     28400   602.14837     -2647.4881      0             -2575.7254      3.5371944    
     28600   617.78796     -2644.0423      0             -2570.4157     -4.1692869    
     28800   611.65288     -2641.8595      0             -2568.964       1.9889526    
     29000   580.77363     -2647.177       0             -2577.9616     -3.6762839    
     29200   623.69965     -2649.9415      0             -2575.6103      4.2198218    
     29400   612.58256     -2643.6785      0             -2570.6723     -5.7237647    
     29600   609.79699     -2644.2234      0             -2571.5491      0.2701818    
     29800   569.56048     -2641.2765      0             -2573.3975      2.3826711    
     30000   593.64404     -2641.0651      0             -2570.3159      0.52834888   
     30200   611.11195     -2642.2075      0             -2569.3765     -2.9057462    
     30400   591.88415     -2643.9236      0             -2573.3841     -2.4635916    
     30600   604.37931     -2646.3131      0             -2574.2844     -5.2130742    
     30800   601.92412     -2643.3321      0             -2571.596       0.32428859   
     31000   589.27286     -2640.444       0             -2570.2157      4.8645519    
     31200   593.33054     -2643.4789      0             -2572.7671     -3.1909618    
     31400   605.68331     -2643.9236      0             -2571.7396      4.0814689    
     31600   600.67024     -2643.7706      0             -2572.184      -2.130289     
     31800   584.64493     -2641.2382      0             -2571.5615      2.6280706    
     32000   592.16235     -2642.168       0             -2571.5954      2.5948705    
     32200   617.27603     -2644.2556      0             -2570.69       -1.9598402    
     32400   637.96017     -2648.4736      0             -2572.4429      1.2152661    
     32600   595.52432     -2644.2816      0             -2573.3083     -3.4717593    
     32800   593.6702      -2641.9805      0             -2571.2282      4.0464387    
     33000   583.41679     -2640.8911      0             -2571.3608     -1.7600496    
     33200   587.13276     -2643.7975      0             -2573.8243      6.6135559    
     33400   583.72259     -2643.4553      0             -2573.8885     -2.0030208    
     33600   571.14559     -2642.4878      0             -2574.4199      6.3566153    
     33800   596.43728     -2646.7623      0             -2575.6802     -3.9061575    
     34000   619.23736     -2644.3528      0             -2570.5534      1.6385946    
     34200   579.29644     -2647.0327      0             -2577.9934     -3.9493674    
     34400   597.80068     -2648.15        0             -2576.9054      2.3018142    
     34600   599.96484     -2645.3493      0             -2573.8468     -6.9767666    
     34800   608.83099     -2648.1545      0             -2575.5953      6.476388     
     35000   596.44665     -2650.4622      0             -2579.379      -7.1479593    
     35200   635.57235     -2650.5217      0             -2574.7756      7.6930975    
     35400   592.21587     -2647.8519      0             -2577.2729     -10.206357    
     35600   609.90732     -2647.3442      0             -2574.6568      11.119985    
     35800   592.13578     -2648.5354      0             -2577.9659     -4.2125161    
     36000   588.96799     -2643.4985      0             -2573.3066      8.8492161    
     36200   623.73079     -2647.4789      0             -2573.144      -4.3214749    
     36400   603.82045     -2650.3182      0             -2578.3562      5.9425308    
     36600   593.03084     -2647.1654      0             -2576.4893     -4.1174366    
     36800   599.5878      -2645.4274      0             -2573.9698      2.6115378    
     37000   598.20613     -2650.6423      0             -2579.3494     -1.817276     
     37200   571.76657     -2648.7735      0             -2580.6316      3.884235     
     37400   603.78176     -2646.5039      0             -2574.5465     -0.61344219   
     37600   602.29434     -2648.8172      0             -2577.0371      0.57686407   
     37800   584.07619     -2651.6983      0             -2582.0894     -4.0932965    
     38000   615.58612     -2649.8346      0             -2576.4704      0.73721718   
     38200   585.4825      -2642.148       0             -2572.3715     -0.19592879   
     38400   577.20304     -2646.6998      0             -2577.91        4.1491155    
     38600   590.7623      -2652.8755      0             -2582.4697      0.087096065  
     38800   630.38005     -2650.5769      0             -2575.4496      2.3461866    
     39000   605.8761      -2645.6825      0             -2573.4755     -1.805643     
     39200   610.37185     -2651.7434      0             -2579.0006     -0.025761244  
     39400   602.31632     -2650.9445      0             -2579.1618      3.0415761    
     39600   606.09499     -2647.3161      0             -2575.083      -2.5071064    
     39800   618.6628      -2651.6258      0             -2577.8949     -2.8059969    
     40000   586.12191     -2651.9478      0             -2582.0951      0.021680127  
     40200   609.42845     -2647.1212      0             -2574.4908     -0.77672003   
     40400   592.48903     -2646.2688      0             -2575.6572      5.3370989    
     40600   569.32741     -2648.5982      0             -2580.747      -0.60907697   
     40800   592.45651     -2646.6635      0             -2576.0558      5.0120909    
     41000   607.45369     -2648.6667      0             -2576.2717     -1.0398061    
     41200   629.27288     -2652.869       0             -2577.8736      1.4902365    
     41400   638.96514     -2654.2624      0             -2578.1119     -2.1758433    
     41600   608.91887     -2650.4874      0             -2577.9177     -3.4470756    
     41800   606.64504     -2649.0456      0             -2576.747       0.11774489   
     42000   587.00116     -2648.9564      0             -2578.9988     -1.7506617    
     42200   585.26884     -2649.5831      0             -2579.832       5.5611711    
     42400   594.73178     -2645.0178      0             -2574.1389     -5.0911092    
     42600   619.38496     -2649.3801      0             -2575.5631     -0.15134609   
     42800   582.49257     -2651.2103      0             -2581.7901      3.1108902    
     43000   607.96701     -2649.8046      0             -2577.3484     -2.1171684    
     43200   628.21625     -2646.775       0             -2571.9055     -1.5508207    
     43400   569.89731     -2648.0142      0             -2580.0951     -3.4627365    
     43600   594.44719     -2651.0729      0             -2580.2279      2.4359605    
     43800   601.51357     -2645.3859      0             -2573.6988     -1.3239713    
     44000   607.86798     -2648.3283      0             -2575.8839      2.7466902    
     44200   581.11465     -2650.657       0             -2581.401       0.56784672   
     44400   604.55613     -2647.7102      0             -2575.6605     -0.53997727   
     44600   642.40228     -2648.2967      0             -2571.7366     -4.014736     
     44800   574.83965     -2649.8707      0             -2581.3625      1.1225466    
     45000   574.75586     -2649.8895      0             -2581.3913     -1.0810441    
     45200   637.04915     -2647.3899      0             -2571.4678     -1.4022251    
     45400   590.19643     -2648.3192      0             -2577.9808     -0.82580937   
     45600   587.2279      -2651.3223      0             -2581.3377      2.6732666    
     45800   619.91891     -2648.0891      0             -2574.2085      0.17689694   
     46000   618.94789     -2649.2052      0             -2575.4404     -0.74413218   
     46200   597.65434     -2650.3354      0             -2579.1082      2.8235125    
     46400   589.24142     -2648.1179      0             -2577.8934      3.1515091    
     46600   603.43087     -2646.3558      0             -2574.4402     -0.39071038   
     46800   611.90097     -2649.442       0             -2576.5169      2.8587942    
     47000   599.17606     -2653.1456      0             -2581.7371     -3.9320794    
     47200   602.72305     -2647.833       0             -2576.0018      5.9931266    
     47400   603.87575     -2647.915       0             -2575.9464     -7.2955306    
     47600   574.90673     -2647.5685      0             -2579.0524      4.5450662    
     47800   594.56451     -2649.2086      0             -2578.3497      0.058304506  
     48000   612.99303     -2650.1361      0             -2577.081       6.0282596    
     48200   593.8508      -2650.5321      0             -2579.7582     -2.967016     
     48400   596.06069     -2647.8539      0             -2576.8167      0.32181085   
     48600   603.52841     -2648.9086      0             -2576.9814     -5.4441716    
     48800   592.87096     -2651.7509      0             -2581.0938      6.1931608    
     49000   587.77726     -2652.2598      0             -2582.2098     -8.3675114    
     49200   609.94937     -2647.1253      0             -2574.4328      10.068115    
     49400   608.97444     -2648.9813      0             -2576.405      -11.00884     
     49600   601.95182     -2651.6208      0             -2579.8814      7.6974403    
     49800   600.48432     -2651.3878      0             -2579.8233     -5.3160972    
     50000   597.37913     -2647.3418      0             -2576.1475      9.9596029    
     50200   590.95077     -2649.4796      0             -2579.0513     -3.9196066    
     50400   594.43896     -2648.1993      0             -2577.3553      9.9947413    
     50600   614.37775     -2650.688       0             -2577.4678     -9.1304622    
     50800   574.53507     -2647.1993      0             -2578.7274      8.3876535    
     51000   573.59106     -2648.0179      0             -2579.6586     -5.8195836    
     51200   604.55803     -2649.1872      0             -2577.1373      6.382665     
     51400   607.81547     -2651.5381      0             -2579.1        -7.3902761    
     51600   592.2075      -2651.5268      0             -2580.9488      4.903902     
     51800   601.86022     -2650.5708      0             -2578.8424     -6.0720066    
     52000   615.78794     -2649.4576      0             -2576.0693      3.3012004    
     52200   588.60595     -2651.0975      0             -2580.9487     -0.14569534   
     52400   580.99979     -2649.1356      0             -2579.8932      3.5348435    
     52600   592.71546     -2647.053       0             -2576.4144     -0.029985602  
     52800   590.09155     -2649.4382      0             -2579.1123     -0.356207     
     53000   611.04523     -2652.8814      0             -2580.0583     -2.4054059    
     53200   590.47043     -2647.613       0             -2577.242       1.8593383    
     53400   595.66443     -2647.4159      0             -2576.4259     -0.69226943   
     53600   610.03921     -2652.5134      0             -2579.8103      5.1991311    
     53800   575.43619     -2650.3637      0             -2581.7845     -4.3357355    
     54000   610.60312     -2651.1886      0             -2578.4183      2.5980444    
     54200   599.39387     -2650.3234      0             -2578.889      -4.4674051    
     54400   605.11277     -2654.301       0             -2582.185       2.9464315    
     54600   551.03383     -2647.1452      0             -2581.4741      0.40771545   
     54800   631.83918     -2648.6152      0             -2573.3139     -0.35233343   
     55000   577.47419     -2649.2548      0             -2580.4326     -4.0664539    
     55200   573.71372     -2652.4916      0             -2584.1176      4.3576922    
     55400   596.68087     -2649.4717      0             -2578.3605     -3.919159     
     55600   614.21021     -2647.0808      0             -2573.8806      4.5150252    
     55800   588.34165     -2649.4257      0             -2579.3084     -2.6058187    
     56000   581.62234     -2652.2461      0             -2582.9296      6.3954774    
     56200   596.40935     -2649.5987      0             -2578.5199     -5.5209391    
     56400   633.21416     -2648.5622      0             -2573.0971     -1.7123938    
     56600   583.45935     -2652.6431      0             -2583.1077     -1.2709216    
     56800   578.32747     -2651.8237      0             -2582.8999     -0.061195615  
     57000   607.84163     -2645.8484      0             -2573.4071     -0.67628607   
     57200   620.75641     -2650.7144      0             -2576.734       1.9131795    
     57400   566.44136     -2653.3558      0             -2585.8485     -1.5634931    
     57600   600.61804     -2649.2438      0             -2577.6635     -0.31966697   
     57800   625.64296     -2646.7472      0             -2572.1844     -5.6801585    
     58000   587.47192     -2651.4627      0             -2581.4491      2.9989949    
     58200   596.29819     -2653.6486      0             -2582.5831      1.032334     
     58400   610.87309     -2649.6689      0             -2576.8664      2.5817925    
     58600   616.43124     -2649.7406      0             -2576.2756     -1.0106544    
     58800   591.42339     -2651.8736      0             -2581.3891     -3.3920442    
     59000   606.49642     -2650.5317      0             -2578.2508     -0.34575209   
     59200   600.76753     -2651.0839      0             -2579.4858     -0.67687396   
     59400   603.02752     -2651.0214      0             -2579.1539     -1.7423782    
     59600   606.84335     -2651.3757      0             -2579.0534      0.89485539   
     59800   586.19175     -2650.9475      0             -2581.0864     -0.4818737    
     60000   580.04505     -2651.3598      0             -2582.2313      4.3521435    
     60200   598.50066     -2651.8281      0             -2580.5001     -3.0613947    
     60400   596.92302     -2650.3931      0             -2579.2531      2.9795609    
     60600   598.8849      -2651.3054      0             -2579.9316      1.1297266    
     60800   597.65202     -2652.8143      0             -2581.5875      2.2607332    
     61000   599.35157     -2651.0402      0             -2579.6107     -1.1553609    
     61200   590.45181     -2648.3052      0             -2577.9365      2.6164715    
     61400   577.14232     -2650.3515      0             -2581.5689     -0.57354357   
     61600   608.39165     -2654.6361      0             -2582.1293     -1.6269093    
     61800   640.6974      -2655.6098      0             -2579.2529     -2.0729709    
     62000   610.52588     -2650.912       0             -2578.1508      7.3225464    
     62200   599.82058     -2652.1671      0             -2580.6818     -1.6957035    
     62400   611.22304     -2653.6279      0             -2580.7836      3.545669     
     62600   592.58234     -2652.2884      0             -2581.6657     -1.6432097    
     62800   602.58803     -2651.5307      0             -2579.7155      6.4487087    
     63000   583.42246     -2648.2204      0             -2578.6893     -3.9100695    
     63200   595.93857     -2649.9535      0             -2578.9308      1.2910458    
     63400   596.55958     -2651.3865      0             -2580.2898     -3.2994514    
     63600   614.78053     -2654.0797      0             -2580.8115      4.1880595    
     63800   586.06404     -2652.3356      0             -2582.4897     -2.8786386    
     64000   618.79739     -2653.8337      0             -2580.0868      3.7793047    
     64200   584.96965     -2649.5498      0             -2579.8343     -4.3908012    
     64400   607.00962     -2653.2461      0             -2580.904       6.1572261    
     64600   577.55268     -2652.9239      0             -2584.0924      5.0016399    
     64800   604.80089     -2651.7262      0             -2579.6473      0.81375633   
     65000   586.70807     -2648.483       0             -2578.5604      0.65359107   
     65200   599.54715     -2654.4008      0             -2582.948       1.0427322    
     65400   579.3925      -2651.8557      0             -2582.8049      3.2694455    
     65600   606.53595     -2651.1798      0             -2578.8942      2.3434284    
     65800   600.61527     -2652.5192      0             -2580.9391     -1.847566     
     66000   595.35321     -2656.0896      0             -2585.1367      1.7092861    
     66200   613.51453     -2653.6869      0             -2580.5696     -0.52693285   
     66400   609.29816     -2652.1949      0             -2579.5801      2.3378589    
     66600   610.9908      -2656.2033      0             -2583.3867      0.6188789    
     66800   608.26473     -2656.8836      0             -2584.3919      3.2055211    
     67000   602.61344     -2653.0622      0             -2581.244       2.080212     
     67200   617.37188     -2653.8285      0             -2580.2515     -0.89756536   
     67400   573.01164     -2652.8828      0             -2584.5925      5.0024268    
     67600   614.30776     -2654.807       0             -2581.5951      1.351331     
     67800   621.29465     -2656.5507      0             -2582.5061     -2.957779     
     68000   602.46783     -2656.4364      0             -2584.6356     -2.2268038    
     68200   623.20512     -2654.8176      0             -2580.5453     -0.23170748   
     68400   609.97744     -2654.9257      0             -2582.2299     -0.25586852   
     68600   588.42525     -2657.1566      0             -2587.0294      0.60373602   
     68800   610.51628     -2656.8536      0             -2584.0936     -3.1818485    
     69000   599.17519     -2653.4699      0             -2582.0615      2.3186947    
     69200   570.80891     -2654.2649      0             -2586.2371      2.5989693    
     69400   609.71782     -2657.0678      0             -2584.4029      0.035308437  
     69600   604.47618     -2653.106       0             -2581.0658      0.34435372   
     69800   596.50374     -2657.3558      0             -2586.2658      2.0635934    
     70000   606.0722      -2656.3641      0             -2584.1338     -1.9289181    
     70200   630.10126     -2654.7679      0             -2579.6738     -3.572774     
     70400   596.73388     -2656.1696      0             -2585.0521      5.3575849    
     70600   607.87359     -2660.9326      0             -2588.4875     -1.4841484    
     70800   599.39316     -2653.5436      0             -2582.1092      2.4498411    
     71000   620.95192     -2656.1999      0             -2582.1962     -5.9693445    
     71200   580.59711     -2659.1268      0             -2589.9325      6.5017165    
     71400   593.08875     -2657.4681      0             -2586.7851     -3.4081986    
     71600   596.21891     -2652.8184      0             -2581.7623      5.155138     
     71800   594.50692     -2655.3448      0             -2584.4928     -4.4030461    
     72000   600.69087     -2658.468       0             -2586.879      -0.26023005   
     72200   615.12871     -2657.3261      0             -2584.0164     -2.270568     
     72400   594.29708     -2652.1046      0             -2581.2776      1.176781     
     72600   597.55341     -2658.1238      0             -2586.9087     -2.83997      
     72800   596.34482     -2656.6408      0             -2585.5697     -0.49139183   
     73000   621.64843     -2653.608       0             -2579.5213     -2.5989516    
     73200   590.09697     -2658.467       0             -2588.1405      0.70010004   
     73400   587.25263     -2658.917       0             -2588.9295      2.2216059    
     73600   595.18516     -2650.9575      0             -2580.0246      1.6198305    
     73800   611.62316     -2655.0595      0             -2582.1676     -3.5233382    
     74000   583.45121     -2659.8783      0             -2590.3439     -1.1303863    
     74200   603.31536     -2656.3134      0             -2584.4116     -6.2771287    
     74400   626.87455     -2654.0388      0             -2579.3292     -0.74766992   
     74600   591.8489      -2659.0492      0             -2588.5139     -0.87254813   
     74800   591.69049     -2657.5119      0             -2586.9955      1.0661192    
     75000   621.04625     -2651.2651      0             -2577.2501     -2.6114943    
     75200   603.73844     -2656.4163      0             -2584.4641      3.3402507    
     75400   581.46251     -2660.327       0             -2591.0295     -4.1968986    
     75600   603.70166     -2651.6551      0             -2579.7072     -4.4914393    
     75800   625.66937     -2653.9109      0             -2579.3449     -5.2288432    
     76000   574.19863     -2659.4897      0             -2591.0579     -0.74378314   
     76200   575.3691      -2654.5195      0             -2585.9482     -2.8471945    
     76400   632.50191     -2649.3702      0             -2573.9899     -0.19963597   
     76600   603.37023     -2657.8177      0             -2585.9094     -0.060573701  
     76800   563.5431      -2656.7952      0             -2589.6334      5.9248697    
     77000   623.20517     -2650.9025      0             -2576.6303     -6.9410184    
     77200   606.89495     -2653.3482      0             -2581.0198     -0.1884612    
     77400   560.2038      -2658.9831      0             -2592.2193     -3.7205726    
     77600   594.90898     -2651.8217      0             -2580.9217      5.0516126    
     77800   617.41384     -2651.0869      0             -2577.5049     -10.404685    
     78000   588.39207     -2660.2996      0             -2590.1763      5.7783232    
     78200   577.4132      -2657.9279      0             -2589.113      -7.1965132    
     78400   642.30633     -2648.2144      0             -2571.6657      6.0600471    
     78600   589.00971     -2654.1704      0             -2583.9735     -5.7912388    
     78800   573.89906     -2662.1309      0             -2593.7348      9.4548018    
     79000   608.93389     -2654.913       0             -2582.3416     -5.8217645    
     79200   589.76031     -2648.6943      0             -2578.4079      0.64381713   
     79400   584.20133     -2658.1715      0             -2588.5477     -1.8754607    
     79600   579.07242     -2658.7739      0             -2589.7613      0.036434394  
     79800   612.93053     -2652.4477      0             -2579.4        -2.3379973    
     80000   601.888       -2653.6364      0             -2581.9046     -4.3574233    
     80200   579.77901     -2657.6337      0             -2588.5368      1.0370164    
     80400   598.39933     -2658.4838      0             -2587.1679      1.4460228    
     80600   619.46044     -2654.6135      0             -2580.7876      1.3190378    
     80800   597.8871      -2655.8151      0             -2584.5602      3.0352799    
     81000   592.20761     -2659.0391      0             -2588.4611      2.4903641    
     81200   595.91866     -2654.6272      0             -2583.6068     -1.4820773    
     81400   636.39059     -2655.95        0             -2580.1063      2.9996953    
     81600   585.14702     -2659.9255      0             -2590.189      -1.2064558    
     81800   602.91916     -2657.7952      0             -2585.9406     -2.6900306    
     82000   627.79476     -2653.701       0             -2578.8818     -1.7608278    
     82200   588.70611     -2656.1951      0             -2586.0343      4.642466     
     82400   615.49457     -2659.9183      0             -2586.565      -1.2769552    
     82600   614.62862     -2655.9656      0             -2582.7154      2.9662678    
     82800   607.80961     -2655.7253      0             -2583.2878     -2.5072306    
     83000   581.34433     -2656.4532      0             -2587.1698      8.7034601    
     83200   601.42993     -2657.0638      0             -2585.3867     -7.1206737    
     83400   603.85688     -2655.2612      0             -2583.2948      2.180753     
     83600   595.29199     -2657.3417      0             -2586.3961     -3.015076     
     83800   584.91892     -2657.5722      0             -2587.8628      5.2524558    
     84000   611.84261     -2656.9487      0             -2584.0306     -4.4767164    
     84200   595.07574     -2656.4228      0             -2585.5029      8.0073272    
     84400   596.68054     -2657.5965      0             -2586.4854      1.7349718    
     84600   621.4443      -2657.1791      0             -2583.1167      0.11922297   
     84800   593.57087     -2656.6297      0             -2585.8892      5.5254665    
     85000   586.14001     -2659.2501      0             -2589.3952     -5.6610036    
     85200   599.06174     -2653.7215      0             -2582.3266      3.0871548    
     85400   597.04075     -2654.5372      0             -2583.3831     -6.8913605    
     85600   603.64737     -2659.689       0             -2587.7476      2.0847454    
     85800   608.20189     -2659.7253      0             -2587.2411     -3.1008716    
     86000   598.52356     -2653.2315      0             -2581.9007      3.0061859    
     86200   593.50104     -2654.5247      0             -2583.7925     -4.4550564    
     86400   564.747       -2656.9667      0             -2589.6614      10.070794    
     86600   595.45551     -2655.6202      0             -2584.655      -3.6140048    
     86800   611.58954     -2652.0376      0             -2579.1497      0.74550503   
     87000   586.11083     -2657.8784      0             -2588.027      -7.4716685    
     87200   586.31844     -2659.345       0             -2589.4689      0.69399315   
     87400   614.54634     -2655.7895      0             -2582.5492      1.9199993    
     87600   619.36094     -2656.1887      0             -2582.3746      0.34724824   
     87800   573.9148      -2658.9573      0             -2590.5593     -2.1882202    
     88000   588.99874     -2658.1245      0             -2587.9289      5.2651622    
     88200   603.85948     -2654.1159      0             -2582.1492     -5.9575534    
     88400   604.52887     -2658.6905      0             -2586.644       6.5072308    
     88600   590.02295     -2659.991       0             -2589.6733     -3.8435139    
     88800   593.66752     -2652.8283      0             -2582.0763      5.214758     
     89000   626.84851     -2655.2628      0             -2580.5563     -3.1595054    
     89200   624.6275      -2660.7723      0             -2586.3306     -1.8210793    
     89400   585.41081     -2659.333       0             -2589.565      -0.46575909   
     89600   616.68678     -2657.0095      0             -2583.5141     -4.1787471    
     89800   601.48412     -2652.7791      0             -2581.0955      0.66051255   
     90000   565.49047     -2656.8199      0             -2589.426      -1.3865883    
     90200   628.18046     -2660.3786      0             -2585.5134     -0.16057162   
     90400   589.20754     -2652.8246      0             -2582.6041     -4.8694846    
     90600   605.2367      -2657.3128      0             -2585.1819      4.7761349    
     90800   593.38843     -2656.604       0             -2585.8852      0.25930069   
     91000   607.72597     -2655.2014      0             -2582.7739      7.475943     
     91200   589.26415     -2656.1304      0             -2585.9031     -8.5157698    
     91400   599.4489      -2655.9484      0             -2584.5074      7.5837517    
     91600   587.40308     -2657.3984      0             -2587.3929     -7.0423159    
     91800   618.29166     -2657.0348      0             -2583.3481      8.5702847    
     92000   613.83189     -2658.2962      0             -2585.1411     -10.182537    
     92200   604.56742     -2659.0671      0             -2587.0161      6.2683068    
     92400   597.00808     -2657.7974      0             -2586.6473     -8.3364178    
     92600   602.45761     -2655.5914      0             -2583.7918      5.5145498    
     92800   594.86745     -2656.257       0             -2585.362      -12.721095    
     93000   591.20289     -2657.3263      0             -2586.868       6.3416862    
     93200   595.20652     -2657.8732      0             -2586.9378     -10.787109    
     93400   612.69054     -2652.3909      0             -2579.3718      6.9136469    
     93600   615.39426     -2656.7469      0             -2583.4056     -3.6082912    
     93800   584.03979     -2656.5942      0             -2586.9896      8.5095607    
     94000   589.25465     -2654.3657      0             -2584.1396     -0.75224852   
     94200   629.27714     -2656.3468      0             -2581.3509      5.0768975    
     94400   576.46387     -2656.6625      0             -2587.9608     -6.6997627    
     94600   582.60743     -2656.3867      0             -2586.9528      6.154259     
     94800   600.03764     -2653.9001      0             -2582.3889     -8.0833731    
     95000   602.63746     -2654.8107      0             -2582.9896      4.3797281    
     95200   575.43883     -2656.2685      0             -2587.689      -4.4481171    
     95400   607.69439     -2657.0231      0             -2584.5994      5.1188404    
     95600   598.35367     -2654.546       0             -2583.2355      1.0913332    
     95800   610.85536     -2655.936       0             -2583.1356      0.780621     
     96000   598.41836     -2657.0196      0             -2585.7014      4.7223314    
     96200   616.82777     -2659.5821      0             -2586.0699     -2.391478     
     96400   618.87097     -2657.3459      0             -2583.5902      0.050421701  
     96600   603.51438     -2657.0948      0             -2585.1692     -2.7664655    
     96800   600.40364     -2658.5563      0             -2587.0014     -1.6253299    
     97000   621.34491     -2658.5284      0             -2584.4778     -2.7476876    
     97200   608.82418     -2656.7165      0             -2584.1582     -2.4175113    
     97400   616.79913     -2660.3818      0             -2586.873      -1.4135513    
     97600   590.19788     -2655.7276      0             -2585.3891      0.98061664   
     97800   608.13121     -2653.6528      0             -2581.1771     -3.9667925    
     98000   602.02956     -2659.0926      0             -2587.344       3.2651171    
     98200   574.22434     -2657.6194      0             -2589.1845     -5.0507125    
     98400   610.66907     -2654.7507      0             -2581.9725      5.3394264    
     98600   584.03714     -2656.1918      0             -2586.5875     -6.7371409    
     98800   592.09952     -2658.4883      0             -2587.9232      6.4628662    
     99000   591.98287     -2656.0548      0             -2585.5036     -5.6172903    
     99200   618.91061     -2655.7114      0             -2581.951       3.6335457    
     99400   566.00374     -2657.2723      0             -2589.8172     -2.638599     
     99600   557.70363     -2654.131       0             -2587.6651     -1.6315333    
     99800   633.74172     -2654.9108      0             -2579.3828     -3.5617836    
    100000   586.16305     -2656.5004      0             -2586.6427     -1.5703171    
    100200   607.69418     -2660.4348      0             -2588.0111      3.9295107    
    100400   606.7027      -2655.6044      0             -2583.2989     -2.987824     
    100600   625.90716     -2657.1137      0             -2582.5195      7.2952749    
    100800   567.15189     -2658.7489      0             -2591.1569     -4.0683394    
    101000   601.93951     -2658.1264      0             -2586.3885      2.7683008    
    101200   611.99943     -2653.883       0             -2580.9462     -5.741641     
    101400   588.68161     -2656.6142      0             -2586.4564      4.5241225    
    101600   592.61297     -2658.8181      0             -2588.1917     -1.1409548    
    101800   599.56621     -2654.4913      0             -2583.0363      1.1948362    
    102000   604.24091     -2657.2947      0             -2585.2826     -3.7775552    
    102200   610.11768     -2660.0538      0             -2587.3413      4.9292613    
    102400   592.95142     -2656.6542      0             -2585.9876     -6.1738811    
    102600   599.1216      -2657.8079      0             -2586.4059      2.4545296    
    102800   598.64324     -2657.3012      0             -2585.9562      4.8730363    
    103000   598.62802     -2659.9093      0             -2588.5661     -4.4048831    
    103200   593.84514     -2657.8262      0             -2587.053       5.2420743    
    103400   583.28837     -2652.6706      0             -2583.1556     -2.896945     
    103600   618.31844     -2657.1289      0             -2583.4391      2.3244296    
    103800   584.73599     -2660.1778      0             -2590.4902     -5.0904502    
    104000   599.36979     -2656.5836      0             -2585.152       3.6144815    
    104200   614.99281     -2654.1286      0             -2580.8351     -2.0541791    
    104400   602.77241     -2659.9958      0             -2588.1587      0.98880309   
    104600   583.85797     -2659.4008      0             -2589.8179     -0.35654663   
    104800   621.98747     -2654.8106      0             -2580.6834      3.2637498    
    105000   606.85266     -2656.5375      0             -2584.2141     -3.3561704    
    105200   597.49076     -2662.3259      0             -2591.1182      4.2331019    
    105400   609.34264     -2658.2564      0             -2585.6363     -0.3186877    
    105600   606.59634     -2653.8091      0             -2581.5162      1.9337251    
    105800   595.48522     -2659.1698      0             -2588.2012      3.1021486    
    106000   578.00816     -2658.7145      0             -2589.8287     -0.68087528   
    106200   630.9909      -2655.8129      0             -2580.6128      3.3316291    
    106400   600.76865     -2656.9717      0             -2585.3733     -3.4800345    
    106600   587.66004     -2661.2506      0             -2591.2145      4.920243     
    106800   608.26699     -2655.4456      0             -2582.9536     -2.7327433    
    107000   635.01695     -2658.6862      0             -2583.0062      1.397857     
    107200   590.51108     -2664.0002      0             -2593.6243     -0.53899896   
    107400   606.09164     -2659.695       0             -2587.4623      4.3407085    
    107600   623.13882     -2654.0813      0             -2579.8169     -1.2783622    
    107800   615.31005     -2660.8998      0             -2587.5685      5.6537556    
    108000   577.71484     -2661.6447      0             -2592.7939     -1.982256     
    108200   606.15847     -2656.1977      0             -2583.9571     -0.78100072   
    108400   590.72591     -2654.2669      0             -2583.8654     -4.9279253    
    108600   593.24694     -2660.7217      0             -2590.0198     -2.062418     
    108800   598.2738      -2658.3024      0             -2587.0014     -1.9175302    
    109000   614.13869     -2656.102       0             -2582.9103      1.715653     
    109200   587.7414      -2660.4557      0             -2590.41        1.300116     
    109400   582.78928     -2660.3318      0             -2590.8762      1.3637034    
    109600   618.84492     -2655.9885      0             -2582.2359     -0.64651619   
    109800   592.87628     -2660.4526      0             -2589.7949     -3.1166263    
    110000   603.55184     -2662.3784      0             -2590.4484      3.8115061    
    110200   627.94102     -2659.1627      0             -2584.326      -1.9681555    
    110400   612.73959     -2658.8481      0             -2585.8231      0.0044093576 
    110600   585.76013     -2662.8113      0             -2593.0017     -7.0891889    
    110800   620.74858     -2661.3504      0             -2587.3709      3.8407829    
    111000   624.82033     -2659.1691      0             -2584.7043     -6.1611891    
    111200   617.30067     -2661.7298      0             -2588.1613      0.84614871   
    111400   582.04494     -2659.4867      0             -2590.1199     -4.8192394    
    111600   587.86044     -2654.5785      0             -2584.5186      5.5155907    
    111800   608.75384     -2658.2555      0             -2585.7055     -4.0987851    
    112000   603.04961     -2663.7694      0             -2591.8992      0.99637804   
    112200   602.30684     -2658.8294      0             -2587.0477      2.2333216    
    112400   602.39807     -2655.8257      0             -2584.0332      0.5928253    
    112600   591.60827     -2659.3006      0             -2588.794      -1.5548288    
    112800   597.37726     -2660.7312      0             -2589.537      -0.11127298   
    113000   596.69259     -2657.7836      0             -2586.6711     -1.4563354    
    113200   626.84883     -2662.7173      0             -2588.0108      2.9756075    
    113400   582.31156     -2660.7919      0             -2591.3932      3.3796168    
    113600   609.14538     -2659.0008      0             -2586.4042     -0.5399696    
    113800   605.74723     -2657.8945      0             -2585.7029     -2.3082098    
    114000   573.95444     -2659.4515      0             -2591.0488      1.6175665    
    114200   576.82947     -2658.8005      0             -2590.0552     -0.12901822   
    114400   592.46555     -2655.1279      0             -2584.5191     -4.5638503    
    114600   581.9496      -2658.4198      0             -2589.0643      0.65116927   
    114800   578.73673     -2661.1102      0             -2592.1376      0.78435939   
    115000   587.26182     -2656.5323      0             -2586.5437     -0.62590182   
    115200   616.77723     -2659.9572      0             -2586.451       1.6602693    
    115400   591.02924     -2659.9716      0             -2589.534       3.8522918    
    115600   592.76222     -2658.9559      0             -2588.3117      1.828308     
    115800   597.58963     -2658.2209      0             -2587.0014     -1.6321604    
    116000   594.26915     -2658.823       0             -2587.9993     -1.1668185    
    116200   598.60845     -2661.2288      0             -2589.8879      0.75565726   
    116400   613.10274     -2661.0729      0             -2588.0046     -3.1629253    
    116600   604.92296     -2658.0833      0             -2585.9899      7.6320037    
    116800   595.93304     -2660.0352      0             -2589.0131     -5.3791778    
    117000   589.84507     -2658.9753      0             -2588.6788      3.57376      
    117200   574.22424     -2655.9097      0             -2587.4749     -6.1009752    
    117400   603.90397     -2657.5329      0             -2585.5609      2.1609112    
    117600   571.6401      -2657.9544      0             -2589.8276     -4.7254736    
    117800   589.69041     -2658.6558      0             -2588.3778      6.1935392    
    118000   620.06012     -2659.4669      0             -2585.5695     -6.8962705    
    118200   615.65419     -2660.1563      0             -2586.7839      4.6981165    
    118400   596.07999     -2661.9082      0             -2590.8687     -1.2710976    
    118600   602.08805     -2659.0668      0             -2587.3112      2.7838734    
    118800   600.6498      -2657.9521      0             -2586.3679      1.4891135    
    119000   575.78032     -2659.3295      0             -2590.7092     -0.38698992   
    119200   593.63667     -2661.2599      0             -2590.5116      0.95729495   
    119400   604.89309     -2658.7931      0             -2586.7032      4.0088733    
    119600   574.01816     -2658.1568      0             -2589.7465      3.6763371    
    119800   598.7394      -2660.7906      0             -2589.4342      2.4439423    
    120000   615.63665     -2661.4357      0             -2588.0655      2.4540385    
    120200   610.97057     -2661.6496      0             -2588.8354     -0.9788094    
    120400   604.70591     -2660.2005      0             -2588.133      -1.1984007    
    120600   604.09913     -2660.1019      0             -2588.1066      3.5341068    
    120800   606.91899     -2662.4624      0             -2590.1311     -6.6320612    
    121000   588.94982     -2659.0337      0             -2588.8439      1.9829171    
    121200   608.00399     -2660.6854      0             -2588.2248     -2.4084638    
    121400   595.54625     -2659.4427      0             -2588.4668      1.0239902    
    121600   614.26078     -2661.5104      0             -2588.3041      2.3859524    
    121800   575.7415      -2660.2073      0             -2591.5917      5.1084922    
    122000   591.66264     -2659.8653      0             -2589.3522     -0.21869908   
    122200   629.92487     -2659.4789      0             -2584.4058     -3.7873596    
    122400   596.53583     -2660.7999      0             -2589.706       3.1139873    
    122600   596.83006     -2664.1092      0             -2592.9803     -2.613938     
    122800   581.96115     -2656.9184      0             -2587.5615      1.7573757    
    123000   615.38541     -2655.2433      0             -2581.903      -5.14863      
    123200   611.25552     -2662.6377      0             -2589.7895      3.7871639    
    123400   608.42523     -2662.2443      0             -2589.7335     -4.4577327    
    123600   604.14781     -2658.024       0             -2586.023       1.1314321    
    123800   611.26262     -2657.6026      0             -2584.7536      2.927107     
    124000   602.47562     -2661.3143      0             -2589.5126      2.376012     
    124200   579.74631     -2661.8456      0             -2592.7527     -0.69144172   
    124400   618.48504     -2658.6831      0             -2584.9734     -0.87892387   
    124600   608.44519     -2659.7315      0             -2587.2183     -4.2143096    
    124800   604.88116     -2661.9154      0             -2589.827       2.567322     
    125000   603.81534     -2662.4818      0             -2590.5203     -6.8086248    
    125200   575.50985     -2657.0475      0             -2588.4595      10.647718    
    125400   577.86359     -2656.5837      0             -2587.7151     -4.4195128    
    125600   589.96345     -2658.182       0             -2587.8714      6.1347307    
    125800   549.77635     -2657.3501      0             -2591.829      -0.61612494   
    126000   607.36622     -2659.2319      0             -2586.8473      6.9333184    
    126200   602.80704     -2659.1857      0             -2587.3445     -4.5306304    
    126400   598.757       -2661.5683      0             -2590.2097      6.9056797    
    126600   590.75497     -2661.2359      0             -2590.831      -6.40606      
    126800   614.59549     -2657.8283      0             -2584.5821      3.6672283    
    127000   593.74514     -2660.7429      0             -2589.9817     -5.0128584    
    127200   582.13913     -2661.4483      0             -2592.0703      5.130971     
    127400   607.37409     -2656.5066      0             -2584.1211     -3.147457     
    127600   593.29795     -2655.2628      0             -2584.5549      0.1548595    
    127800   593.81543     -2663.5246      0             -2592.7549      1.9527096    
    128000   582.87284     -2660.4448      0             -2590.9792     -2.0912373    
    128200   630.7637      -2656.6093      0             -2581.4363      1.0784665    
    128400   590.94791     -2659.5577      0             -2589.1298     -2.6554634    
    128600   575.7571      -2662.4205      0             -2593.803       4.8163397    
    128800   637.77383     -2659.4099      0             -2583.4014      2.0646357    
    129000   601.65963     -2657.9708      0             -2586.2663      0.50995405   
    129200   580.98766     -2662.2053      0             -2592.9644      0.54972765   
    129400   629.22637     -2658.3214      0             -2583.3315      4.393943     
    129600   613.90681     -2657.6824      0             -2584.5183     -11.244659    
    129800   569.28594     -2658.9283      0             -2591.082       11.954454    
    130000   589.56434     -2659.6668      0             -2589.4038     -7.4145615    
    130200   603.09071     -2656.466       0             -2584.591       8.0196721    
    130400   592.51235     -2660.0358      0             -2589.4215     -4.4939668    
    130600   629.54694     -2662.3176      0             -2587.2896      13.492795    
    130800   586.9351      -2659.6912      0             -2589.7415     -10.247606    
    131000   614.52348     -2657.2699      0             -2584.0323      8.7963435    
    131200   596.31137     -2659.3957      0             -2588.3286     -4.1454253    
    131400   610.16895     -2661.5006      0             -2588.782       11.200784    
    131600   608.61981     -2660.8677      0             -2588.3337     -12.179761    
    131800   619.57517     -2658.2095      0             -2584.3698      6.3326867    
    132000   569.94893     -2656.5432      0             -2588.6179     -8.3976685    
    132200   634.67976     -2660.1975      0             -2584.5577      6.4033779    
    132400   586.0115      -2659.0033      0             -2589.1637     -10.289317    
    132600   606.29512     -2656.6494      0             -2584.3925      11.566884    
    132800   589.263       -2657.5179      0             -2587.2908     -14.860423    
    133000   621.76537     -2659.8943      0             -2585.7936      16.927792    
    133200   598.4424      -2659.7517      0             -2588.4306     -15.227692    
    133400   615.11447     -2657.3163      0             -2584.0082      14.754647    
    133600   595.98029     -2656.4947      0             -2585.4671     -8.1446238    
    133800   630.34219     -2660.8886      0             -2585.7658      5.61795      
    134000   590.53834     -2658.6377      0             -2588.2586     -8.4844807    
    134200   608.77158     -2657.538       0             -2584.9859      5.9397466    
    134400   606.98649     -2658.3431      0             -2586.0038     -5.0472633    
    134600   590.91477     -2659.4333      0             -2589.0093      3.2838361    
    134800   585.11783     -2658.9257      0             -2589.1926     -3.7648833    
    135000   613.87469     -2659.2387      0             -2586.0784      2.6987441    
    135200   588.23137     -2659.0869      0             -2588.9828     -4.5591212    
    135400   579.85976     -2659.1361      0             -2590.0297      7.0923169    
    135600   609.46861     -2659.7684      0             -2587.1332     -6.4256545    
    135800   621.30517     -2658.4713      0             -2584.4254     -1.5361381    
    136000   589.56489     -2659.4219      0             -2589.1588     -4.695946     
    136200   589.49498     -2659.8106      0             -2589.5559     -4.6194321    
    136400   610.92641     -2658.824       0             -2586.0151     -3.5950423    
    136600   605.19678     -2658.8547      0             -2586.7287      3.6306646    
    136800   590.20803     -2661.9781      0             -2591.6383     -2.6807967    
    137000   584.74587     -2657.035       0             -2587.3462      6.3115324    
    137200   617.04454     -2657.3588      0             -2583.8207      1.9954361    
    137400   567.31044     -2658.2731      0             -2590.6622     -5.0509729    
    137600   585.29292     -2659.3428      0             -2589.5888      4.7171641    
    137800   576.88423     -2656.6487      0             -2587.8969     -2.3878381    
    138000   596.54875     -2656.3742      0             -2585.2788      5.5477443    
    138200   582.31843     -2660.1959      0             -2590.7965     -3.1181463    
    138400   604.52639     -2660.5601      0             -2588.514       3.2116026    
    138600   604.79016     -2658.6096      0             -2586.532      -4.8012701    
    138800   587.631       -2658.4643      0             -2588.4317      5.9930567    
    139000   581.02863     -2657.9055      0             -2588.6598     -2.9956854    
    139200   614.00389     -2660.0909      0             -2586.9152      1.5979804    
    139400   588.09924     -2661.458       0             -2591.3696      1.233521     
    139600   607.33649     -2661.9589      0             -2589.5778     -0.73163757   
    139800   618.42331     -2658.7273      0             -2585.0249      0.011781063  
    140000   605.91161     -2659.5082      0             -2587.2969      1.3899346    
    140200   591.31389     -2662.0865      0             -2591.615      -0.92834336   
    140400   607.84791     -2660.27        0             -2587.828      -3.4130674    
    140600   599.88177     -2657.7767      0             -2586.2841     -1.8241361    
    140800   586.71902     -2659.525       0             -2589.6011     -0.78115753   
    141000   592.90487     -2660.1618      0             -2589.5006     -2.2020262    
    141200   585.80327     -2659.0197      0             -2589.2049      1.5970788    
    141400   588.08634     -2659.3111      0             -2589.2242     -1.1894769    
    141600   609.25437     -2661.4063      0             -2588.7967     -2.3056918    
    141800   589.92221     -2660.7876      0             -2590.482       4.1850796    
    142000   601.52311     -2659.87        0             -2588.1818     -2.4837856    
    142200   610.9118      -2661.2786      0             -2588.4714     -1.6318682    
    142400   582.93761     -2659.234       0             -2589.7607     -0.22919146   
    142600   590.12595     -2659.4128      0             -2589.0829      3.6547951    
    142800   586.86435     -2660.8541      0             -2590.9129     -5.5103089    
    143000   602.72448     -2661.4792      0             -2589.6478      4.5937709    
    143200   602.65474     -2661.6518      0             -2589.8287     -5.2567929    
    143400   595.90576     -2660.349       0             -2589.3303      6.6606056    
    143600   573.62199     -2658.9342      0             -2590.5712     -1.6279797    
    143800   615.15982     -2660.474       0             -2587.1606      2.3878291    
    144000   626.63292     -2667.5638      0             -2592.8831     -9.5049267    
    144200   599.84176     -2661.2248      0             -2589.7369      6.7712796    
    144400   597.03471     -2659.6965      0             -2588.5431     -2.897927     
    144600   593.20315     -2660.0332      0             -2589.3365      5.758803     
    144800   584.50617     -2661.3885      0             -2591.7283     -4.1550766    
    145000   606.08484     -2661.2874      0             -2589.0555      0.82507798   
    145200   587.65905     -2661.8646      0             -2591.8287     -2.07453      
    145400   609.77941     -2665.7954      0             -2593.1232      4.8317796    
    145600   591.83843     -2661.2649      0             -2590.7309      1.3896439    
    145800   633.24286     -2663.352       0             -2587.8835     -2.1073006    
    146000   600.02045     -2663.4619      0             -2591.9527      3.2715172    
    146200   572.14865     -2662.8931      0             -2594.7057     -2.0708536    
    146400   608.15843     -2660.1633      0             -2587.6843     -0.14571689   
    146600   600.45286     -2659.6565      0             -2588.0958     -1.4347854    
    146800   602.28753     -2668.535       0             -2596.7557     -3.1402173    
    147000   575.45216     -2663.8905      0             -2595.3093     -2.3865167    
    147200   623.3176      -2660.1425      0             -2585.8568     -3.3666198    
    147400   623.96072     -2664.5125      0             -2590.1502     -3.0529738    
    147600   577.02421     -2665.1997      0             -2596.4311      2.6533435    
    147800   609.8004      -2661.3326      0             -2588.6579     -1.7528886    
    148000   606.64416     -2659.3857      0             -2587.0872     -2.0636702    
    148200   586.9888      -2662.6726      0             -2592.7166      6.0424169    
    148400   624.28789     -2665.447       0             -2591.0457     -4.4644572    
    148600   618.59288     -2662.1716      0             -2588.449       4.8637626    
    148800   580.43533     -2659.8779      0             -2590.7029     -8.4697062    
    149000   598.32394     -2658.8195      0             -2587.5125      7.8269349    
    149200   604.5557      -2661.067       0             -2589.0173     -3.3072585    
    149400   591.97058     -2662.2803      0             -2591.7305      4.993117     
    149600   599.73818     -2664.1932      0             -2592.7177     -0.22103746   
    149800   622.06948     -2663.5523      0             -2589.4154      9.3264544    
    150000   602.68538     -2661.8691      0             -2590.0424     -2.0193067    
    150200   615.54927     -2663.1575      0             -2589.7977      1.7206445    
    150400   583.27753     -2660.4433      0             -2590.9295     -1.2710547    
    150600   612.60795     -2662.5181      0             -2589.5088     -1.9864668    
    150800   595.47748     -2662.7824      0             -2591.8147      3.011256     
    151000   597.18808     -2662.9171      0             -2591.7455      1.4985344    
    151200   609.00927     -2662.0789      0             -2589.4985      3.5764748    
    151400   622.16871     -2662.7983      0             -2588.6495     -3.8205634    
    151600   592.31494     -2661.7743      0             -2591.1834      1.274971     
    151800   594.90383     -2662.6163      0             -2591.717      -2.2119748    
    152000   599.93961     -2660.4498      0             -2588.9503      2.1634903    
    152200   571.10435     -2654.8631      0             -2586.8001     -0.8592257    
    152400   619.2824      -2660.3645      0             -2586.5598     -5.6022993    
    152600   586.55181     -2663.9193      0             -2594.0154     -2.7389479    
    152800   586.53243     -2662.6164      0             -2592.7147      3.8581321    
    153000   615.001       -2657.6347      0             -2584.3402     -5.4702904    
    153200   598.75628     -2660.3096      0             -2588.9511      4.3860741    
    153400   565.98738     -2662.6423      0             -2595.1891     -1.2856003    
    153600   608.37072     -2658.0726      0             -2585.5683      0.25667219   
    153800   582.45288     -2655.0511      0             -2585.6356     -1.877826     
    154000   585.85643     -2664.3545      0             -2594.5334      7.5420839    
    154200   568.79662     -2660.4315      0             -2592.6435     -1.4099532    
    154400   618.95965     -2659.2925      0             -2585.5262      0.15759572   
    154600   601.69841     -2661.5066      0             -2589.7975      0.07455732   
    154800   580.7902      -2661.9082      0             -2592.6909      3.3645839    
    155000   582.1915      -2659.7888      0             -2590.4045     -2.2959273    
    155200   608.93764     -2659.973       0             -2587.4011      2.1195664    
    155400   578.05007     -2661.5683      0             -2592.6775     -2.1517729    
    155600   587.92326     -2661.6925      0             -2591.625       5.4605284    
    155800   647.84633     -2661.8922      0             -2584.6832     -2.8532326    
    156000   601.22627     -2662.2721      0             -2590.6193      1.233095     
    156200   575.63198     -2662.7879      0             -2594.1853      3.8096053    
    156400   603.36787     -2661.0065      0             -2589.0984     -2.2348334    
    156600   593.69799     -2661.3479      0             -2590.5922     -2.5220431    
    156800   591.69061     -2663.4548      0             -2592.9384      0.24768272   
    157000   594.31606     -2663.4942      0             -2592.6649      0.84629369   
    157200   601.46199     -2662.7392      0             -2591.0583     -2.8503854    
    157400   577.37327     -2663.6205      0             -2594.8104      1.4797275    
    157600   584.72018     -2665.2057      0             -2595.52       -2.850323     
    157800   605.55058     -2662.083       0             -2589.9148      2.1400859    
    158000   605.706       -2665.7267      0             -2593.5399     -0.33386674   
    158200   588.36407     -2665.0571      0             -2594.9371      3.4795634    
    158400   612.69017     -2661.9208      0             -2588.9017      0.65245203   
    158600   593.65063     -2662.1246      0             -2591.3746     -5.2010776    
    158800   597.27499     -2667.7353      0             -2596.5533      3.6920089    
    159000   581.86603     -2661.9753      0             -2592.6298     -3.0428256    
    159200   600.7985      -2660.0104      0             -2588.4086      1.2939312    
    159400   582.67134     -2663.228       0             -2593.7865     -0.52213459   
    159600   598.0965      -2667.1894      0             -2595.9096      3.91733      
    159800   611.4421      -2665.7426      0             -2592.8723      2.1903461    
    160000   592.55206     -2664.4562      0             -2593.8372      2.680303     
    160200   593.96953     -2664.4477      0             -2593.6597      2.3138792    
    160400   592.63627     -2660.9444      0             -2590.3153      1.0023703    
    160600   592.26142     -2665.2941      0             -2594.7097     -2.7580091    
    160800   583.80118     -2664.3894      0             -2594.8133     -1.0968865    
    161000   626.2416      -2662.7236      0             -2588.0895      1.0519809    
    161200   595.72553     -2664.0189      0             -2593.0217     -0.48278561   
    161400   607.41278     -2668.5339      0             -2596.1438     -0.11473513   
    161600   601.96886     -2666.263       0             -2594.5216     -6.0222648    
    161800   623.85589     -2665.0135      0             -2590.6637      0.53399489   
    162000   609.76855     -2666.9111      0             -2594.2402     -5.0516606    
    162200   588.35452     -2666.8501      0             -2596.7312      2.4364386    
    162400   606.61222     -2664.0938      0             -2591.7991     -4.883019     
    162600   621.39643     -2664.0506      0             -2589.994       1.4100186    
    162800   590.59305     -2665.9815      0             -2595.5959     -6.8744499    
    163000   583.43314     -2664.9002      0             -2595.3679      3.6648984    
    163200   612.25235     -2663.0853      0             -2590.1183     -6.2533629    
    163400   619.74413     -2663.6762      0             -2589.8164      3.9949614    
    163600   585.47939     -2665.7944      0             -2596.0182     -1.0303391    
    163800   572.99543     -2663.059       0             -2594.7706      5.2030537    
    164000   617.02231     -2663.3995      0             -2589.8641     -8.8588589    
    164200   603.24781     -2663.2224      0             -2591.3286      1.9466873    
    164400   570.39143     -2664.2704      0             -2596.2924     -4.9043512    
    164600   609.47        -2663.7724      0             -2591.1371      2.0208544    
    164800   599.38061     -2661.1779      0             -2589.745      -4.0815102    
    165000   602.5375      -2665.7633      0             -2593.9542      6.1380093    
    165200   567.18879     -2662.3777      0             -2594.7813     -3.9292906    
    165400   619.24646     -2662.1069      0             -2588.3064     -3.6246153    
    165600   586.71124     -2664.5659      0             -2594.6429     -3.7399094    
    165800   618.82159     -2669.9111      0             -2596.1612      2.0259297    
    166000   608.03181     -2661.6185      0             -2589.1546     -4.9760214    
    166200   625.68707     -2662.5378      0             -2587.9698      5.9624467    
    166400   551.32148     -2665.3488      0             -2599.6435     -3.0536846    
    166600   602.11408     -2661.6991      0             -2589.9405      2.5992464    
    166800   608.7798      -2658.6483      0             -2586.0953     -5.3691203    
    167000   608.33897     -2666.3131      0             -2593.8126      3.1592312    
    167200   577.11901     -2665.3932      0             -2596.6133     -4.1268361    
    167400   643.17981     -2663.0034      0             -2586.3506      2.1514129    
    167600   601.48315     -2662.4844      0             -2590.8009     -3.7796104    
    167800   602.59646     -2668.8645      0             -2597.0483      3.0441182    
    168000   606.3768      -2663.0958      0             -2590.8291     -3.5631109    
    168200   614.40065     -2661.2999      0             -2588.077       3.7314109    
    168400   586.7981      -2666.5681      0             -2596.6348     -1.0203178    
    168600   589.53137     -2664.0393      0             -2593.7802      5.3712306    
    168800   606.19448     -2660.1233      0             -2587.8783      0.36591515   
    169000   596.8389      -2665.3169      0             -2594.187       2.8995452    
    169200   592.44011     -2667.1653      0             -2596.5596     -3.749022     
    169400   622.46279     -2663.758       0             -2589.5742     -1.392201     
    169600   600.90577     -2662.6011      0             -2590.9865     -4.8785834    
    169800   593.71092     -2665.4732      0             -2594.716       4.4557559    
    170000   605.95649     -2665.7908      0             -2593.5743     -4.8690892    
    170200   588.56129     -2659.2236      0             -2589.0801      0.2487542    
    170400   602.31076     -2663.3915      0             -2591.6094     -2.0235602    
    170600   583.2576      -2664.1905      0             -2594.6791     -0.48292957   
    170800   614.33045     -2664.0577      0             -2590.8431     -3.5385175    
    171000   593.7918      -2660.7477      0             -2589.9808      5.5716433    
    171200   599.11957     -2664.7624      0             -2593.3606      0.0023662216 
    171400   610.78127     -2664.6947      0             -2591.9031     -3.7933848    
    171600   593.49919     -2661.1209      0             -2590.389       1.3870985    
    171800   615.30588     -2665.1103      0             -2591.7794      0.1185726    
    172000   612.85738     -2666.6536      0             -2593.6146     -1.5295351    
    172200   598.8785      -2662.246       0             -2590.873       5.5240309    
    172400   595.56537     -2663.2197      0             -2592.2415     -2.5200267    
    172600   630.57036     -2666.7766      0             -2591.6266      1.9278908    
    172800   599.06324     -2664.0871      0             -2592.692      -7.2932718    
    173000   597.53566     -2664.0467      0             -2592.8336      2.0442848    
    173200   590.85518     -2663.3391      0             -2592.9223     -1.6060513    
    173400   598.26558     -2662.2943      0             -2590.9943      1.1743904    
    173600   595.90525     -2662.9604      0             -2591.9417      1.0857782    
    173800   611.45521     -2665.5947      0             -2592.7228     -0.81749731   
    174000   607.40158     -2665.9708      0             -2593.582      -0.8823802    
    174200   605.1196      -2664.9679      0             -2592.8511     -1.0425414    
    174400   610.09352     -2663.7772      0             -2591.0676     -4.8000909    
    174600   605.18402     -2664.2092      0             -2592.0847     -1.4648004    
    174800   606.43255     -2665.258       0             -2592.9847     -6.3881816    
    175000   601.97334     -2664.8092      0             -2593.0673     -0.28582918   
    175200   602.45379     -2663.5259      0             -2591.7267      1.0044444    
    175400   587.71727     -2661.227       0             -2591.1842     -3.7448788    
    175600   609.89784     -2665.0383      0             -2592.352       2.8092874    
    175800   584.97558     -2664.7374      0             -2595.0212     -4.4383011    
    176000   611.92896     -2663.7693      0             -2590.8409      5.3420154    
    176200   592.70156     -2663.0423      0             -2592.4054     -8.8381107    
    176400   615.22313     -2667.8408      0             -2594.5198      4.1420723    
    176600   597.35632     -2664.722       0             -2593.5303     -3.8187095    
    176800   594.17255     -2662.6143      0             -2591.8021      4.3848989    
    177000   578.45335     -2665.0262      0             -2596.0874     -3.6365064    
    177200   607.20754     -2663.9513      0             -2591.5856      6.9538732    
    177400   583.77902     -2660.9436      0             -2591.37       -4.5681797    
    177600   602.56121     -2665.2185      0             -2593.4066      4.6223447    
    177800   567.66115     -2666.3316      0             -2598.679      -6.0726088    
    178000   617.56102     -2664.2478      0             -2590.6482      5.3981942    
    178200   597.46603     -2663.0242      0             -2591.8195     -8.3180089    
    178400   593.5467      -2667.5643      0             -2596.8266      8.6250803    
    178600   614.69562     -2667.9785      0             -2594.7204     -9.1974047    
    178800   622.21788     -2661.7052      0             -2587.5506      2.4306795    
    179000   593.14247     -2665.5239      0             -2594.8344     -0.72146742   
    179200   575.8788      -2666.5312      0             -2597.8992      3.4668436    
    179400   597.9817      -2661.893       0             -2590.6269     -1.6659969    
    179600   612.02145     -2660.8326      0             -2587.8932      1.11279      
    179800   575.76972     -2666.2547      0             -2597.6357     -3.3549105    
    180000   599.62623     -2666.0845      0             -2594.6223      1.7810034    
    180200   608.55111     -2659.9597      0             -2587.4338      2.2485835    
    180400   596.21869     -2662.0105      0             -2590.9545      0.44151371   
    180600   588.10343     -2664.4574      0             -2594.3685      3.5876494    
    180800   613.52252     -2662.8923      0             -2589.774      -6.3183774    
    181000   597.3178      -2660.6747      0             -2589.4876      3.8044403    
    181200   591.97358     -2663.6582      0             -2593.108      -3.5407319    
    181400   596.81985     -2661.3159      0             -2590.1882      1.6999352    
    181600   590.77844     -2663.8126      0             -2593.4049     -7.8838857    
    181800   624.20733     -2665.2336      0             -2590.8419      1.8495468    
    182000   595.57154     -2659.7943      0             -2588.8154     -1.853859     
    182200   580.19368     -2662.0869      0             -2592.9406      6.1542244    
    182400   587.70646     -2663.2035      0             -2593.1619     -2.9057127    
    182600   624.86898     -2662.4988      0             -2588.0283      0.56979426   
    182800   577.76574     -2662.0498      0             -2593.1929     -2.8191499    
    183000   599.58418     -2663.9849      0             -2592.5278      0.55246926   
    183200   593.55288     -2660.3061      0             -2589.5678     -1.8188746    
    183400   583.18903     -2659.2213      0             -2589.7181      2.6746745    
    183600   582.02246     -2664.1051      0             -2594.7409     -1.8255313    
    183800   621.85393     -2664.6826      0             -2590.5714      3.4220414    
    184000   597.97496     -2657.7141      0             -2586.4487     -1.2468821    
    184200   582.06645     -2662.2479      0             -2592.8785      3.9210419    
    184400   578.86418     -2662.5207      0             -2593.5329     -0.45998691   
    184600   621.64747     -2662.3688      0             -2588.2822     -1.3565232    
    184800   594.79869     -2663.5632      0             -2592.6764      0.85494616   
    185000   602.07632     -2666.0275      0             -2594.2734     -2.2100751    
    185200   613.31823     -2660.4662      0             -2587.3723     -1.7600611    
    185400   591.47988     -2660.6232      0             -2590.1319      5.7258183    
    185600   576.19304     -2664.4246      0             -2595.7552     -7.3424385    
    185800   631.32486     -2664.3073      0             -2589.0674      0.034791146  
    186000   584.59485     -2659.0466      0             -2589.3758     -1.7723797    
    186200   595.3441      -2665.1805      0             -2594.2286     -0.59037073   
    186400   598.311       -2664.1862      0             -2592.8808      1.0736134    
    186600   603.24962     -2659.1688      0             -2587.2748     -0.24309315   
    186800   588.85631     -2660.5711      0             -2590.3925      2.005383     
    187000   585.68309     -2665.9263      0             -2596.1258     -6.7246021    
    187200   607.07874     -2661.6402      0             -2589.2898      2.3125634    
    187400   616.13101     -2660.9372      0             -2587.508      -6.7607105    
    187600   587.11954     -2664.8505      0             -2594.8788      0.063796617  
    187800   583.07078     -2664.6799      0             -2595.1908      2.690466     
    188000   602.68152     -2659.7431      0             -2587.9168      0.86768567   
    188200   616.17196     -2663.6552      0             -2590.2211     -4.1119244    
    188400   587.34111     -2665.8413      0             -2595.8432     -7.956025     
    188600   608.35842     -2664.5516      0             -2592.0487      0.19944317   
    188800   617.21035     -2663.0826      0             -2589.5248     -4.1211591    
    189000   576.29362     -2661.4114      0             -2592.7299      7.4055541    
    189200   600.44036     -2666.227       0             -2594.6678     -2.1651418    
    189400   596.31139     -2665.2323      0             -2594.1652      4.1553862    
    189600   599.59711     -2662.8872      0             -2591.4285     -3.0048954    
    189800   615.20489     -2664.3438      0             -2591.025      -0.35968498   
    190000   588.35626     -2665.6963      0             -2595.5773      0.096298271  
    190200   581.80602     -2662.8977      0             -2593.5593      2.0163777    
    190400   595.45911     -2661.0846      0             -2590.1191      0.36788609   
    190600   594.29306     -2664.5705      0             -2593.744      -0.33492323   
    190800   583.79508     -2665.7986      0             -2596.2231      1.2811295    
    191000   608.62819     -2664.3333      0             -2591.7983     -6.5464542    
    191200   611.96757     -2659.9424      0             -2587.0095     -2.2705776    
    191400   579.03762     -2666.1929      0             -2597.1844      1.443401     
    191600   594.23986     -2667.4344      0             -2596.6142      3.232685     
    191800   615.05045     -2660.5163      0             -2587.2159     -3.0463881    
    192000   597.02547     -2662.1804      0             -2591.0281      9.1484628    
    192200   596.83554     -2667.9216      0             -2596.7921      2.2104687    
    192400   597.62213     -2663.2116      0             -2591.9882      0.65468551   
    192600   605.63174     -2661.2264      0             -2589.0485      4.7241859    
    192800   589.08903     -2665.3714      0             -2595.165      -1.1102919    
    193000   597.24434     -2666.258       0             -2595.0797      0.5528194    
    193200   605.4145      -2662.6249      0             -2590.4729     -1.5291367    
    193400   601.96906     -2664.5178      0             -2592.7765     -0.69120244   
    193600   574.53482     -2668.1744      0             -2599.7026     -2.6628182    
    193800   608.00327     -2665.6743      0             -2593.2138      4.2087501    
    194000   600.15868     -2660.831       0             -2589.3054     -4.1451574    
    194200   608.4021      -2666.4196      0             -2593.9115      1.0541656    
    194400   597.06202     -2667.0182      0             -2595.8617      0.037468768  
    194600   621.85412     -2665.7616      0             -2591.6503     -0.19045785   
    194800   598.36736     -2662.5317      0             -2591.2196     -1.4391945    
    195000   596.28078     -2666.5762      0             -2595.5127      3.6325863    
    195200   602.05117     -2667.5458      0             -2595.7946     -6.4892304    
    195400   603.63442     -2663.2842      0             -2591.3443      5.199531     
    195600   586.01342     -2667.2951      0             -2597.4553     -3.1869533    
    195800   602.90537     -2666.8875      0             -2595.0345      0.24705603   
    196000   596.06893     -2660.2528      0             -2589.2146     -5.5494492    
    196200   615.35599     -2667.7428      0             -2594.406       6.0224329    
    196400   579.15322     -2667.2067      0             -2598.1844     -4.0375751    
    196600   597.92707     -2661.0246      0             -2589.7649     -1.0476116    
    196800   619.39346     -2666.4054      0             -2592.5874     -8.3370985    
    197000   582.75613     -2668.2431      0             -2598.7915      1.9699873    
    197200   601.57644     -2665.2942      0             -2593.5996     -2.6039373    
    197400   633.75453     -2663.6879      0             -2588.1584      3.5107724    
    197600   603.18741     -2670.073       0             -2598.1864     -3.1549073    
    197800   579.18142     -2667.118       0             -2598.0924      3.4365035    
    198000   612.21654     -2661.7279      0             -2588.7653     -3.0804535    
    198200   590.24797     -2663.2245      0             -2592.88        2.837652     
    198400   601.95864     -2672.4254      0             -2600.6853     -4.1106547    
    198600   599.26106     -2664.3752      0             -2592.9566     -1.6909369    
    198800   617.97642     -2663.3997      0             -2589.7506      2.5561723    
    199000   601.28375     -2670.0135      0             -2598.3538     -1.4663549    
    199200   605.65201     -2669.6351      0             -2597.4548      5.7538415    
    199400   610.70071     -2663.329       0             -2590.547      -3.8161614    
    199600   617.09013     -2665.9385      0             -2592.395      -2.7376169    
    199800   576.49441     -2666.9502      0             -2598.2449      4.8808716    
    200000   609.95903     -2665.9606      0             -2593.267      -2.2336181    
    200200   602.15485     -2661.6808      0             -2589.9173      5.4310772    
    200400   615.06482     -2669.7866      0             -2596.4845      3.4631017    
    200600   575.35676     -2665.5233      0             -2596.9535      2.1657419    
    200800   613.32002     -2660.9481      0             -2587.854      -0.038881951  
    201000   618.91881     -2664.5901      0             -2590.8286     -5.1743248    
    201200   590.22013     -2671.9614      0             -2601.6202      10.79186     
    201400   587.57773     -2667.3813      0             -2597.3551     -3.6191761    
    201600   637.80537     -2659.811       0             -2583.7987      0.069029076  
    201800   587.37788     -2664.2867      0             -2594.2843     -2.3818404    
    202000   556.7583      -2670.2611      0             -2603.9078      0.13806221   
    202200   628.32631     -2663.7868      0             -2588.9042      1.6849809    
    202400   626.84446     -2662.8458      0             -2588.1398     -6.8457941    
    202600   570.35426     -2668.6757      0             -2600.7021      3.5010914    
    202800   590.62121     -2666.9788      0             -2596.5898     -2.1492778    
    203000   599.7016      -2659.9654      0             -2588.4942      1.4356352    
    203200   589.00007     -2665.4634      0             -2595.2676     -5.2488195    
    203400   595.50015     -2666.9632      0             -2595.9928      4.3861495    
    203600   601.43554     -2663.6149      0             -2591.9371     -0.37108013   
    203800   608.40778     -2663.7135      0             -2591.2047      0.90427621   
    204000   600.38528     -2666.9251      0             -2595.3725     -1.709529     
    204200   586.04117     -2667.9354      0             -2598.0922      2.6703412    
    204400   628.17644     -2665.7117      0             -2590.847      -3.1469773    
    204600   605.77826     -2666.9447      0             -2594.7493     -1.7019969    
    204800   575.56477     -2665.9813      0             -2597.3867      3.9064633    
    205000   635.86684     -2667.6387      0             -2591.8574     -0.39465211   
    205200   571.57204     -2662.1831      0             -2594.0644     -2.9467203    
    205400   578.14294     -2666.3686      0             -2597.4668      2.9473041    
    205600   587.66834     -2665.8821      0             -2595.845      -1.0949748    
    205800   589.08363     -2664.5048      0             -2594.2991      1.9874636    
    206000   609.03394     -2666.2564      0             -2593.673      -2.2432104    
    206200   566.50946     -2666.6541      0             -2599.1387      3.0695805    
    206400   627.12914     -2669.4485      0             -2594.7086     -2.8941633    
    206600   617.23967     -2665.217       0             -2591.6557      2.650594     
    206800   581.45024     -2668.528       0             -2599.232       1.9750784    
    207000   584.18278     -2667.8752      0             -2598.2536      3.4238041    
    207200   613.75566     -2663.6943      0             -2590.5483     -5.9479298    
    207400   613.67869     -2666.2679      0             -2593.131      -1.2547882    
    207600   587.29824     -2669.6145      0             -2599.6216     -3.0924414    
    207800   621.98273     -2667.5091      0             -2593.3825      3.19464      
    208000   619.24517     -2666.9248      0             -2593.1245     -3.3841606    
    208200   586.59436     -2668.1667      0             -2598.2576     -4.5317015    
    208400   591.84507     -2666.9881      0             -2596.4533      1.7672124    
    208600   600.41622     -2664.3691      0             -2592.8128      1.2300142    
    208800   610.09009     -2666.0883      0             -2593.3791     -0.34719128   
    209000   590.21831     -2665.329       0             -2594.988       4.4835557    
    209200   613.61374     -2668.0326      0             -2594.9034     -6.1831752    
    209400   611.7561      -2666.1563      0             -2593.2486      2.8764655    
    209600   602.29288     -2667.4851      0             -2595.7051     -4.7089094    
    209800   634.11188     -2669.5171      0             -2593.945       2.3307352    
    210000   569.72717     -2663.44        0             -2595.5411     -2.595353     
    210200   605.9024      -2665.8191      0             -2593.6089     -0.79814161   
    210400   609.62445     -2668.2841      0             -2595.6304     -7.9691471    
    210600   584.15395     -2664.3947      0             -2594.7765      6.2394402    
    210800   591.47775     -2664.6501      0             -2594.1591     -1.4496542    
    211000   624.13284     -2667.411       0             -2593.0282      4.3110027    
    211200   592.81592     -2667.6337      0             -2596.9832      1.0645342    
    211400   622.18664     -2667.9942      0             -2593.8433      3.1102326    
    211600   608.08714     -2665.6976      0             -2593.2271     -1.5055665    
    211800   598.63871     -2666.3572      0             -2595.0127     -0.039096562  
    212000   597.99233     -2667.5095      0             -2596.2421     -0.91999812   
    212200   615.94222     -2664.8477      0             -2591.441       1.4448664    
    212400   616.82231     -2667.6641      0             -2594.1526     -2.9328301    
    212600   586.20961     -2667.4311      0             -2597.5679      5.1732491    
    212800   599.13724     -2663.9358      0             -2592.5319      0.29738401   
    213000   596.8308      -2661.9302      0             -2590.8012      0.34200771   
    213200   583.19392     -2667.3575      0             -2597.8537     -1.5777073    
    213400   606.69623     -2666.4752      0             -2594.1704     -0.99443654   
    213600   606.90877     -2662.1476      0             -2589.8175     -4.2368988    
    213800   567.22488     -2666.3229      0             -2598.7223      5.9314926    
    214000   584.44683     -2667.5999      0             -2597.9468      0.4915524    
    214200   612.40981     -2660.0124      0             -2587.0267     -1.8264678    
    214400   586.5355      -2665.2348      0             -2595.3328     -0.33216479   
    214600   554.4255      -2668.0079      0             -2601.9327      2.1642107    
    214800   642.19015     -2666.0455      0             -2589.5107     -0.5644512    
    215000   633.13729     -2664.5533      0             -2589.0973     -3.6049047    
    215200   597.10861     -2671.9589      0             -2600.7967     -0.019411056  
    215400   579.42068     -2664.0798      0             -2595.0257      4.0480187    
    215600   639.1671      -2660.4284      0             -2584.2539      2.8410933    
    215800   597.02902     -2666.4451      0             -2595.2925      0.41365697   
    216000   585.14766     -2670.0839      0             -2600.3473     -0.71646109   
    216200   609.5985      -2662.532       0             -2589.8813     -4.9359704    
    216400   637.72466     -2665.2283      0             -2589.2257     -4.4116555    
    216600   572.20057     -2667.5025      0             -2599.3089     -1.50303      
    216800   598.83344     -2665.1827      0             -2593.815       4.3083773    
    217000   639.32801     -2661.4601      0             -2585.2664     -4.9654091    
    217200   589.78332     -2665.8003      0             -2595.5112      1.236684     
    217400   570.97785     -2666.5029      0             -2598.455      -0.7789444    
    217600   588.42622     -2659.305       0             -2589.1777     -1.9698167    
    217800   619.1121      -2663.1679      0             -2589.3835      0.58224919   
    218000   576.87339     -2669.3187      0             -2600.5682     -2.5930814    
    218200   613.15491     -2667.9902      0             -2594.9157      4.2877811    
    218400   608.36713     -2660.7094      0             -2588.2055     -2.6877182    
    218600   580.02497     -2664.6239      0             -2595.4978      0.52451798   
    218800   575.76574     -2666.1017      0             -2597.4831      0.14295568   
    219000   621.47211     -2662.6831      0             -2588.6174     -3.5666996    
    219200   589.07822     -2660.9053      0             -2590.7002      0.72948872   
    219400   588.33512     -2667.2459      0             -2597.1294      1.9020363    
    219600   605.85062     -2667.1335      0             -2594.9295     -0.053415234  
    219800   633.89603     -2663.5823      0             -2588.0359     -1.7494305    
    220000   581.72387     -2662.6454      0             -2593.3168      0.30396456   
    220200   586.31955     -2668.4276      0             -2598.5513      4.8562122    
    220400   605.97205     -2665.5472      0             -2593.3287      0.6607216    
    220600   631.12516     -2664.4487      0             -2589.2326     -1.4985478    
    220800   574.70694     -2664.9911      0             -2596.4987      7.2182961    
    221000   605.97532     -2669.781       0             -2597.5622     -3.8760998    
    221200   622.25893     -2665.3269      0             -2591.1674     -2.668998     
    221400   602.7928      -2665.1371      0             -2593.2976     -1.7575899    
    221600   586.96383     -2669.2527      0             -2599.2996     -3.6254087    
    221800   590.29389     -2664.141       0             -2593.791      -1.6221483    
    222000   591.25802     -2659.2695      0             -2588.8046     -3.4358657    
    222200   589.20465     -2663.5757      0             -2593.3556      1.1847608    
    222400   596.71085     -2668.8486      0             -2597.7339     -1.2546994    
    222600   621.29528     -2663.8614      0             -2589.8167      0.40594105   
    222800   617.64397     -2666.2963      0             -2592.6868     -3.5166537    
    223000   586.46332     -2669.1894      0             -2599.296       3.4797036    
    223200   582.11414     -2663.0252      0             -2593.6501     -0.98888103   
    223400   625.63099     -2663.9527      0             -2589.3914      2.1154284    
    223600   582.32549     -2668.8463      0             -2599.446       1.1344557    
    223800   566.1529      -2665.8786      0             -2598.4057      2.6112861    
    224000   635.88854     -2663.4639      0             -2587.6801     -7.822711     
    224200   594.21226     -2665.2497      0             -2594.4328      2.315587     
    224400   588.66827     -2669.3226      0             -2599.1664     -4.3631552    
    224600   623.57712     -2664.7722      0             -2590.4556      6.8380663    
    224800   614.77117     -2663.1945      0             -2589.9274     -6.5876188    
    225000   588.69248     -2668.2206      0             -2598.0615      8.4430935    
    225200   596.59029     -2667.9565      0             -2596.8562     -2.2360317    
    225400   587.33267     -2661.3963      0             -2591.3992      2.1158618    
    225600   599.28194     -2665.9589      0             -2594.5378      1.5386094    
    225800   593.48326     -2666.471       0             -2595.7409     -3.3116527    
    226000   602.76488     -2665.9565      0             -2594.1202      2.4095069    
    226200   596.96643     -2668.3115      0             -2597.1664     -7.3994007    
    226400   602.74881     -2668.0407      0             -2596.2064      5.7304846    
    226600   600.68634     -2665.1761      0             -2593.5876     -7.361385     
    226800   617.0673      -2668.5886      0             -2595.0479      6.344432     
    227000   600.30781     -2668.9582      0             -2597.4148     -4.3452059    
    227200   612.86119     -2666.6122      0             -2593.5728      2.2985023    
    227400   592.72008     -2665.1712      0             -2594.5321     -2.230845     
    227600   604.45469     -2670.3608      0             -2598.3232      4.3815204    
    227800   590.41484     -2668.1471      0             -2597.7827     -2.4112314    
    228000   610.89784     -2664.7987      0             -2591.9932     -1.711359     
    228200   599.0234      -2667.7623      0             -2596.372       0.040788097  
    228400   589.06183     -2668.3938      0             -2598.1907      1.5931703    
    228600   593.64829     -2665.66        0             -2594.9103     -4.1024815    
    228800   606.96877     -2667.5771      0             -2595.2398      5.8747116    
    229000   576.88565     -2668.5775      0             -2599.8255     -5.6785868    
    229200   620.28857     -2670.5698      0             -2596.6451      3.1945849    
    229400   595.42344     -2664.8195      0             -2593.8583     -0.90846324   
    229600   584.5019      -2666.2537      0             -2596.594       2.1820201    
    229800   605.77122     -2670.0999      0             -2597.9054      0.037197325  
    230000   580.20303     -2663.9677      0             -2594.8203      3.3373738    
    230200   606.19817     -2667.6672      0             -2595.4218      1.2068447    
    230400   605.84844     -2670.8564      0             -2598.6527      3.167387     
    230600   597.74986     -2667.996       0             -2596.7575     -0.20371461   
    230800   623.59283     -2667.4996      0             -2593.1812     -4.3731208    
    231000   600.10046     -2668.5478      0             -2597.0291      2.3785575    
    231200   603.0636      -2670.9002      0             -2599.0284     -2.6242307    
    231400   614.09257     -2668.5515      0             -2595.3652     -1.7444113    
    231600   620.36335     -2665.6791      0             -2591.7456     -3.1745794    
    231800   614.44198     -2668.5959      0             -2595.3681     -1.2134428    
    232000   583.60872     -2671.2305      0             -2601.6773     -1.1734676    
    232200   607.88519     -2666.7029      0             -2594.2565      0.92274093   
    232400   624.35362     -2665.2187      0             -2590.8096     -0.82531339   
    232600   572.87286     -2669.2765      0             -2601.0028     -0.71579715   
    232800   591.6989      -2669.339       0             -2598.8216      3.6917752    
    233000   621.95087     -2666.4751      0             -2592.3523     -3.5795301    
    233200   580.77859     -2664.8628      0             -2595.6469      2.2324352    
    233400   595.74594     -2669.6821      0             -2598.6824     -0.3746235    
    233600   589.652       -2666.5942      0             -2596.3208     -2.1959731    
    233800   593.26        -2663.3858      0             -2592.6824      0.28345556   
    234000   593.05888     -2667.1882      0             -2596.5087     -3.1944759    
    234200   576.51278     -2667.2742      0             -2598.5666      4.0507445    
    234400   612.57944     -2667.1206      0             -2594.1147     -1.0866512    
    234600   619.06851     -2667.6195      0             -2593.8403      3.0600272    
    234800   562.00945     -2667.4552      0             -2600.4761     -1.0804493    
    235000   596.60783     -2665.7416      0             -2594.6391      1.118127     
    235200   632.87562     -2666.3384      0             -2590.9136     -5.5825156    
    235400   583.91058     -2670.3806      0             -2600.7914      3.2252964    
    235600   589.70578     -2668.569       0             -2598.2891     -0.43515612   
    235800   641.48926     -2665.4235      0             -2588.9722      5.0188193    
    236000   607.96389     -2668.8453      0             -2596.3894      0.20785218   
    236200   581.20124     -2669.6788      0             -2600.4125      0.99222835   
    236400   597.41357     -2661.3314      0             -2590.133      -0.70808167   
    236600   581.35293     -2660.7338      0             -2591.4495      0.32779901   
    236800   562.14802     -2668.4917      0             -2601.4961     -2.4979264    
    237000   611.28847     -2665.7605      0             -2592.9085      2.0193757    
    237200   628.89866     -2665.5804      0             -2590.6296     -7.0934167    
    237400   584.39005     -2670.86        0             -2601.2137      5.2163623    
    237600   586.2257      -2668.6939      0             -2598.8287     -2.5949336    
    237800   610.69101     -2661.8515      0             -2589.0707      5.3704186    
    238000   589.86297     -2664.7465      0             -2594.4479     -0.673149     
    238200   613.45769     -2673.1664      0             -2600.0558      3.5247334    
    238400   600.72895     -2666.697       0             -2595.1034      0.23265809   
    238600   615.70624     -2663.1487      0             -2589.7702      3.0911136    
    238800   568.97247     -2667.7107      0             -2599.9018     -2.6320006    
    239000   605.36688     -2670.4134      0             -2598.2671      2.6625547    
    239200   608.22121     -2663.2982      0             -2590.8117     -3.3644188    
    239400   601.98456     -2665.8058      0             -2594.0625     -1.4521019    
    239600   566.08463     -2667.4429      0             -2599.9781     -1.9532887    
    239800   631.56133     -2670.1626      0             -2594.8944      0.99602962   
    240000   603.8437      -2665.0445      0             -2593.0797     -2.5425013    
    240200   619.97598     -2671.1594      0             -2597.272      -0.21213897   
    240400   572.78605     -2667.1366      0             -2598.8732     -1.3232591    
    240600   606.63895     -2665.7104      0             -2593.4125      0.91415623   
    240800   594.18684     -2664.1539      0             -2593.34        0.21336629   
    241000   583.46247     -2665.9079      0             -2596.3721      0.86548593   
    241200   605.34797     -2667.8226      0             -2595.6786     -1.5429271    
    241400   617.8608      -2665.37        0             -2591.7347     -2.331029     
    241600   588.07559     -2665.5637      0             -2595.4782      4.1380829    
    241800   569.4896      -2667.6112      0             -2599.7406     -0.029987891  
    242000   590.91728     -2663.8954      0             -2593.4711      0.62521951   
    242200   604.07235     -2664.264       0             -2592.2719      0.5876405    
    242400   585.20419     -2668.0755      0             -2598.3321     -1.6917558    
    242600   610.97255     -2668.5117      0             -2595.6973      0.28819529   
    242800   616.25027     -2668.7116      0             -2595.2682     -1.3956641    
    243000   593.41224     -2668.1115      0             -2597.3899      5.8996972    
    243200   612.59705     -2669.8851      0             -2596.8771      2.6917842    
    243400   596.01591     -2665.3544      0             -2594.3225     -1.8579969    
    243600   594.6864      -2665.2856      0             -2594.4121     -0.041473582  
    243800   587.16227     -2669.7042      0             -2599.7275     -2.9854338    
    244000   602.81732     -2668.5495      0             -2596.707       0.67346324   
    244200   605.19373     -2664.5828      0             -2592.4572     -4.9739258    
    244400   594.58382     -2669.3993      0             -2598.5381      2.4657294    
    244600   606.44992     -2670.9103      0             -2598.6349     -2.1276755    
    244800   606.54268     -2665.5187      0             -2593.2323      4.0752935    
    245000   597.86917     -2664.4098      0             -2593.1571     -6.3191229    
    245200   577.8494      -2668.5271      0             -2599.6602      6.1891792    
    245400   596.12341     -2670.2684      0             -2599.2237     -3.8435901    
    245600   615.30496     -2661.6462      0             -2588.3155      8.1998181    
    245800   611.92815     -2666.0993      0             -2593.171      -11.237196    
    246000   604.31333     -2670.4569      0             -2598.4362      3.1805355    
    246200   600.08838     -2669.2348      0             -2597.7175     -2.388456     
    246400   601.07379     -2663.5892      0             -2591.9545      6.3778012    
    246600   578.11275     -2666.4273      0             -2597.5291     -2.6951175    
    246800   592.19788     -2670.5073      0             -2599.9304      5.4745741    
    247000   602.61908     -2666.1083      0             -2594.2895     -7.5192076    
    247200   606.24774     -2664.7226      0             -2592.4713      8.467911     
    247400   609.82567     -2669.8708      0             -2597.1931     -7.9151749    
    247600   603.59332     -2668.7971      0             -2596.8621      8.3286317    
    247800   599.59825     -2669.0532      0             -2597.5944     -5.9571421    
    248000   601.23739     -2667.3582      0             -2595.704       1.0438742    
    248200   592.93527     -2668.4248      0             -2597.7601     -7.1037772    
    248400   615.37528     -2670.058       0             -2596.7189      0.55902696   
    248600   600.67375     -2668.8789      0             -2597.2918     -4.2087921    
    248800   619.1985      -2668.7074      0             -2594.9127      8.1803794    
    249000   593.0303      -2667.7495      0             -2597.0735     -6.001166     
    249200   585.50278     -2666.684       0             -2596.905       5.6571446    
    249400   616.19893     -2669.5094      0             -2596.0722     -8.7427365    
    249600   610.24023     -2669.105       0             -2596.3778      6.3648335    
    249800   588.93586     -2668.2728      0             -2598.0847     -11.359637    
    250000   610.37769     -2668.6837      0             -2595.9402      4.6639277    
    250200   569.65524     -2667.1292      0             -2599.2389     -9.7126542    
    250400   619.41768     -2668.6836      0             -2594.8628      11.196294    
    250600   589.03318     -2664.9041      0             -2594.7044     -6.9486434    
    250800   593.88088     -2668.3771      0             -2597.5997      9.3804325    
    251000   595.37148     -2671.2907      0             -2600.3356     -4.8855611    
    251200   607.75172     -2667.4958      0             -2595.0652      0.15967851   
    251400   610.35554     -2668.2282      0             -2595.4873     -3.0311616    
    251600   593.28247     -2670.0874      0             -2599.3813      1.3844515    
    251800   609.04139     -2669.123       0             -2596.5387      2.945806     
    252000   619.28368     -2667.9456      0             -2594.1407     -4.0873733    
    252200   620.25529     -2671.8205      0             -2597.8998      2.2222778    
    252400   601.08008     -2670.2862      0             -2598.6507     -5.8847683    
    252600   629.8743      -2669.7402      0             -2594.6732      5.777644     
    252800   610.20361     -2667.7066      0             -2594.9838     -6.2865139    
    253000   598.81276     -2667.0296      0             -2595.6644      3.5673049    
    253200   590.99801     -2669.2726      0             -2598.8388     -5.6821452    
    253400   609.30151     -2667.5929      0             -2594.9776      5.8163168    
    253600   597.25016     -2666.2807      0             -2595.1017     -2.3840563    
    253800   587.94321     -2666.7091      0             -2596.6393      5.1545883    
    254000   593.99211     -2665.387       0             -2594.5963     -2.0979501    
    254200   607.13138     -2665.7889      0             -2593.4323      0.96269589   
    254400   606.86781     -2669.5115      0             -2597.1863     -4.5384794    
    254600   611.78838     -2669.4588      0             -2596.5472      2.0242579    
    254800   608.71507     -2666.1068      0             -2593.5614      1.0262798    
    255000   607.56716     -2667.8833      0             -2595.4747      1.2043373    
    255200   597.58738     -2668.5443      0             -2597.3251      0.52135091   
    255400   617.33727     -2670.912       0             -2597.3391     -3.571771     
    255600   614.41581     -2667.5216      0             -2594.2968      1.97349      
    255800   590.73886     -2665.3971      0             -2594.9941     -2.213071     
    256000   601.69847     -2667.2836      0             -2595.5744      3.4420517    
    256200   585.21742     -2665.8187      0             -2596.0737     -4.4711433    
    256400   605.88808     -2665.9854      0             -2593.777       7.5126242    
    256600   571.39295     -2667.2542      0             -2599.1569     -7.1635408    
    256800   617.7633      -2668.3661      0             -2594.7424      3.6630816    
    257000   587.36062     -2663.7306      0             -2593.7302     -5.550771     
    257200   580.122       -2667.1028      0             -2597.9651      8.3595947    
    257400   588.36488     -2668.8916      0             -2598.7715      1.4589743    
    257600   611.65931     -2666.5156      0             -2593.6193      1.5849498    
    257800   597.52355     -2668.4791      0             -2597.2675     -3.776668     
    258000   585.28511     -2668.2803      0             -2598.5273     -1.3263891    
    258200   602.79922     -2668.6085      0             -2596.7682     -4.6325802    
    258400   626.49949     -2669.9921      0             -2595.3272      0.58101158   
    258600   594.58383     -2668.7223      0             -2597.8611     -0.18667666   
    258800   577.12008     -2667.1168      0             -2598.3369      2.4616381    
    259000   597.96989     -2666.2549      0             -2594.9901      4.1053713    
    259200   596.87354     -2668.5814      0             -2597.4473     -1.3954294    
    259400   615.38408     -2669.7407      0             -2596.4005      1.4534888    
    259600   594.10092     -2666.3029      0             -2595.4992     -1.0299219    
    259800   617.86094     -2670.2086      0             -2596.5733      1.1413211    
    260000   590.30694     -2668.0212      0             -2597.6697     -3.6460808    
    260200   612.66402     -2668.6903      0             -2595.6743      2.2099185    
    260400   581.4499      -2665.724       0             -2596.4281     -2.6578742    
    260600   606.16665     -2666.9608      0             -2594.7192      5.3516635    
    260800   605.06368     -2668.6259      0             -2596.5158     -3.8537944    
    261000   598.24957     -2668.6361      0             -2597.338       4.8294832    
    261200   580.41931     -2665.2397      0             -2596.0666     -4.858289     
    261400   603.57295     -2664.7255      0             -2592.793       4.0812267    
    261600   604.46722     -2668.6626      0             -2596.6235     -5.6114637    
    261800   588.57968     -2667.2717      0             -2597.126       3.5758859    
    262000   612.39384     -2666.2371      0             -2593.2533     -3.9955644    
    262200   595.63994     -2666.302       0             -2595.3149      2.2729028    
    262400   582.76273     -2666.0622      0             -2596.6098     -0.74227025   
    262600   609.38928     -2665.3769      0             -2592.7512      4.5191124    
    262800   608.96096     -2666.9904      0             -2594.4158      2.0270533    
    263000   611.15219     -2670.2296      0             -2597.3937     -2.0629744    
    263200   627.76544     -2667.4627      0             -2592.647       0.80639818   
    263400   613.35124     -2666.4663      0             -2593.3685     -3.0871626    
    263600   621.92998     -2673.0768      0             -2598.9565     -0.5626759    
    263800   597.97963     -2666.2467      0             -2594.9808     -0.19823177   
    264000   616.60983     -2665.764       0             -2592.2777      4.178622     
    264200   587.12181     -2669.0259      0             -2599.054      -3.0726741    
    264400   609.61517     -2667.9963      0             -2595.3436     -2.1737128    
    264600   601.99065     -2663.19        0             -2591.446       2.3230657    
    264800   614.7961      -2666.9855      0             -2593.7154     -0.54098624   
    265000   573.41214     -2668.477       0             -2600.139       3.4825482    
    265200   593.10239     -2664.8677      0             -2594.183       0.14819436   
    265400   616.78895     -2663.7178      0             -2590.2102     -1.7203608    
    265600   586.06055     -2671.6181      0             -2601.7727     -0.14423898   
    265800   605.90969     -2669.4637      0             -2597.2527      0.66018297   
    266000   633.91004     -2664.6621      0             -2589.114      -4.9492868    
    266200   601.24596     -2668.8067      0             -2597.1515      3.4106137    
    266400   562.96536     -2669.3434      0             -2602.2504      2.6870141    
    266600   609.99643     -2662.8671      0             -2590.1691     -5.4130692    
    266800   605.16336     -2661.6974      0             -2589.5753      0.42787861   
    267000   578.69025     -2669.9413      0             -2600.9742      2.6150584    
    267200   583.28389     -2666.677       0             -2597.1625      3.2242642    
    267400   621.61023     -2663.6443      0             -2589.5621      2.448547     
    267600   624.49997     -2669.0554      0             -2594.6289      3.6212697    
    267800   575.89143     -2666.8486      0             -2598.2151      1.4940026    
    268000   617.81594     -2667.1084      0             -2593.4784      3.8229324    
    268200   628.35385     -2667.0786      0             -2592.1927     -4.1646838    
    268400   596.61849     -2668.4195      0             -2597.3158      4.2313823    
    268600   588.51496     -2667.0762      0             -2596.9383     -3.2905379    
    268800   630.65417     -2665.2661      0             -2590.1061      3.1825978    
    269000   588.76765     -2665.5981      0             -2595.43       -3.3715249    
    269200   601.47503     -2670.1603      0             -2598.4778      3.3884533    
    269400   600.31047     -2663.1633      0             -2591.6196     -7.1707507    
    269600   605.36239     -2665.3955      0             -2593.2497      6.8952772    
    269800   575.16197     -2670.4013      0             -2601.8547     -1.4387869    
    270000   631.82323     -2668.958       0             -2593.6587      0.58682569   
    270200   617.52199     -2665.7265      0             -2592.1316     -4.0079       
    270400   562.49377     -2664.7709      0             -2597.7341      5.9387202    
    270600   589.95659     -2667.5257      0             -2597.216      -0.91700722   
    270800   618.39694     -2666.5341      0             -2592.8349      5.4364561    
    271000   602.62323     -2669.9328      0             -2598.1135     -8.2868077    
    271200   581.01131     -2667.4459      0             -2598.2022      8.5085161    
    271400   595.56173     -2663.2521      0             -2592.2744     -4.60214      
    271600   620.6778      -2668.3421      0             -2594.371       4.5844234    
    271800   591.67239     -2669.0311      0             -2598.5169     -6.9775538    
    272000   607.7131      -2666.6922      0             -2594.2662      8.5997732    
    272200   604.98292     -2665.8766      0             -2593.7761     -2.418539     
    272400   584.16428     -2666.6692      0             -2597.0497      6.0042608    
    272600   599.34681     -2668.0386      0             -2596.6097     -2.7866505    
    272800   629.52652     -2667.8571      0             -2592.8315     -5.4417603    
    273000   620.53114     -2667.0444      0             -2593.0908     -1.5146646    
    273200   586.68598     -2667.3057      0             -2597.3857     -0.1423491    
    273400   584.77833     -2666.0985      0             -2596.4058     -0.86020131   
    273600   597.73971     -2664.9815      0             -2593.7442     -5.7247016    
    273800   590.08138     -2666.7111      0             -2596.3865      3.3011301    
    274000   579.04378     -2667.883       0             -2598.8738     -4.1940393    
    274200   629.10277     -2668.5005      0             -2593.5253     -1.0624859    
    274400   577.71677     -2664.6255      0             -2595.7745      1.3861646    
    274600   612.85181     -2669.7885      0             -2596.7502      2.0887537    
    274800   581.38084     -2663.5408      0             -2594.253       1.8298772    
    275000   591.77762     -2663.4739      0             -2592.9472      1.5483502    
    275200   585.11242     -2667.0694      0             -2597.337      -1.8322462    
    275400   601.14988     -2668.5937      0             -2596.95        1.4985739    
    275600   580.7995      -2663.8212      0             -2594.6028     -4.837224     
    275800   603.01863     -2665.3521      0             -2593.4857      0.6102344    
    276000   579.80628     -2666.9335      0             -2597.8334      1.507683     
    276200   612.61663     -2669.4361      0             -2596.4257      1.2151845    
    276400   606.49327     -2665.3588      0             -2593.0782     -1.4656057    
    276600   597.12032     -2665.8067      0             -2594.6431     -0.35052893   
    276800   600.41249     -2668.0573      0             -2596.5014      1.4817913    
    277000   598.48483     -2667.0096      0             -2595.6834      4.0749582    
    277200   610.00944     -2667.1326      0             -2594.433       2.4531332    
    277400   582.60188     -2666.0625      0             -2596.6293     -2.4404518    
    277600   609.45414     -2669.4888      0             -2596.8554      0.35488639   
    277800   584.32754     -2666.1495      0             -2596.5106     -6.0758317    
    278000   627.24864     -2668.699       0             -2593.9449      1.4871327    
    278200   602.75197     -2668.6389      0             -2596.8042     -3.3854853    
    278400   607.47249     -2667.803       0             -2595.4057      1.3467796    
    278600   606.53383     -2667.0354      0             -2594.75       -1.4704246    
    278800   584.93973     -2666.7654      0             -2597.0536      4.8127469    
    279000   585.05933     -2667.5816      0             -2597.8555     -1.9250636    
    279200   633.47129     -2667.2286      0             -2591.7328      3.8138993    
    279400   582.03675     -2667.4927      0             -2598.1268     -8.0576504    
    279600   584.52118     -2667.0819      0             -2597.4199      6.3440836    
    279800   607.13883     -2665.7885      0             -2593.431      -2.5813137    
    280000   589.3618      -2667.2141      0             -2596.9752      2.573825     
    280200   610.31935     -2667.8604      0             -2595.1239     -4.1464326    
    280400   611.10546     -2665.5469      0             -2592.7167      4.2423655    
    280600   599.22403     -2667.0035      0             -2595.5893     -6.823986     
    280800   574.6403      -2663.9859      0             -2595.5015      4.2443004    
    281000   609.4215      -2666.7169      0             -2594.0874     -8.7042133    
    281200   591.71252     -2667.1139      0             -2596.5949      4.1829259    
    281400   607.31692     -2671.6197      0             -2599.241       0.75517542   
    281600   621.51102     -2666.7924      0             -2592.7221      5.0328749    
    281800   598.93393     -2666.855       0             -2595.4754     -4.8119233    
    282000   591.34627     -2669.9979      0             -2599.5225      8.6208394    
    282200   575.4481      -2665.8241      0             -2597.2434     -3.3676344    
    282400   623.49282     -2666.2908      0             -2591.9842     -0.26166338   
    282600   580.95363     -2667.4557      0             -2598.2189     -1.4678534    
    282800   598.76723     -2669.0549      0             -2597.6951     -0.13159713   
    283000   592.14132     -2665.3468      0             -2594.7767      0.044707266  
    283200   591.56831     -2667.2715      0             -2596.7696      6.3068748    
    283400   574.42215     -2666.9696      0             -2598.5112      5.963289     
    283600   613.52251     -2665.9366      0             -2592.8183     -1.5135823    
    283800   614.79124     -2669.7096      0             -2596.4401      2.339259     
    284000   583.90731     -2669.2387      0             -2599.6499     -2.9244728    
    284200   627.07037     -2667.5611      0             -2592.8282      5.4255892    
    284400   570.23177     -2664.8645      0             -2596.9055      0.27881217   
    284600   587.62364     -2668.5795      0             -2598.5478      2.9935038    
    284800   610.59521     -2666.9394      0             -2594.17        4.2446709    
    285000   615.42199     -2671.4637      0             -2598.119      -5.3610591    
    285200   611.91932     -2672.5545      0             -2599.6272     -1.7625038    
    285400   604.8698      -2666.7448      0             -2594.6578     -1.3622054    
    285600   608.38165     -2668.6892      0             -2596.1836     -1.6243043    
    285800   612.06008     -2669.744       0             -2596.8         2.2508367    
    286000   582.74436     -2667.2643      0             -2597.814       0.64768229   
    286200   611.10969     -2666.7828      0             -2593.9521     -0.62571887   
    286400   610.58141     -2667.9844      0             -2595.2166     -0.40654204   
    286600   592.78749     -2669.4056      0             -2598.7584      1.3568687    
    286800   598.25798     -2665.1753      0             -2593.8762      1.0410135    
    287000   592.60461     -2665.2912      0             -2594.6659      0.55007456   
    287200   561.74735     -2667.6739      0             -2600.726       1.8989244    
    287400   607.0655      -2668.219       0             -2595.8702     -3.7664295    
    287600   612.47741     -2666.8253      0             -2593.8315      3.3185488    
    287800   610.84104     -2670.289       0             -2597.4903     -0.38051954   
    288000   591.71714     -2668.6888      0             -2598.1693      3.5556902    
    288200   611.00866     -2669.5892      0             -2596.7705     -0.99273996   
    288400   597.99274     -2666.1201      0             -2594.8527     -0.67886209   
    288600   595.66374     -2668.1362      0             -2597.1463     -0.98185989   
    288800   606.71117     -2669.9495      0             -2597.643       1.9971427    
    289000   583.31622     -2664.0046      0             -2594.4862     -1.2204116    
    289200   607.06679     -2668.1646      0             -2595.8157      3.7621431    
    289400   601.27444     -2670.3344      0             -2598.6758     -2.9917528    
    289600   597.12209     -2666.5151      0             -2595.3514     -1.436522     
    289800   628.1645      -2669.6965      0             -2594.8332     -2.2268196    
    290000   576.1719      -2669.1791      0             -2600.5122     -4.0379821    
    290200   589.52642     -2668.0871      0             -2597.8286     -2.9562667    
    290400   620.76601     -2665.774       0             -2591.7925     -4.7168139    
    290600   606.34833     -2671.4144      0             -2599.1511      3.3314384    
    290800   581.34932     -2669.8546      0             -2600.5706     -5.430522     
    291000   644.76565     -2667.8454      0             -2591.0036      4.4030455    
    291200   582.29933     -2666.439       0             -2597.0418     -11.021134    
    291400   573.83717     -2670.4054      0             -2602.0167      6.2428656    
    291600   616.70162     -2667.2433      0             -2593.7461     -4.9797974    
    291800   625.97927     -2667.198       0             -2592.5951      4.2179335    
    292000   585.37935     -2670.0381      0             -2600.2738     -0.25045219   
    292200   609.2073      -2671.4446      0             -2598.8406     -2.8055534    
    292400   621.92728     -2667.9342      0             -2593.8142      1.9468693    
    292600   566.88727     -2665.3869      0             -2597.8265     -0.86960937   
    292800   588.49875     -2670.1046      0             -2599.9686      3.2841072    
    293000   619.1882      -2668.5288      0             -2594.7353     -1.3631559    
    293200   626.31544     -2666.9134      0             -2592.2704      3.028819     
    293400   592.23552     -2669.5278      0             -2598.9464     -6.3445995    
    293600   597.21255     -2668.2887      0             -2597.1142      4.3868893    
    293800   619.52232     -2665.43        0             -2591.5967     -8.9693416    
    294000   613.59815     -2669.8423      0             -2596.715       6.8814086    
    294200   567.10242     -2667.5958      0             -2600.0097     -2.7804936    
    294400   614.32734     -2665.9301      0             -2592.7159      2.6791755    
    294600   598.98368     -2668.4948      0             -2597.1092     -3.7027337    
    294800   593.11177     -2668.4339      0             -2597.7481      8.8816146    
    295000   604.75894     -2667.0016      0             -2594.9277     -5.8881152    
    295200   609.64259     -2668.4593      0             -2595.8034      6.4283699    
    295400   592.26427     -2670.8348      0             -2600.25       -5.6386696    
    295600   603.075       -2667.981       0             -2596.1078      4.6679238    
    295800   614.64672     -2667.7497      0             -2594.4974     -3.9885549    
    296000   588.5206      -2667.0713      0             -2596.9326      5.7023869    
    296200   595.4623      -2669.9007      0             -2598.9348     -2.1067659    
    296400   604.49559     -2668.7606      0             -2596.7181      1.7091887    
    296600   595.95037     -2668.0608      0             -2597.0367     -1.0342758    
    296800   572.03726     -2666.9865      0             -2598.8123      2.3126639    
    297000   620.99776     -2670.1364      0             -2596.1272      5.3689731    
    297200   592.57844     -2670.7986      0             -2600.1763     -0.93826625   
    297400   603.73342     -2669.4194      0             -2597.4678     -0.67226978   
    297600   588.46946     -2664.4724      0             -2594.3399      4.8195054    
    297800   583.61495     -2667.3968      0             -2597.8428     -1.2264964    
    298000   579.63574     -2667.501       0             -2598.4212      7.8531717    
    298200   594.59241     -2666.9454      0             -2596.0831      1.9796231    
    298400   602.66134     -2668.8139      0             -2596.99        2.6261259    
    298600   581.64743     -2667.9644      0             -2598.6449      3.775465     
    298800   602.66418     -2666.7437      0             -2594.9195      1.8190218    
    299000   599.13071     -2667.4148      0             -2596.0117      0.48010337   
    299200   590.78977     -2669.7886      0             -2599.3795      1.4277459    
    299400   603.98574     -2668.803       0             -2596.8213     -0.35952042   
    299600   598.11        -2666.7877      0             -2595.5063     -3.4306719    
    299800   597.36096     -2667.4096      0             -2596.2174     -2.5349856    
    300000   573.51841     -2666.789       0             -2598.4383     -4.1402631    
    300200   607.91341     -2667.9711      0             -2595.5213      4.3013393    
    300400   574.20168     -2665.1751      0             -2596.743      -8.9753963    
    300600   602.84534     -2669.3685      0             -2597.5227      8.9789094    
    300800   594.64686     -2668.1989      0             -2597.3302     -5.1802607    
    301000   618.79661     -2667.3422      0             -2593.5953      5.7093242    
    301200   599.24314     -2670.4633      0             -2599.0468     -4.3249118    
    301400   593.47817     -2669.1479      0             -2598.4185      3.787846     
    301600   616.72374     -2667.6317      0             -2594.1319     -4.2594864    
    301800   601.5855      -2667.3781      0             -2595.6824      7.6610397    
    302000   585.02192     -2669.7947      0             -2600.0731     -6.3113989    
    302200   615.87715     -2666.7014      0             -2593.3025      5.495361     
    302400   593.24406     -2668.3051      0             -2597.6036     -7.7000595    
    302600   598.5138      -2669.1284      0             -2597.7988      8.9323779    
    302800   602.26311     -2666.459       0             -2594.6826     -9.9365041    
    303000   615.63002     -2665.6809      0             -2592.3115      6.8143291    
    303200   570.4932      -2669.9981      0             -2602.0079     -5.5825752    
    303400   612.48072     -2670.5585      0             -2597.5644      0.1871819    
    303600   637.1016      -2667.9964      0             -2592.068      -5.4089846    
    303800   595.20469     -2669.2039      0             -2598.2687      1.7336446    
    304000   609.77077     -2672.806       0             -2600.1349      4.2363666    
    304200   581.48698     -2666.2352      0             -2596.9348     -0.39789264   
    304400   606.6496      -2667.1013      0             -2594.8021      5.6598843    
    304600   575.97346     -2666.6361      0             -2597.9928     -2.530321     
    304800   600.14452     -2669.7262      0             -2598.2023      7.5097608    
    305000   602.44857     -2667.0391      0             -2595.2406     -12.573771    
    305200   613.8958      -2670.5347      0             -2597.3719      4.9381127    
    305400   577.78894     -2670.1911      0             -2601.3315     -9.3101374    
    305600   596.88401     -2666.7211      0             -2595.5857      3.8202689    
    305800   582.22848     -2664.9792      0             -2595.5905     -4.6533346    
    306000   592.16057     -2669.0275      0             -2598.4551      8.4247843    
    306200   573.16807     -2665.597       0             -2597.2881     -4.6602253    
    306400   601.26805     -2665.5855      0             -2593.9277      5.8020291    
    306600   569.45274     -2668.2525      0             -2600.3864     -4.0644992    
    306800   597.78842     -2669.809       0             -2598.5659      7.3633165    
    307000   617.12854     -2668.5797      0             -2595.0316     -6.5169731    
    307200   583.60946     -2666.4647      0             -2596.9113      5.0811333    
    307400   604.89098     -2672.3267      0             -2600.2371     -6.8601662    
    307600   617.11477     -2673.2514      0             -2599.705       2.3093662    
    307800   603.02268     -2668.1125      0             -2596.2455     -0.64660949   
    308000   588.25917     -2668.8059      0             -2598.6985      1.8765391    
    308200   608.59892     -2671.9661      0             -2599.4346     -1.5860413    
    308400   606.56953     -2667.6918      0             -2595.4022      0.83610135   
    308600   628.43079     -2669.693       0             -2594.798      -5.4157655    
    308800   582.15966     -2671.0275      0             -2601.647       3.3892109    
    309000   632.65377     -2670.9687      0             -2595.5704     -6.5456469    
    309200   626.45548     -2667.8145      0             -2593.1548      1.8728592    
    309400   580.344       -2670.599       0             -2601.4349     -0.0094319065 
    309600   609.5417      -2670.9194      0             -2598.2755      4.5404897    
    309800   600.4294      -2664.877       0             -2593.3191     -2.979504     
    310000   613.54463     -2671.6017      0             -2598.4808      0.88383934   
    310200   567.13846     -2669.2464      0             -2601.656      -5.9970105    
    310400   622.44398     -2667.6462      0             -2593.4647      0.51460067   
    310600   589.75757     -2665.8124      0             -2595.5264     -2.3711536    
    310800   572.93625     -2669.9541      0             -2601.6728      7.9364494    
    311000   587.98004     -2665.909       0             -2595.8348      0.56678543   
    311200   601.32666     -2663.5114      0             -2591.8466     -1.6952799    
    311400   587.66366     -2671.5617      0             -2601.5253      0.37045755   
    311600   576.34602     -2668.4144      0             -2599.7267      3.3876384    
    311800   607.06722     -2663.3108      0             -2590.9618     -4.8587861    
    312000   596.30514     -2667.8114      0             -2596.745       2.2738873    
    312200   591.41318     -2672.3422      0             -2601.8588      2.2228133    
    312400   601.91834     -2665.8795      0             -2594.1441      0.81228437   
    312600   620.3648      -2665.4668      0             -2591.533      -5.1751259    
    312800   579.92592     -2671.0209      0             -2601.9066      2.732164     
    313000   593.66529     -2668.6025      0             -2597.8507     -1.207708     
    313200   616.84036     -2664.0337      0             -2590.52        0.63103189   
    313400   591.30586     -2669.4374      0             -2598.9668     -1.7455865    
    313600   591.96676     -2671.2111      0             -2600.6618      0.27667065   
    313800   597.8456      -2666.0438      0             -2594.7939     -1.0562216    
    314000   600.51014     -2665.8832      0             -2594.3157      0.75630547   
    314200   608.06222     -2671.8496      0             -2599.382       1.0723099    
    314400   622.77804     -2671.7168      0             -2597.4954     -1.1775256    
    314600   614.82749     -2667.6181      0             -2594.3443     -3.1916072    
    314800   580.22418     -2666.4845      0             -2597.3346     -2.4758428    
    315000   597.45935     -2668.901       0             -2597.6971     -5.3884258    
    315200   597.46615     -2667.9809      0             -2596.7762      0.97675997   
    315400   597.40162     -2666.4963      0             -2595.2993      0.50220651   
    315600   589.27749     -2668.3249      0             -2598.096       0.62663338   
    315800   605.27782     -2670.6932      0             -2598.5575      0.40052446   
    316000   617.61282     -2667.6739      0             -2594.0681     -8.3389236    
    316200   589.49975     -2667.832       0             -2597.5767     -1.0034579    
    316400   593.87187     -2668.7617      0             -2597.9853     -2.7466882    
    316600   596.77681     -2667.9692      0             -2596.8466     -1.0622112    
    316800   632.64369     -2670.9148      0             -2595.5177     -2.3946903    
    317000   590.80807     -2669.4549      0             -2599.0436      3.512147     
    317200   620.0124      -2671.3592      0             -2597.4674     -2.3574948    
    317400   625.52816     -2669.9997      0             -2595.4506      0.9945713    
    317600   616.38577     -2671.4647      0             -2598.0052     -7.5781596    
    317800   606.81337     -2671.2867      0             -2598.968       1.4400617    
    318000   602.95515     -2666.6747      0             -2594.8158      0.89568122   
    318200   600.18388     -2668.4486      0             -2596.92        2.6591632    
    318400   589.73726     -2671.2003      0             -2600.9166      0.27008574   
    318600   607.46402     -2669.5237      0             -2597.1275      3.9763893    
    318800   585.57245     -2664.8695      0             -2595.0823     -0.49700839   
    319000   593.16194     -2668.4719      0             -2597.7801      6.8813885    
    319200   565.87166     -2667.2959      0             -2599.8566     -4.3063763    
    319400   614.20852     -2668.3552      0             -2595.1552     -1.2171664    
    319600   609.90857     -2668.234       0             -2595.5464     -5.815699     
    319800   598.29933     -2666.7284      0             -2595.4244      12.90755     
    320000   603.06691     -2669.6812      0             -2597.809      -3.044493     
    320200   592.38914     -2665.3881      0             -2594.7884      4.0258054    
    320400   595.58221     -2666.6854      0             -2595.7052     -2.7749216    
    320600   605.34369     -2669.5119      0             -2597.3684      8.1327125    
    320800   580.21925     -2665.7951      0             -2596.6459     -3.2668797    
    321000   618.04174     -2667.3935      0             -2593.7366      5.574992     
    321200   598.24891     -2668.226       0             -2596.9279     -6.0779595    
    321400   613.55187     -2669.9321      0             -2596.8103     -0.8251227    
    321600   593.66244     -2668.6467      0             -2597.8953     -2.7494778    
    321800   595.87139     -2666.6432      0             -2595.6286      3.0594707    
    322000   596.19859     -2667.3079      0             -2596.2542     -2.315995     
    322200   596.96142     -2668.1702      0             -2597.0256     -0.016527547  
    322400   613.45952     -2670.1919      0             -2597.0811     -2.446391     
    322600   600.3969      -2668.6471      0             -2597.0931     -0.53743629   
    322800   620.09004     -2670.6761      0             -2596.7751      0.58106952   
    323000   614.49531     -2671.0914      0             -2597.8572      0.56346785   
    323200   609.98081     -2669.0339      0             -2596.3377     -2.4558501    
    323400   620.86257     -2668.1759      0             -2594.1829      2.5563902    
    323600   609.97972     -2668.7659      0             -2596.0698     -3.1086955    
    323800   590.21527     -2668.7296      0             -2598.389       1.0501486    
    324000   582.10435     -2666.6366      0             -2597.2627     -3.8638281    
    324200   594.12846     -2667.7235      0             -2596.9165      1.4360597    
    324400   600.53153     -2668.465       0             -2596.8949      1.0548744    
    324600   587.56467     -2668.4314      0             -2598.4067      5.1672131    
    324800   614.19852     -2671.0589      0             -2597.86       -6.7217853    
    325000   597.58693     -2667.4463      0             -2596.2272      4.759622     
    325200   601.25831     -2670.8718      0             -2599.2151     -1.6176059    
    325400   591.18025     -2669.0732      0             -2598.6176      0.67369262   
    325600   610.63908     -2669.4004      0             -2596.6257     -2.1465884    
    325800   603.4068      -2669.5675      0             -2597.6548      1.0693419    
    326000   624.70675     -2670.7633      0             -2596.3121      1.5064248    
    326200   574.49335     -2666.831       0             -2598.3641     -0.84002564   
    326400   605.85479     -2669.379       0             -2597.1745     -0.70491766   
    326600   611.5824      -2668.9169      0             -2596.0298     -0.07753449   
    326800   589.36357     -2666.4307      0             -2596.1916     -0.62261007   
    327000   610.91737     -2670.6363      0             -2597.8285     -1.2846965    
    327200   606.06898     -2669.9909      0             -2597.7609     -1.7335398    
    327400   617.10066     -2668.2304      0             -2594.6857     -0.23681075   
    327600   609.2294      -2669.1264      0             -2596.5197     -3.5701773    
    327800   600.72124     -2672.7261      0             -2601.1334      0.66682107   
    328000   596.7468      -2668.0582      0             -2596.9392      4.1155501    
    328200   632.4438      -2666.9814      0             -2591.6081      0.30790399   
    328400   598.33449     -2670.9417      0             -2599.6335      2.8315305    
    328600   573.96205     -2668.0378      0             -2599.6342      1.4276498    
    328800   615.5797      -2666.5259      0             -2593.1625     -0.49745602   
    329000   595.95578     -2670.237       0             -2599.2123     -4.1857187    
    329200   611.4857      -2673.3054      0             -2600.4298      2.6789662    
    329400   612.00403     -2668.8017      0             -2595.8644     -6.3807033    
    329600   598.03076     -2665.9925      0             -2594.7204     -1.1054734    
    329800   584.88297     -2669.7926      0             -2600.0875     -1.3662281    
    330000   569.01809     -2666.7786      0             -2598.9642      3.5341524    
    330200   611.0899      -2666.1303      0             -2593.3019      0.45533059   
    330400   581.37616     -2667.8255      0             -2598.5384      2.3164918    
    330600   583.25365     -2669.9236      0             -2600.4127     -0.57130012   
    330800   604.78211     -2666.8073      0             -2594.7307     -1.4011481    
    331000   591.63243     -2666.7862      0             -2596.2767     -0.23877823   
    331200   604.54795     -2674.2997      0             -2602.251      -1.556137     
    331400   603.86408     -2670.17        0             -2598.2028     -5.2629426    
    331600   577.60646     -2661.3767      0             -2592.5388      5.1890914    
    331800   605.80335     -2671.2702      0             -2599.0718     -2.0073295    
    332000   591.40821     -2672.1703      0             -2601.6876      2.2326563    
    332200   626.03271     -2669.5821      0             -2594.9729     -3.9031229    
    332400   630.36821     -2668.6389      0             -2593.5129      1.58686      
    332600   586.52569     -2672.9285      0             -2603.0276      1.1279146    
    332800   606.85903     -2670.6722      0             -2598.3481      2.3585037    
    333000   610.21773     -2664.6333      0             -2591.9088     -2.1263436    
    333200   572.49419     -2667.1926      0             -2598.964      -1.7155898    
    333400   586.3211      -2671.3304      0             -2601.4539      2.4504763    
    333600   594.14267     -2665.0684      0             -2594.2598      0.18937123   
    333800   614.6288      -2665.9018      0             -2592.6516     -4.7073391    
    334000   578.25816     -2668.1362      0             -2599.2207      0.54415791   
    334200   581.69041     -2670.3665      0             -2601.0418      0.20231742   
    334400   615.91179     -2667.5104      0             -2594.1073     -1.6177818    
    334600   600.65382     -2666.8654      0             -2595.2807      2.237866     
    334800   586.91573     -2673.124       0             -2603.1767      0.40888005   
    335000   595.10661     -2669.9825      0             -2599.059       3.6347031    
    335200   636.61931     -2667.7322      0             -2591.8613     -7.0654086    
    335400   601.97543     -2669.8453      0             -2598.1031     -4.2002242    
    335600   567.45746     -2671.7104      0             -2604.0821     -4.4809674    
    335800   598.01577     -2667.1426      0             -2595.8723      0.40282453   
    336000   608.71814     -2661.8824      0             -2589.3367      0.31769227   
    336200   606.3934      -2674.1204      0             -2601.8517     -4.461357     
    336400   592.8143      -2672.7875      0             -2602.1372      0.92877559   
    336600   649.34921     -2668.7616      0             -2591.3736      1.0794387    
    336800   601.8223      -2667.749       0             -2596.0251      3.3218098    
    337000   597.42997     -2672.3655      0             -2601.1651     -1.8588394    
    337200   596.51086     -2667.037       0             -2595.9461      0.41246938   
    337400   631.61998     -2668.5795      0             -2593.3043      0.75933132   
    337600   580.5562      -2669.8777      0             -2600.6883     -3.9287564    
    337800   604.34844     -2669.1158      0             -2597.0908     -2.6882287    
    338000   610.39202     -2669.7088      0             -2596.9636     -2.3748174    
    338200   599.55385     -2671.3343      0             -2599.8808     -0.082357933  
    338400   623.0444      -2670.1906      0             -2595.9375     -0.0094970562 
    338600   611.5815      -2669.7316      0             -2596.8446     -1.2087243    
    338800   587.16433     -2667.9705      0             -2597.9935      1.102174     
    339000   589.98855     -2668.0036      0             -2597.69        0.41080838   
    339200   596.42721     -2668.3353      0             -2597.2544     -2.4465798    
    339400   602.48762     -2669.5113      0             -2597.7081     -0.013046077  
    339600   607.5398      -2669.4646      0             -2597.0593      0.0024471582 
    339800   577.41987     -2667.4558      0             -2598.6401     -1.4433989    
    340000   597.20597     -2669.5009      0             -2598.3271      1.0840061    
    340200   600.33925     -2669.9642      0             -2598.4171     -2.5219528    
    340400   574.79184     -2666.6594      0             -2598.1569     -0.10913479   
    340600   585.13057     -2668.2377      0             -2598.5031      0.70051276   
    340800   615.06488     -2671.1598      0             -2597.8577      1.6913466    
    341000   600.61229     -2668.8354      0             -2597.2557      2.7757838    
    341200   589.71136     -2669.4648      0             -2599.1843     -7.4413643    
    341400   596.00358     -2670.3471      0             -2599.3167     -1.4532462    
    341600   617.71163     -2668.8839      0             -2595.2663     -3.1094775    
    341800   615.28277     -2668.92        0             -2595.5919     -0.44951562   
    342000   580.38919     -2669.8385      0             -2600.6689      4.4747179    
    342200   582.3943      -2667.8565      0             -2598.448      -1.1043932    
    342400   621.39821     -2665.2154      0             -2591.1585      5.5988015    
    342600   585.90185     -2668.7416      0             -2598.915      -3.2753734    
    342800   597.67416     -2670.2409      0             -2599.0114      8.4100295    
    343000   600.76915     -2665.1606      0             -2593.5622     -3.4890142    
    343200   585.44962     -2666.2536      0             -2596.481       4.776596     
    343400   569.47986     -2666.8874      0             -2599.018      -3.1425343    
    343600   580.90508     -2667.9236      0             -2598.6925      8.9955362    
    343800   620.84198     -2670.932       0             -2596.9414     -4.6721808    
    344000   598.21555     -2668.9072      0             -2597.6132      6.0921391    
    344200   576.30705     -2668.1364      0             -2599.4534     -2.5158872    
    344400   604.15232     -2669.2987      0             -2597.2971      0.91240201   
    344600   583.44412     -2667.4072      0             -2597.8735     -2.6379463    
    344800   567.77171     -2666.2372      0             -2598.5714      0.63353999   
    345000   575.74011     -2668.9144      0             -2600.2989     -1.9529043    
    345200   576.53858     -2667.926       0             -2599.2154      0.135065     
    345400   607.68146     -2670.7841      0             -2598.3619     -1.1516691    
    345600   606.61132     -2669.3112      0             -2597.0165     -1.124396     
    345800   579.81464     -2669.2931      0             -2600.192       1.4988275    
    346000   597.31274     -2670.8491      0             -2599.6626      3.0744013    
    346200   610.61793     -2668.3271      0             -2595.555      -3.4608275    
    346400   604.82289     -2670.8204      0             -2598.7389      1.7145688    
    346600   607.93508     -2671.9641      0             -2599.5117     -1.1414248    
    346800   607.14427     -2671.2548      0             -2598.8966      3.468998     
    347000   615.76097     -2670.88        0             -2597.495      -3.909653     
    347200   612.70328     -2671.6573      0             -2598.6367      1.1031842    
    347400   601.08135     -2672.8245      0             -2601.189      -2.5900696    
    347600   583.66952     -2669.7972      0             -2600.2367     -1.1138088    
    347800   620.04341     -2670.6686      0             -2596.7731     -4.9287794    
    348000   595.30216     -2672.6617      0             -2601.7149     -2.5725745    
    348200   588.16783     -2671.7942      0             -2601.6976      5.4238595    
    348400   628.58974     -2671.6427      0             -2596.7287     -0.065605337  
    348600   612.54182     -2671.583       0             -2598.5816      1.1025424    
    348800   577.43804     -2671.4666      0             -2602.6488     -0.29643475   
    349000   581.53221     -2668.8838      0             -2599.578       3.5933992    
    349200   610.24534     -2669.7948      0             -2597.0671     -1.6594712    
    349400   592.2777      -2673.071       0             -2602.4846     -1.6740789    
    349600   566.35225     -2670.5489      0             -2603.0522      1.3080546    
    349800   619.12631     -2669.1912      0             -2595.4051      4.9830054    
    350000   620.92839     -2673.5077      0             -2599.5068     -5.8628261    
    350200   591.76592     -2672.4667      0             -2601.9413      3.2081748    
    350400   617.53828     -2670.3893      0             -2596.7925     -4.0588708    
    350600   597.28418     -2670.0832      0             -2598.9002      4.7707328    
    350800   604.10143     -2672.949       0             -2600.9534     -5.1341231    
    351000   613.69284     -2668.2631      0             -2595.1245     -1.8660406    
    351200   599.72822     -2667.7106      0             -2596.2362     -2.8594404    
    351400   602.646       -2674.5715      0             -2602.7495      0.4577388    
    351600   601.96457     -2673.1352      0             -2601.3944     -2.1795302    
    351800   630.33473     -2666.0154      0             -2590.8935      4.2776874    
    352000   588.16654     -2668.9696      0             -2598.8731     -4.5768292    
    352200   605.62321     -2676.1577      0             -2603.9809      2.4019032    
    352400   620.40682     -2671.287       0             -2597.3482     -9.4280231    
    352600   601.64188     -2667.6542      0             -2595.9518      9.9630866    
    352800   571.94289     -2669.704       0             -2601.5411     -4.5238505    
    353000   611.91251     -2672.1042      0             -2599.1778      4.0091147    
    353200   599.65415     -2669.5218      0             -2598.0563     -3.8210795    
    353400   604.52005     -2669.8766      0             -2597.8312      7.5412594    
    353600   605.45816     -2674.212       0             -2602.0548     -5.3660894    
    353800   606.36257     -2671.2591      0             -2598.9941      0.6067201    
    354000   597.80533     -2667.0971      0             -2595.8519     -9.9830446    
    354200   595.36869     -2671.3416      0             -2600.3868      4.5403076    
    354400   565.98746     -2670.4036      0             -2602.9504     -6.2349366    
    354600   631.54881     -2669.9617      0             -2594.695       4.4740133    
    354800   607.55133     -2668.6613      0             -2596.2546     -7.4383066    
    355000   609.75814     -2672.4232      0             -2599.7535      10.827092    
    355200   587.76441     -2670.0343      0             -2599.9858     -8.4510251    
    355400   641.93232     -2670.164       0             -2593.6599      7.952058     
    355600   587.44654     -2670.2182      0             -2600.2076     -6.8882784    
    355800   615.86327     -2671.6054      0             -2598.2081      8.0639335    
    356000   566.98037     -2665.049       0             -2597.4775     -4.8175329    
    356200   614.98203     -2670.3715      0             -2597.0793      11.110583    
    356400   595.44319     -2669.6697      0             -2598.706      -8.2947904    
    356600   619.92587     -2670.3219      0             -2596.4404      2.8023344    
    356800   588.9096      -2670.2648      0             -2600.0799     -4.8614328    
    357000   598.54724     -2668.7312      0             -2597.3976      0.58968931   
    357200   584.51723     -2665.8068      0             -2596.1453     -5.9231567    
    357400   629.25073     -2672.5224      0             -2597.5296      1.6144007    
    357600   592.81454     -2671.9307      0             -2601.2804     -11.494717    
    357800   607.00245     -2667.8731      0             -2595.5319      8.6471137    
    358000   593.97132     -2668.2934      0             -2597.5052     -10.072195    
    358200   605.09953     -2669.6854      0             -2597.5709      7.6703051    
    358400   593.01419     -2668.2349      0             -2597.5607     -10.564954    
    358600   593.93684     -2667.7914      0             -2597.0073      13.259884    
    358800   611.84095     -2671.9808      0             -2599.0629     -6.2506663    
    359000   600.93931     -2669.5311      0             -2597.9125      5.3683498    
    359200   575.89435     -2666.6         0             -2597.9662     -8.5300382    
    359400   602.83712     -2670.3029      0             -2598.458       2.2778907    
    359600   585.35736     -2669.2616      0             -2599.5        -6.3409015    
    359800   617.9703      -2670.6755      0             -2597.0272      1.7917968    
    360000   589.21768     -2669.6818      0             -2599.4601     -6.9908647    
    360200   617.95702     -2671.241       0             -2597.5942      3.4894288    
    360400   582.2438      -2668.3748      0             -2598.9842     -3.8323951    
    360600   591.1876      -2667.0026      0             -2596.5461      7.5365254    
    360800   580.98568     -2666.6517      0             -2597.4111     -4.1089299    
    361000   608.97673     -2670.6695      0             -2598.0929      0.25360522   
    361200   595.56363     -2669.2679      0             -2598.2899     -1.9573247    
    361400   592.42803     -2666.5316      0             -2595.9273      0.75429073   
    361600   620.81777     -2670.7618      0             -2596.7741     -5.4127313    
    361800   603.15645     -2671.7616      0             -2599.8787      4.6702928    
    362000   600.24163     -2669.9234      0             -2598.3879     -3.5863441    
    362200   617.32499     -2668.6194      0             -2595.0479     -0.79828887   
    362400   595.31261     -2671.5366      0             -2600.5885      1.0043574    
    362600   597.80412     -2670.66        0             -2599.415      -1.8327603    
    362800   621.68229     -2668.6546      0             -2594.5638      4.164969     
    363000   601.3339      -2672.8216      0             -2601.1559     -4.9581619    
    363200   618.84516     -2674.9167      0             -2601.1641      4.7003362    
    363400   586.21286     -2667.2047      0             -2597.3411     -2.3084429    
    363600   616.53044     -2671.817       0             -2598.3402     -1.5447629    
    363800   586.86944     -2672.9564      0             -2603.0146     -4.8274343    
    364000   613.56079     -2673.3276      0             -2600.2048      0.4468512    
    364200   603.03231     -2670.6593      0             -2598.7912     -1.0137474    
    364400   607.89165     -2671.9022      0             -2599.4549     -1.2829682    
    364600   601.51917     -2670.5905      0             -2598.9027      1.2552233    
    364800   600.60974     -2671.1485      0             -2599.5691      2.1644272    
    365000   592.53425     -2670.275       0             -2599.658       3.9441794    
    365200   601.35848     -2670.3383      0             -2598.6697     -0.14613732   
    365400   603.34258     -2670.1272      0             -2598.2221      4.525498     
    365600   594.14758     -2670.9722      0             -2600.163       0.93818573   
    365800   593.03535     -2669.5195      0             -2598.8428      2.7117204    
    366000   609.03451     -2671.5889      0             -2599.0055     -5.7519542    
    366200   610.97914     -2673.7012      0             -2600.886      -0.058952634  
    366400   608.99974     -2672.5076      0             -2599.9284     -3.074893     
    366600   585.73647     -2669.2864      0             -2599.4796     -0.98529309   
    366800   589.71857     -2672.4701      0             -2602.1887      3.5518858    
    367000   574.38082     -2670.1781      0             -2601.7246     -0.34703033   
    367200   609.24973     -2669.2029      0             -2596.5938      1.4240806    
    367400   602.50075     -2673.1819      0             -2601.3772     -2.4905183    
    367600   593.92424     -2674.2707      0             -2603.4881      1.6251208    
    367800   610.32532     -2671.2159      0             -2598.4786      0.78687671   
    368000   603.2802      -2670.1929      0             -2598.2953      1.9891052    
    368200   579.24407     -2673.746       0             -2604.713      -2.4897318    
    368400   622.95764     -2672.0354      0             -2597.7926      0.74823945   
    368600   602.3958      -2670.7053      0             -2598.913      -3.0034797    
    368800   592.59525     -2674.3992      0             -2603.775       1.1314945    
    369000   604.8074      -2670.735       0             -2598.6554     -0.77794642   
    369200   607.01893     -2669.7417      0             -2597.3985     -1.2462656    
    369400   603.73732     -2674.6275      0             -2602.6753      0.75820351   
    369600   608.71824     -2675.1703      0             -2602.6245      2.5307745    
    369800   624.92343     -2672.246       0             -2597.7689      0.22084625   
    370000   615.66418     -2672.9662      0             -2599.5926      2.9947176    
    370200   567.95307     -2670.2854      0             -2602.598      -2.2250072    
    370400   607.51596     -2672.9374      0             -2600.5349     -1.3745695    
    370600   600.27928     -2669.3017      0             -2597.7617      0.38308043   
    370800   600.60203     -2671.3976      0             -2599.8192     -1.7687465    
    371000   595.57588     -2674.1852      0             -2603.2058      4.5789495    
    371200   589.93026     -2667.8947      0             -2597.588       0.28703308   
    371400   615.06813     -2669.4334      0             -2596.1309     -2.857994     
    371600   594.06731     -2672.0177      0             -2601.218       0.43002388   
    371800   571.52071     -2670.591       0             -2602.4784     -3.7258172    
    372000   631.41251     -2669.8856      0             -2594.6352     -1.3143934    
    372200   597.65362     -2669.0649      0             -2597.8378     -3.7878587    
    372400   593.46446     -2674.7888      0             -2604.061       1.7727793    
    372600   616.16142     -2671.2463      0             -2597.8136     -3.8312281    
    372800   603.17773     -2668.7884      0             -2596.9029     -0.55035011   
    373000   591.74541     -2672.3437      0             -2601.8207     -1.4422372    
    373200   593.87692     -2671.163       0             -2600.3861      3.5847489    
    373400   588.86159     -2666.0297      0             -2595.8505     -2.9067643    
    373600   589.76248     -2669.1164      0             -2598.8298      1.0168707    
    373800   558.71257     -2671.5191      0             -2604.9329      3.7680715    
    374000   621.03465     -2668.6801      0             -2594.6666      2.8019928    
    374200   611.17846     -2671.0119      0             -2598.173       0.042421011  
    374400   572.60959     -2672.6113      0             -2604.3689      6.9742869    
    374600   610.17492     -2671.5726      0             -2598.8532     -3.1439362    
    374800   611.80928     -2669.0683      0             -2596.1541     -1.38091      
    375000   604.02768     -2672.5988      0             -2600.6121     -2.1183306    
    375200   615.22527     -2674.3021      0             -2600.9808      7.111674     
    375400   579.35794     -2667.2326      0             -2598.186       1.2055749    
    375600   636.7345      -2672.6288      0             -2596.7441     -0.12802024   
    375800   606.49023     -2673.7589      0             -2601.4787     -6.6158089    
    376000   599.46471     -2671.7047      0             -2600.2618      1.6807979    
    376200   592.69018     -2669.2299      0             -2598.5944     -2.4491153    
    376400   615.81989     -2670.0963      0             -2596.7042     -0.62534938   
    376600   582.68017     -2671.1724      0             -2601.7298     -2.0416721    
    376800   592.58582     -2671.0624      0             -2600.4392      2.3086721    
    377000   605.44673     -2667.9289      0             -2595.773       0.50651536   
    377200   595.38251     -2671.3254      0             -2600.369      -0.52238926   
    377400   596.52118     -2674.9527      0             -2603.8606     -3.5563541    
    377600   615.90258     -2669.5738      0             -2596.1719     -3.1376908    
    377800   597.14706     -2667.0154      0             -2595.8487     -3.5372485    
    378000   574.09641     -2671.7355      0             -2603.3159      1.5814471    
    378200   599.2705      -2671.8254      0             -2600.4056     -2.6437232    
    378400   609.5052      -2666.8718      0             -2594.2323      3.3710864    
    378600   607.38271     -2671.4132      0             -2599.0266     -1.1663782    
    378800   583.04762     -2672.522       0             -2603.0356      4.7922622    
    379000   597.83554     -2667.3204      0             -2596.0716     -5.9327038    
    379200   638.08632     -2671.0089      0             -2594.9631      3.7557164    
    379400   568.62336     -2672.8304      0             -2605.0631      0.31315332   
    379600   612.76288     -2671.6973      0             -2598.6695      3.9069979    
    379800   629.35306     -2666.4676      0             -2591.4627     -3.5710818    
    380000   593.59713     -2671.6815      0             -2600.9378      5.597337     
    380200   569.65189     -2671.4725      0             -2603.5826     -2.316282     
    380400   601.67641     -2663.3234      0             -2591.6169      1.3124128    
    380600   582.62121     -2665.6861      0             -2596.2506     -2.107308     
    380800   585.30807     -2672.7854      0             -2603.0296      3.5480488    
    381000   590.27135     -2666.8293      0             -2596.4821      0.22356971   
    381200   633.08823     -2665.9453      0             -2590.4952      2.6860559    
    381400   570.26366     -2670.3842      0             -2602.4214     -3.223928     
    381600   604.58188     -2671.9251      0             -2599.8724      7.2404064    
    381800   613.68246     -2664.9865      0             -2591.8491     -6.6733576    
    382000   612.85784     -2671.0104      0             -2597.9714      3.485469     
    382200   583.8254      -2671.7257      0             -2602.1466     -6.7501482    
    382400   616.61935     -2665.7044      0             -2592.2171      9.2479188    
    382600   578.69865     -2666.4936      0             -2597.5255     -6.6376171    
    382800   596.93344     -2671.3953      0             -2600.254       8.5828976    
    383000   599.84778     -2668.794       0             -2597.3055     -10.730912    
    383200   615.11692     -2667.1714      0             -2593.8631      9.4058934    
    383400   572.71572     -2669.5087      0             -2601.2537     -8.0787765    
    383600   601.08732     -2670.3894      0             -2598.7532      11.553242    
    383800   601.33977     -2668.6316      0             -2596.9652     -12.358333    
    384000   619.39143     -2668.7222      0             -2594.9045      8.0512804    
    384200   578.23159     -2669.649       0             -2600.7366     -8.4343406    
    384400   611.92531     -2670.0328      0             -2597.1049      9.6098754    
    384600   598.78777     -2668.767       0             -2597.4047     -13.151408    
    384800   602.77926     -2668.6112      0             -2596.7732      5.5940768    
    385000   574.31395     -2669.3305      0             -2600.885      -6.6845584    
    385200   621.15939     -2671.2311      0             -2597.2026      5.4819381    
    385400   597.25108     -2670.0562      0             -2598.8771     -6.5613936    
    385600   599.55        -2668.0407      0             -2596.5876      6.6179124    
    385800   624.0557      -2672.8835      0             -2598.5099     -7.889882     
    386000   610.9519      -2670.1753      0             -2597.3634      9.9778569    
    386200   594.67265     -2667.993       0             -2597.1212     -9.5561012    
    386400   603.88371     -2668.5356      0             -2596.5661      6.7252406    
    386600   591.50322     -2669.8747      0             -2599.3806     -7.4456099    
    386800   611.65671     -2670.995       0             -2598.099       6.4549669    
    387000   576.66763     -2668.1573      0             -2599.4312     -7.60456      
    387200   621.54124     -2669.977       0             -2595.9031      5.8819464    
    387400   589.89846     -2667.5222      0             -2597.2193     -5.8025819    
    387600   598.26242     -2670.3689      0             -2599.0693      6.2278306    
    387800   616.23271     -2672.0694      0             -2598.6281     -2.936835     
    388000   605.23468     -2668.6532      0             -2596.5227      1.0594851    
    388200   620.42891     -2671.9934      0             -2598.052      -4.1154077    
    388400   605.61716     -2671.7062      0             -2599.53        2.9427087    
    388600   600.48692     -2667.9342      0             -2596.3694     -1.2649315    
    388800   607.20643     -2668.3991      0             -2596.0336      4.2338726    
    389000   577.02638     -2669.4472      0             -2600.6784      2.0922703    
    389200   610.44076     -2670.7956      0             -2598.0446      1.7072793    
    389400   616.06657     -2667.4377      0             -2594.0162     -7.5170749    
    389600   611.30456     -2669.3007      0             -2596.4468      4.171694     
    389800   571.33816     -2671.8127      0             -2603.7219     -2.4897459    
    390000   608.94285     -2668.6227      0             -2596.0502      7.7828811    
    390200   615.77056     -2668.3222      0             -2594.936      -5.1074309    
    390400   586.14422     -2673.2885      0             -2603.4331      0.34782143   
    390600   594.88178     -2672.7175      0             -2601.8208     -7.3528554    
    390800   623.81447     -2665.2986      0             -2590.9537     -1.0160192    
    391000   580.51678     -2667.5138      0             -2598.329      -0.9334587    
    391200   567.76547     -2672.8793      0             -2605.2142      1.8235931    
    391400   626.68988     -2669.493       0             -2594.8054     -2.696446     
    391600   594.41781     -2668.0135      0             -2597.172      -4.3634805    
    391800   612.39686     -2675.1999      0             -2602.2158     -1.9927076    
    392000   615.07169     -2672.988       0             -2599.6851      1.5024027    
    392200   606.93915     -2668.76        0             -2596.4262      1.1397271    
    392400   574.99426     -2666.9947      0             -2598.4681     -4.0496324    
    392600   598.30966     -2668.7767      0             -2597.4715      5.9810081    
    392800   589.18191     -2669.2913      0             -2599.0739     -4.178677     
    393000   614.52263     -2670.7665      0             -2597.529       2.2323524    
    393200   603.65271     -2669.5156      0             -2597.5736     -0.89102874   
    393400   588.86479     -2667.0945      0             -2596.9149      4.0791403    
    393600   622.30908     -2671.3795      0             -2597.214      -1.045768     
    393800   592.97019     -2670.3434      0             -2599.6745      0.87735399   
    394000   599.98341     -2670.8392      0             -2599.3345     -1.1134085    
    394200   612.40329     -2670.487       0             -2597.5021     -2.3063425    
    394400   618.38072     -2670.9177      0             -2597.2204     -2.7594475    
    394600   618.28764     -2673.7017      0             -2600.0155     -4.8655359    
    394800   614.24671     -2671.7981      0             -2598.5935     -0.0074524058 
    395000   588.35744     -2669.0168      0             -2598.8976     -7.5082521    
    395200   608.73382     -2669.9134      0             -2597.3658      6.6083158    
    395400   580.1248      -2669.3571      0             -2600.219      -5.2376002    
    395600   594.82645     -2668.5212      0             -2597.6311      0.76374544   
    395800   594.40336     -2667.742       0             -2596.9023     -5.7398997    
    396000   593.22585     -2670.7465      0             -2600.0471      5.4485982    
    396200   605.64173     -2673.7575      0             -2601.5785     -5.2375529    
    396400   609.24316     -2670.4937      0             -2597.8854     -3.0238816    
    396600   601.6314      -2668.3771      0             -2596.676       0.59149675   
    396800   587.17248     -2670.1663      0             -2600.1884      2.8538664    
    397000   594.17239     -2671.1637      0             -2600.3515     -0.006229653  
    397200   608.24418     -2668.7118      0             -2596.2225      0.16917687   
    397400   610.08807     -2670.1671      0             -2597.4581     -2.4288985    
    397600   560.48828     -2669.6616      0             -2602.8638      4.5303568    
    397800   600.86626     -2669.2565      0             -2597.6466     -1.1254433    
    398000   616.91491     -2665.7242      0             -2592.2016     -3.2454958    
    398200   591.71235     -2671.0466      0             -2600.5276      0.33077047   
    398400   592.77874     -2670.7967      0             -2600.1506      5.471073     
    398600   597.21142     -2665.1584      0             -2593.984      -0.3793337    
    398800   603.21193     -2666.8082      0             -2594.9187     -0.78389351   
    399000   592.97076     -2674.1201      0             -2603.4511     -5.4644472    
    399200   599.3135      -2670.3482      0             -2598.9233      6.3131249    
    399400   633.10069     -2666.535       0             -2591.0834     -7.8016559    
    399600   593.11097     -2671.6735      0             -2600.9879      3.2427753    
    399800   572.94927     -2674.684       0             -2606.4011     -1.5768296    
    400000   623.61698     -2665.4258      0             -2591.1045      0.96246251   
    400200   576.38636     -2664.2676      0             -2595.5752     -3.1664933    
    400400   590.36919     -2676.177       0             -2605.8181      9.2464092    
    400600   598.97312     -2671.9016      0             -2600.5173     -0.090639766  
    400800   632.18695     -2666.6291      0             -2591.2864     -0.88659183   
    401000   590.4198      -2671.4654      0             -2601.1005     -5.6415738    
    401200   593.60508     -2675.2784      0             -2604.5338      5.3909554    
    401400   593.30234     -2667.089       0             -2596.3805      0.62328036   
    401600   634.11107     -2669.7054      0             -2594.1334      2.642998     
    401800   578.06642     -2674.3388      0             -2605.4461      1.7086958    
    402000   618.56133     -2672.3523      0             -2598.6335      4.3801147    
    402200   625.9345      -2668.1213      0             -2593.5237     -10.216361    
    402400   587.2791      -2673.1151      0             -2603.1245      4.6333825    
    402600   563.40513     -2670.9114      0             -2603.766      -4.4446971    
    402800   620.60851     -2664.0659      0             -2590.1032      5.1089819    
    403000   616.21014     -2671.9618      0             -2598.5232     -9.0783318    
    403200   564.85946     -2674.371       0             -2607.0523      10.398473    
    403400   580.28118     -2666.0329      0             -2596.8762     -5.3918525    
    403600   625.11042     -2666.2609      0             -2591.7616      4.8240065    
    403800   558.95508     -2673.0127      0             -2606.3976     -5.2753758    
    404000   613.42539     -2673.4554      0             -2600.3487      4.1306923    
    404200   633.18712     -2668.1283      0             -2592.6664     -5.1346909    
    404400   584.49991     -2671.7495      0             -2602.0901      2.1362814    
    404600   581.53723     -2674.362       0             -2605.0557      0.019626489  
    404800   602.23131     -2666.4718      0             -2594.6992      1.4626647    
    405000   594.66041     -2667.1154      0             -2596.2451      2.0850283    
    405200   582.41853     -2673.2642      0             -2603.8528      6.2721005    
    405400   617.59537     -2671.8239      0             -2598.2202      1.7832165    
    405600   630.36203     -2667.362       0             -2592.2368     -5.9897269    
    405800   592.40622     -2672.5078      0             -2601.9061      2.644896     
    406000   576.31313     -2672.8709      0             -2604.1871     -0.079200203  
    406200   637.82146     -2670.1836      0             -2594.1694     -1.0495865    
    406400   613.01103     -2669.7184      0             -2596.6611     -1.6532336    
    406600   586.81536     -2674.5244      0             -2604.589       2.6756313    
    406800   597.86537     -2669.4334      0             -2598.1811      1.6909206    
    407000   628.83829     -2667.7293      0             -2592.7857      0.25877256   
    407200   565.94998     -2671.687       0             -2604.2383      2.7646036    
    407400   572.34082     -2670.031       0             -2601.8207      3.885872     
    407600   630.97079     -2668.6813      0             -2593.4836     -8.2912563    
    407800   604.28524     -2669.1563      0             -2597.1389      0.47348673   
    408000   586.53455     -2674.7427      0             -2604.8408     -5.4929889    
    408200   596.26128     -2669.3349      0             -2598.2737      1.9070593    
    408400   620.59994     -2667.3561      0             -2593.3943     -4.6135175    
    408600   602.06467     -2673.2476      0             -2601.4948      4.3186396    
    408800   599.70381     -2672.6145      0             -2601.1431     -1.9878651    
    409000   626.09095     -2668.5484      0             -2593.9322     -1.041985     
    409200   614.59367     -2671.1157      0             -2597.8697     -1.6070317    
    409400   601.69535     -2672.9106      0             -2601.2018     -3.7867488    
    409600   618.04912     -2670.2317      0             -2596.5739     -0.68906354   
    409800   620.57994     -2669.9917      0             -2596.0324      0.47760826   
    410000   613.24872     -2673.7808      0             -2600.6951     -3.6936637    
    410200   591.26504     -2670.941       0             -2600.4753      1.2640058    
    410400   602.51276     -2665.4018      0             -2593.5956     -6.6508276    
    410600   607.71996     -2666.533       0             -2594.1062      0.35386833   
    410800   565.98568     -2671.8722      0             -2604.4192     -3.2291657    
    411000   605.30914     -2667.0742      0             -2594.9348      5.306848     
    411200   605.08191     -2665.2883      0             -2593.1759     -6.1162697    
    411400   599.43577     -2673.7703      0             -2602.3308      5.3589687    
    411600   593.03351     -2673.2383      0             -2602.5618     -7.2236969    
    411800   634.82923     -2666.3476      0             -2590.69        8.271945     
    412000   579.28268     -2668.2837      0             -2599.246      -7.7324565    
    412200   593.8011      -2674.8854      0             -2604.1175      7.181381     
    412400   606.26004     -2668.2184      0             -2595.9657     -7.671087     
    412600   632.97359     -2665.7341      0             -2590.2977      5.3731562    
    412800   575.48665     -2671.9579      0             -2603.3727     -5.245049     
    413000   563.90763     -2668.4814      0             -2601.2761      9.3932464    
    413200   625.26982     -2664.9251      0             -2590.4068     -8.1578569    
    413400   602.19046     -2668.3647      0             -2596.5969      5.4368724    
    413600   564.34344     -2670.3797      0             -2603.1224     -4.0304276    
    413800   597.1401      -2664.8013      0             -2593.6354      7.6524278    
    414000   608.80092     -2666.5344      0             -2593.9788     -5.086142     
    414200   588.76508     -2671.6819      0             -2601.5141      8.1253913    
    414400   561.30997     -2667.213       0             -2600.3173     -4.0615745    
    414600   613.63909     -2663.3328      0             -2590.2007      6.4884343    
    414800   582.72331     -2669.5158      0             -2600.0681     -4.8889906    
    415000   595.17543     -2674.9032      0             -2603.9715      2.9548385    
    415200   609.09949     -2667.0856      0             -2594.4944     -7.0332598    
    415400   645.65001     -2669.8515      0             -2592.9043      2.63056      
    415600   602.60061     -2675.1489      0             -2603.3322     -0.67741814   
    415800   608.99151     -2669.6676      0             -2597.0893      7.1470443    
    416000   579.29945     -2663.5153      0             -2594.4757     -4.6381131    
    416200   598.8367      -2672.4929      0             -2601.1248      3.125235     
    416400   584.76431     -2670.4954      0             -2600.8045     -1.8558987    
    416600   621.28386     -2667.678       0             -2593.6347      6.6943274    
    416800   582.13863     -2670.8896      0             -2601.5116     -3.4633838    
    417000   581.81906     -2671.6848      0             -2602.3449      7.7980671    
    417200   611.47307     -2668.6735      0             -2595.7995     -5.8705149    
    417400   611.30025     -2671.0298      0             -2598.1763      1.4575546    
    417600   581.84282     -2672.6226      0             -2603.2798     -6.6461202    
    417800   598.02795     -2669.676       0             -2598.4044      1.7210412    
    418000   616.66134     -2667.5704      0             -2594.078       0.093861343  
    418200   579.37688     -2670.3932      0             -2601.3443      5.2976953    
    418400   582.80744     -2673.0575      0             -2603.5998     -1.03885      
    418600   598.721       -2666.0806      0             -2594.7263      3.4706137    
    418800   587.16306     -2666.1554      0             -2596.1785     -0.37844765   
    419000   583.96513     -2673.0207      0             -2603.425      -0.46956077   
    419200   632.08237     -2672.7621      0             -2597.4319     -0.15317851   
    419400   609.70793     -2665.3848      0             -2592.7211     -3.0975726    
    419600   575.95739     -2670.4222      0             -2601.7808      1.1375892    
    419800   594.51828     -2671.2672      0             -2600.4138      0.55079253   
    420000   628.78578     -2667.4828      0             -2592.5454     -3.6269331    
    420200   623.27812     -2671.5799      0             -2597.299      -1.5319795    
    420400   594.44693     -2672.1092      0             -2601.2643      1.992219     
    420600   600.16803     -2669.2574      0             -2597.7306      1.6690918    
    420800   598.06878     -2668.4819      0             -2597.2054     -3.591674     
    421000   596.34826     -2669.8402      0             -2598.7687      0.35101474   
    421200   608.59725     -2670.846       0             -2598.3147     -1.4560798    
    421400   582.42115     -2668.6475      0             -2599.2357      1.2738587    
    421600   613.18307     -2666.6673      0             -2593.5894     -1.6209862    
    421800   598.03334     -2667.0957      0             -2595.8233      3.4271281    
    422000   569.42061     -2668.2594      0             -2600.3971     -2.8074983    
    422200   606.221       -2670.6023      0             -2598.3541      2.3886318    
    422400   597.05787     -2668.5985      0             -2597.4424     -3.8624783    
    422600   611.27177     -2670.5016      0             -2597.6515      5.4294925    
    422800   585.79032     -2668.6178      0             -2598.8045     -4.8557474    
    423000   604.74431     -2668.6394      0             -2596.5672      5.7334481    
    423200   607.56105     -2671.9291      0             -2599.5212     -6.5926095    
    423400   622.6631      -2670.2711      0             -2596.0635      1.5236325    
    423600   589.58169     -2666.7523      0             -2596.4872      1.6378917    
    423800   584.18215     -2667.8098      0             -2598.1882      7.1510629    
    424000   599.42105     -2670.3973      0             -2598.9596     -1.2295949    
    424200   600.82943     -2669.277       0             -2597.6715      0.98292589   
    424400   600.74007     -2671.1644      0             -2599.5695     -0.96873671   
    424600   607.08686     -2671.5478      0             -2599.1965      3.5433273    
    424800   615.85916     -2671.4897      0             -2598.0929     -8.8563179    
    425000   595.99242     -2668.7673      0             -2597.7382      6.8893618    
    425200   588.76444     -2670.6638      0             -2600.4961     -5.0690383    
    425400   604.92761     -2670.9002      0             -2598.8062      2.293436     
    425600   588.425       -2668.0863      0             -2597.9591     -1.3657595    
    425800   611.44897     -2671.3209      0             -2598.4497      3.8208423    
    426000   589.38486     -2672.6828      0             -2602.4412     -3.5181685    
    426200   599.29551     -2669.4775      0             -2598.0547      5.9442553    
    426400   617.66894     -2669.1904      0             -2595.5779     -5.257588     
    426600   606.01013     -2673.2311      0             -2601.0081     -0.040654073  
    426800   586.78261     -2670.6382      0             -2600.7067     -8.5653951    
    427000   627.0403      -2670.7199      0             -2595.9906      5.2798406    
    427200   612.92181     -2673.2722      0             -2600.2255     -3.7382837    
    427400   597.98404     -2671.0638      0             -2599.7974      3.8725583    
    427600   601.03615     -2670.1131      0             -2598.4829      3.9040017    
    427800   616.74486     -2674.2975      0             -2600.7952     -3.7228997    
    428000   618.46781     -2673.0407      0             -2599.3331      0.43134691   
    428200   611.74661     -2671.7878      0             -2598.8811     -3.216582     
    428400   571.34582     -2670.2357      0             -2602.144       3.2204269    
    428600   579.68183     -2667.0555      0             -2597.9703     -2.0711171    
    428800   620.7469      -2668.6708      0             -2594.6915     -0.17546868   
    429000   588.45658     -2672.54        0             -2602.409      -2.4680209    
    429200   609.02004     -2672.7549      0             -2600.1732      0.65856691   
    429400   614.57977     -2668.9406      0             -2595.6964     -3.3799261    
    429600   591.3352      -2669.4939      0             -2599.0199      6.7276598    
    429800   600.57901     -2673.2708      0             -2601.6951     -1.8603228    
    430000   611.11788     -2669.2163      0             -2596.3846     -0.34981601   
    430200   582.19374     -2668.5214      0             -2599.1368     -0.370918     
    430400   566.54849     -2668.6596      0             -2601.1395     -0.64660978   
    430600   599.05656     -2669.4335      0             -2598.0393      1.7819945    
    430800   615.91921     -2670.3001      0             -2596.8962     -6.5970396    
    431000   578.62104     -2668.1871      0             -2599.2283      2.0002463    
    431200   582.35875     -2668.9121      0             -2599.5078     -1.7334326    
    431400   620.50466     -2670.2938      0             -2596.3434      2.3881145    
    431600   595.60926     -2670.301       0             -2599.3176     -0.78821924   
    431800   607.23775     -2673.2477      0             -2600.8784      4.358656     
    432000   586.71363     -2668.0246      0             -2598.1013     -3.4374953    
    432200   630.29175     -2669.9779      0             -2594.8611      0.75703891   
    432400   591.12653     -2670.9004      0             -2600.4512     -3.1160942    
    432600   605.30723     -2672.3964      0             -2600.2572      8.6281587    
    432800   582.37839     -2665.6785      0             -2596.2719     -8.8515258    
    433000   615.60144     -2667.4502      0             -2594.0841      5.3340041    
    433200   569.65582     -2670.6094      0             -2602.719      -4.7187117    
    433400   593.27947     -2668.0632      0             -2597.3574      6.649422     
    433600   597.59531     -2665.3077      0             -2594.0875     -11.821818    
    433800   582.18037     -2670.2482      0             -2600.8652      6.2235217    
    434000   568.71379     -2670.4456      0             -2602.6676     -5.480027     
    434200   618.02466     -2665.6336      0             -2591.9787      9.5222692    
    434400   592.67133     -2669.6804      0             -2599.0471     -4.2115408    
    434600   575.19884     -2671.6115      0             -2603.0605      3.4343875    
    434800   624.36371     -2671.5349      0             -2597.1246      0.14649259   
    435000   619.1586      -2669.0503      0             -2595.2603     -4.229028     
    435200   581.4481      -2669.1035      0             -2599.8077      1.7176146    
    435400   586.1264      -2669.1887      0             -2599.3354     -6.8128018    
    435600   629.16758     -2669.2108      0             -2594.228       1.737314     
    435800   569.19375     -2668.4966      0             -2600.6613     -3.7393342    
    436000   598.02083     -2670.7514      0             -2599.4806      5.0010376    
    436200   606.90123     -2668.1891      0             -2595.8599     -7.7983297    
    436400   583.62542     -2668.703       0             -2599.1478      7.6916818    
    436600   550.13284     -2668.9174      0             -2603.3538      0.61526573   
    436800   639.4708      -2670.1252      0             -2593.9144     -0.4421617    
    437000   606.62289     -2669.6294      0             -2597.3334     -9.122134     
    437200   577.23415     -2672.6495      0             -2603.856       2.3505772    
    437400   584.68214     -2667.4932      0             -2597.812       1.1345737    
    437600   624.38607     -2668.5856      0             -2594.1726      3.6589025    
    437800   583.834       -2671.2803      0             -2601.7003     -0.14954442   
    438000   602.38325     -2671.6787      0             -2599.8879      4.9984414    
    438200   589.12424     -2666.1159      0             -2595.9053     -3.9026874    
    438400   633.83167     -2673.6259      0             -2598.0872      2.1263665    
    438600   556.72788     -2670.9688      0             -2604.6192     -3.1104633    
    438800   608.21156     -2666.9677      0             -2594.4823      2.9307532    
    439000   619.20986     -2669.3134      0             -2595.5172     -16.217574    
    439200   601.07065     -2675.1764      0             -2603.5421      6.9631005    
    439400   597.05582     -2671.9236      0             -2600.7678     -8.3701041    
    439600   635.82867     -2665.3887      0             -2589.6121      1.4877888    
    439800   584.7109      -2670.4944      0             -2600.8098     -4.6931214    
    440000   604.19785     -2672.9587      0             -2600.9517      6.0891832    
    440200   613.35249     -2667.8293      0             -2594.7312     -4.2167004    
    440400   603.05822     -2667.3238      0             -2595.4526      1.457737     
    440600   581.34514     -2671.1673      0             -2601.8839     -0.95011352   
    440800   603.7823      -2667.6227      0             -2595.6652      1.8078391    
    441000   607.13336     -2666.0966      0             -2593.7398     -4.9611676    
    441200   606.12723     -2672.4514      0             -2600.2144      5.0259018    
    441400   583.747       -2669.8674      0             -2600.2977     -1.418851     
    441600   613.97712     -2666.3187      0             -2593.1462     -2.6573007    
    441800   584.82552     -2667.2421      0             -2597.5438     -0.049219634  
    442000   599.13776     -2671.1942      0             -2599.7903     -0.18107949   
    442200   591.04268     -2665.5475      0             -2595.1083      3.1538997    
    442400   615.3919      -2667.8652      0             -2594.5241     -3.8469606    
    442600   589.55957     -2668.6346      0             -2598.3721      0.20564188   
    442800   577.28156     -2666.3462      0             -2597.547      -2.7422234    
    443000   612.11236     -2665.6013      0             -2592.6511      1.7694974    
    443200   589.00589     -2668.1326      0             -2597.9362     -3.7371276    
    443400   611.27475     -2670.7197      0             -2597.8693      1.2339889    
    443600   614.48435     -2670.0728      0             -2596.8399     -2.9787037    
    443800   591.54898     -2664.9883      0             -2594.4888      7.8739647    
    444000   612.40649     -2669.3784      0             -2596.3931     -7.6349464    
    444200   611.71528     -2671.166       0             -2598.2631      7.0082655    
    444400   590.69033     -2670.5791      0             -2600.1819     -2.717067     
    444600   626.37452     -2670.7708      0             -2596.1208      4.113772     
    444800   587.51954     -2667.8941      0             -2597.8747     -2.3513461    
    445000   587.93399     -2667.0074      0             -2596.9387      1.3003606    
    445200   603.8504      -2670.098       0             -2598.1324     -4.9779287    
    445400   600.74201     -2670.6755      0             -2599.0804      3.7744461    
    445600   607.04828     -2670.0063      0             -2597.6596      0.92207135   
    445800   616.39607     -2669.2644      0             -2595.8036      0.51413197   
    446000   585.33513     -2669.4266      0             -2599.6676      1.1258657    
    446200   611.11744     -2671.5321      0             -2598.7005     -4.7589606    
    446400   601.97012     -2668.9465      0             -2597.205      -2.1028129    
    446600   606.31075     -2669.5595      0             -2597.3007      0.35765743   
    446800   585.57465     -2667.962       0             -2598.1745     -2.810125     
    447000   612.0456      -2670.8506      0             -2597.9083     -0.81150178   
    447200   599.94219     -2673.3437      0             -2601.8439     -4.5952906    
    447400   599.42219     -2669.8806      0             -2598.4427      6.0909269    
    447600   593.27224     -2666.6941      0             -2595.9892     -4.1345655    
    447800   594.61257     -2672.6088      0             -2601.7441      7.2550863    
    448000   604.90994     -2674.0486      0             -2601.9568     -6.7168447    
    448200   616.86457     -2669.0134      0             -2595.4968      2.6415184    
    448400   602.86541     -2670.8458      0             -2598.9976     -2.616069     
    448600   571.9908      -2671.7023      0             -2603.5336      0.49735255   
    448800   571.30521     -2667.5257      0             -2599.4387     -0.31299608   
    449000   622.77122     -2669.0413      0             -2594.8208     -5.9652157    
    449200   604.43336     -2674.2373      0             -2602.2023      2.6603227    
    449400   578.68308     -2670.0782      0             -2601.112       5.1435764    
    449600   614.53383     -2667.8609      0             -2594.6221     -3.5387429    
    449800   596.1218      -2671.2196      0             -2600.175       1.3800582    
    450000   591.46075     -2671.488       0             -2600.999      -1.2275449    
    450200   599.5749      -2665.425       0             -2593.9689     -0.32799512   
    450400   615.15559     -2669.2859      0             -2595.973      -0.13130615   
    450600   583.73152     -2673.869       0             -2604.3012     -0.87052327   
    450800   637.18447     -2671.3849      0             -2595.4466      4.7768935    
    451000   631.63132     -2668.7191      0             -2593.4426     -7.2357762    
    451200   587.88471     -2671.8915      0             -2601.8286      4.8594939    
    451400   602.42157     -2672.4063      0             -2600.611      -1.2353444    
    451600   611.16314     -2665.4822      0             -2592.6451      0.21025623   
    451800   600.79875     -2666.421       0             -2594.8191      0.0089317343 
    452000   587.85482     -2672.2931      0             -2602.2339     -2.1446149    
    452200   600.53008     -2668.173       0             -2596.6031      5.4383799    
    452400   609.31294     -2663.6561      0             -2591.0395     -7.1709857    
    452600   578.05054     -2669.9951      0             -2601.1043      4.2519618    
    452800   594.70696     -2672.8251      0             -2601.9492     -0.76078569   
    453000   633.94246     -2668.0505      0             -2592.4986      3.4994611    
    453200   592.82547     -2668.0041      0             -2597.3524     -5.1652706    
    453400   578.0669      -2671.1861      0             -2602.2933      3.0365515    
    453600   615.12002     -2669.0272      0             -2595.7185     -5.5707602    
    453800   638.5789      -2670.9563      0             -2594.8518     -0.303975     
    454000   606.94772     -2674.0886      0             -2601.7538     -7.0839339    
    454200   602.26523     -2670.3299      0             -2598.5533      4.0634303    
    454400   610.01292     -2666.7095      0             -2594.0095     -10.895929    
    454600   590.10463     -2670.6082      0             -2600.2808      4.7485731    
    454800   547.49295     -2670.9827      0             -2605.7337     -6.1762533    
    455000   611.60905     -2665.2936      0             -2592.4033      3.7738193    
    455200   613.0058      -2668.0244      0             -2594.9677     -3.4673034    
    455400   573.05065     -2674.3516      0             -2606.0567      3.6000723    
    455600   574.3518      -2668.2211      0             -2599.7711      0.8176201    
    455800   625.11644     -2665.7477      0             -2591.2477     -2.2726499    
    456000   594.72509     -2670.7753      0             -2599.8972     -0.83920866   
    456200   582.69357     -2674.5597      0             -2605.1156      3.5495037    
    456400   588.16447     -2665.4879      0             -2595.3918     -1.1462913    
    456600   616.01408     -2667.4924      0             -2594.0772      1.481279     
    456800   596.15403     -2675.1297      0             -2604.0814     -5.0701519    
    457000   578.0466      -2669.0534      0             -2600.163       3.0936149    
    457200   624.523       -2667.6471      0             -2593.2178     -0.65977133   
    457400   576.21458     -2668.2136      0             -2599.5416      3.9124744    
    457600   588.92483     -2672.0381      0             -2601.8513      3.9194       
    457800   624.06681     -2669.3912      0             -2595.0162     -7.4737954    
    458000   609.30494     -2668.1727      0             -2595.557       1.8008943    
    458200   584.3794      -2673.109       0             -2603.4639     -0.66666813   
    458400   601.10994     -2669.3535      0             -2597.7145      4.2390547    
    458600   620.1976      -2666.3282      0             -2592.4143     -0.76250684   
    458800   583.28204     -2671.1168      0             -2601.6025      4.5274274    
    459000   571.22765     -2669.8681      0             -2601.7904      2.8287293    
    459200   605.30153     -2665.3225      0             -2593.184       2.7523432    
    459400   583.86248     -2667.9906      0             -2598.4071     -6.6333956    
    459600   594.72152     -2671.8767      0             -2600.9991      2.5919755    
    459800   606.05606     -2666.1321      0             -2593.9037     -5.0733391    
    460000   611.21006     -2667.6872      0             -2594.8445      3.8107234    
    460200   580.98274     -2671.3847      0             -2602.1444      0.27583343   
    460400   616.83688     -2670.5481      0             -2597.0348      1.5951967    
    460600   580.89987     -2664.1484      0             -2594.918       0.85141892   
    460800   606.27243     -2670.0058      0             -2597.7516     -0.93272025   
    461000   593.32059     -2670.676       0             -2599.9653     -0.15094283   
    461200   595.47387     -2671.8193      0             -2600.852       1.3671972    
    461400   615.09384     -2669.7807      0             -2596.4752     -0.89678559   
    461600   588.73705     -2667.6773      0             -2597.5129     -0.48025869   
    461800   592.92857     -2671.8276      0             -2601.1637      4.4560717    
    462000   606.05064     -2672.6695      0             -2600.4417     -0.82145677   
    462200   594.81254     -2666.6746      0             -2595.7861      4.9211312    
    462400   605.82695     -2671.9447      0             -2599.7435     -5.1085024    
    462600   609.84406     -2675.5854      0             -2602.9055      2.5832222    
    462800   606.69409     -2670.9437      0             -2598.6392     -6.6854864    
    463000   612.39328     -2668.8482      0             -2595.8644     -2.5000999    
    463200   610.38836     -2674.3881      0             -2601.6433     -4.8746156    
    463400   599.95982     -2673.7189      0             -2602.217       0.23285769   
    463600   601.86809     -2668.6369      0             -2596.9076     -0.091809649  
    463800   595.05497     -2667.3637      0             -2596.4463      4.2046434    
    464000   587.53752     -2673.2351      0             -2603.2136     -1.1793197    
    464200   622.27014     -2671.6617      0             -2597.5008      0.072662159  
    464400   628.49203     -2672.4094      0             -2597.5071     -1.9805889    
    464600   615.90295     -2673.0437      0             -2599.6417      1.057917     
    464800   586.96484     -2669.9645      0             -2600.0113     -3.8018751    
    465000   618.99859     -2669.3241      0             -2595.5532      4.1873367    
    465200   590.96882     -2669.8221      0             -2599.3917     -0.54787909   
    465400   586.11557     -2672.6246      0             -2602.7726      2.7440081    
    465600   609.15541     -2670.338       0             -2597.7401      1.0666835    
    465800   606.76689     -2669.1454      0             -2596.8322      1.0326084    
    466000   588.98623     -2670.6653      0             -2600.4712      2.6884046    
    466200   586.86231     -2669.0456      0             -2599.1046      3.1565424    
    466400   592.13282     -2669.4182      0             -2598.849       2.6429231    
    466600   597.11308     -2669.2306      0             -2598.068      -6.8471596    
    466800   632.03333     -2673.5948      0             -2598.2705      0.50779484   
    467000   559.7464      -2669.6935      0             -2602.9841     -4.4918321    
    467200   599.67648     -2670.7717      0             -2599.3035      1.4563814    
    467400   598.25035     -2668.7009      0             -2597.4027     -3.0537833    
    467600   592.61529     -2671.8128      0             -2601.1862      5.8785593    
    467800   583.29143     -2673.3863      0             -2603.8709     -6.1255868    
    468000   603.08686     -2669.3736      0             -2597.499       8.893045     
    468200   596.34878     -2671.3316      0             -2600.2601     -7.1196327    
    468400   589.81644     -2673.8769      0             -2603.5838      5.8132717    
    468600   619.287       -2674.4201      0             -2600.6148     -3.6828062    
    468800   613.08133     -2670.9139      0             -2597.8482      1.955476     
    469000   567.39941     -2671.182       0             -2603.5605     -0.55187584   
    469200   614.83822     -2673.932       0             -2600.6569      7.6083809    
    469400   600.65054     -2671.5434      0             -2599.9592     -3.3911642    
    469600   632.23131     -2673.9415      0             -2598.5935      4.5627155    
    469800   598.26932     -2673.1819      0             -2601.8814     -4.5970107    
    470000   589.00266     -2672.8934      0             -2602.6974      5.2970287    
    470200   582.45758     -2669.1138      0             -2599.6977     -6.0604926    
    470400   598.74025     -2671.3084      0             -2599.9518      4.7744014    
    470600   599.64648     -2673.7492      0             -2602.2846      0.32820745   
    470800   606.43534     -2672.6221      0             -2600.3484      1.5294586    
    471000   581.88067     -2670.8454      0             -2601.4981     -1.5715023    
    471200   602.97137     -2673.1687      0             -2601.3078      0.35993142   
    471400   597.15655     -2671.4725      0             -2600.3047     -0.18557797   
    471600   601.80593     -2672.2996      0             -2600.5776      5.9790674    
    471800   601.0166      -2672.9734      0             -2601.3455      0.81137947   
    472000   596.20418     -2672.1587      0             -2601.1044      4.48671      
    472200   577.04988     -2669.1351      0             -2600.3636      2.5937247    
    472400   623.53729     -2672.8287      0             -2598.5169     -2.3654272    
    472600   593.49438     -2671.9801      0             -2601.2487     -0.11101616   
    472800   614.2737      -2673.9832      0             -2600.7754     -2.811131     
    473000   614.46786     -2670.4334      0             -2597.2025      2.4817945    
    473200   590.18508     -2670.398       0             -2600.061       0.0084519464 
    473400   584.1275      -2671.388       0             -2601.773       5.603257     
    473600   622.75923     -2671.001       0             -2596.7819     -5.3579251    
    473800   627.13785     -2672.561       0             -2597.82       -2.079516     
    474000   595.80848     -2673.2167      0             -2602.2095      1.1621035    
    474200   621.01264     -2671.8165      0             -2597.8056     -2.9745967    
    474400   621.06262     -2672.2465      0             -2598.2296      1.6469745    
    474600   583.79147     -2673.0304      0             -2603.4554      2.2809602    
    474800   603.41273     -2670           0             -2598.0866      1.1910439    
    475000   588.84666     -2667.1178      0             -2596.9403      1.3355052    
    475200   594.10962     -2671.8654      0             -2601.0607      3.375643     
    475400   598.3411      -2670.2072      0             -2598.8982      4.7477956    
    475600   603.8531      -2670.488       0             -2598.522      -8.4801235    
    475800   592.80372     -2670.6844      0             -2600.0354      5.076474     
    476000   598.60427     -2672.9629      0             -2601.6226     -3.8018383    
    476200   579.63896     -2668.044       0             -2598.9639      2.1946777    
    476400   609.42872     -2670.2015      0             -2597.5711     -5.6679917    
    476600   576.64195     -2668.5117      0             -2599.7887     -1.3924571    
    476800   609.21635     -2671.5682      0             -2598.9631     -0.58027929   
    477000   624.31612     -2673.4865      0             -2599.0819     -1.2343843    
    477200   590.68207     -2670.2662      0             -2599.87        4.9048507    
    477400   588.66505     -2669.9567      0             -2599.8009     -5.0309255    
    477600   579.73473     -2668.6218      0             -2599.5303      4.11465      
    477800   601.62117     -2670.6573      0             -2598.9574     -1.3790461    
    478000   605.20579     -2672.0763      0             -2599.9492      4.7865697    
    478200   609.85774     -2671.8819      0             -2599.2004     -4.4143877    
    478400   587.75096     -2667.0025      0             -2596.9556      6.778206     
    478600   595.81343     -2672.1709      0             -2601.1631     -5.0657733    
    478800   599.31591     -2672.3594      0             -2600.9343      6.1256778    
    479000   603.15438     -2669.5259      0             -2597.6433     -3.8032523    
    479200   608.53406     -2668.1086      0             -2595.5848      4.0863946    
    479400   569.91237     -2668.964       0             -2601.0431      0.73250054   
    479600   608.51211     -2672.2389      0             -2599.7177      3.4904306    
    479800   600.23474     -2669.0269      0             -2597.4923     -6.7242993    
    480000   611.84684     -2670.8745      0             -2597.9559      4.4948585    
    480200   590.52903     -2670.6563      0             -2600.2783      1.2585122    
    480400   618.76673     -2672.702       0             -2598.9587      4.8991944    
    480600   591.02319     -2669.1895      0             -2598.7526     -6.0214356    
    480800   604.42853     -2668.9844      0             -2596.9499      5.4042316    
    481000   597.84479     -2671.9757      0             -2600.7258     -2.4803711    
    481200   602.49301     -2669.4911      0             -2597.6873      3.248284     
    481400   607.63888     -2668.1976      0             -2595.7805     -2.3904063    
    481600   599.6914      -2670.7265      0             -2599.2566      4.8303818    
    481800   600.14932     -2673.4986      0             -2601.9741     -1.7462659    
    482000   597.91234     -2667.9367      0             -2596.6788      3.4263919    
    482200   608.29899     -2670.2739      0             -2597.7781     -0.10737434   
    482400   592.28682     -2670.8852      0             -2600.2977      4.1032625    
    482600   600.96664     -2671.064       0             -2599.4421     -6.3469323    
    482800   619.14165     -2667.1647      0             -2593.3768     -2.8391587    
    483000   606.94901     -2671.0701      0             -2598.7353     -0.58018714   
    483200   579.97088     -2669.3516      0             -2600.2319      6.5362638    
    483400   618.49208     -2668.4875      0             -2594.7769     -1.683721     
    483600   618.85391     -2670.8156      0             -2597.0619      3.6565721    
    483800   568.7603      -2670.4932      0             -2602.7096      2.657343     
    484000   606.56026     -2668.034       0             -2595.7454      6.3275025    
    484200   609.75387     -2668.6116      0             -2595.9424     -2.8613977    
    484400   582.26946     -2671.3203      0             -2601.9267      5.0863423    
    484600   593.05262     -2668.2434      0             -2597.5647     -2.8214266    
    484800   601.80789     -2666.5908      0             -2594.8686     -2.7319372    
    485000   589.24997     -2671.9048      0             -2601.6793      2.3280459    
    485200   599.4612      -2669.7924      0             -2598.3499      6.9099204    
    485400   601.34083     -2666.5012      0             -2594.8347     -3.7640215    
    485600   605.60347     -2669.6086      0             -2597.4341     -0.77233116   
    485800   592.38322     -2670.6699      0             -2600.0709     -2.6003158    
    486000   582.51993     -2665.7235      0             -2596.3001      5.2941249    
    486200   623.12993     -2669.3442      0             -2595.0809     -3.5426998    
    486400   584.06279     -2671.0865      0             -2601.4791      0.091968345  
    486600   595.42032     -2671.9353      0             -2600.9744     -0.70037967   
    486800   606.67403     -2665.7873      0             -2593.4851      0.62081124   
    487000   603.61425     -2669.8149      0             -2597.8774      0.34691875   
    487200   614.44637     -2674.5398      0             -2601.3114      1.3426947    
    487400   629.02346     -2672.4304      0             -2597.4647      0.23097299   
    487600   617.96148     -2668.5382      0             -2594.8909      0.52330492   
    487800   580.11453     -2671.8607      0             -2602.7239      1.7156805    
    488000   576.05711     -2669.6463      0             -2600.9931     -0.6921297    
    488200   631.54193     -2667.3118      0             -2592.046      -2.0452906    
    488400   605.25498     -2668.6277      0             -2596.4947     -1.5060218    
    488600   585.75387     -2673.1259      0             -2603.317       2.2532058    
    488800   603.21903     -2670.311       0             -2598.4207     -3.3136485    
    489000   613.74992     -2667.4764      0             -2594.331      -3.7243609    
    489200   585.79119     -2669.5088      0             -2599.6954      1.7727168    
    489400   590.94486     -2671.5379      0             -2601.1103     -6.240728     
    489600   626.60916     -2670.2202      0             -2595.5422      0.81094644   
    489800   588.15035     -2667.5715      0             -2597.477      -8.4596071    
    490000   607.60182     -2670.088       0             -2597.6753      11.195797    
    490200   585.30491     -2670.1329      0             -2600.3775     -9.7837133    
    490400   615.04205     -2669.2078      0             -2595.9084      9.8113916    
    490600   604.12281     -2667.4321      0             -2595.4341     -11.556738    
    490800   592.94425     -2670.1908      0             -2599.525       7.5617151    
    491000   603.48075     -2672.4355      0             -2600.514      -3.8678291    
    491200   619.31056     -2670.2991      0             -2596.491       9.862192     
    491400   594.06982     -2668.0425      0             -2597.2425     -11.475472    
    491600   617.69627     -2672.2627      0             -2598.647       10.82113     
    491800   598.84283     -2670.9395      0             -2599.5707     -10.657722    
    492000   626.44946     -2669.341       0             -2594.682       7.5250954    
    492200   590.73818     -2670.8989      0             -2600.4959     -6.254225     
    492400   597.00618     -2670.5841      0             -2599.4342      13.975297    
    492600   612.45798     -2670.1967      0             -2597.2053     -8.111609     
    492800   631.22032     -2670.5481      0             -2595.3206      8.0223062    
    493000   600.70914     -2670.5712      0             -2598.98       -8.6788107    
    493200   589.5771      -2670.8142      0             -2600.5497      7.6015318    
    493400   581.04459     -2667.2614      0             -2598.0138     -10.171837    
    493600   630.20096     -2669.2237      0             -2594.1177      7.5167512    
    493800   592.11409     -2672.718       0             -2602.1511     -7.177313     
    494000   588.22059     -2670.1429      0             -2600.0401      7.6374148    
    494200   621.74273     -2667.8285      0             -2593.7305     -6.0402587    
    494400   594.81603     -2668.5659      0             -2597.677       4.6153843    
    494600   602.55739     -2671.8305      0             -2600.019      -7.5182528    
    494800   599.90296     -2668.4185      0             -2596.9233      0.8639942    
    495000   595.19375     -2666.1668      0             -2595.2329     -1.4291492    
    495200   599.94189     -2669.5341      0             -2598.0343      6.5102543    
    495400   582.86446     -2671.4855      0             -2602.0209     -1.4312421    
    495600   616.55574     -2670.4518      0             -2596.972       5.7277489    
    495800   619.61046     -2669.9204      0             -2596.0766     -6.3997215    
    496000   586.03435     -2671.7186      0             -2601.8763      0.80727789   
    496200   591.96049     -2670.7268      0             -2600.1782     -2.3252132    
    496400   612.52388     -2667.2693      0             -2594.2701     -1.3470345    
    496600   614.20286     -2670.5597      0             -2597.3603     -2.0997643    
    496800   588.04968     -2671.5318      0             -2601.4493     -1.0123291    
    497000   612.00481     -2669.6237      0             -2596.6863      2.8576689    
    497200   590.46634     -2667.3831      0             -2597.0126      0.91822704   
    497400   587.40742     -2671.0602      0             -2601.0543      5.1934031    
    497600   568.89081     -2669.6684      0             -2601.8692     -5.5031072    
    497800   631.08766     -2670.6341      0             -2595.4224     -0.70427348   
    498000   593.98037     -2667.2173      0             -2596.428      -2.7466263    
[1777822086.342101] [cn17:108454:0]          parser.c:1906 UCX  WARN  unused env variable: UCX_ROOT (set UCX_WARN_UNUSED_ENV_VARS=n to suppress this warning)
    498200   597.88524     -2673.4201      0             -2602.1654      4.7827152    
    498400   603.57229     -2673.1254      0             -2601.193      -4.4519221    
    498600   608.5751      -2666.532       0             -2594.0033     -0.9140078    
    498800   605.42415     -2669.4417      0             -2597.2885      1.6443824    
    499000   566.37608     -2672.4038      0             -2604.9043      3.92906      
    499200   617.71576     -2667.7299      0             -2594.1118     -1.4953297    
    499400   612.56822     -2665.807       0             -2592.8024     -3.0745698    
    499600   568.8603      -2671.1545      0             -2603.3589      1.3159701    
    499800   598.77787     -2669.7323      0             -2598.3713      3.0595057    
    500000   623.33447     -2667.5257      0             -2593.238      -1.7942234    
Loop time of 505.238 on 8 procs for 500000 steps with 923 atoms

Performance: 171.009 ns/day, 0.140 hours/ns, 989.633 timesteps/s
[1777822086.342101] [cn17:108455:0]          parser.c:1906 UCX  WARN  unused env variable: UCX_ROOT (set UCX_WARN_UNUSED_ENV_VARS=n to suppress this warning)
99.6% CPU use with 8 MPI tasks x 1 OpenMP threads

MPI task timing breakdown:
Section |  min time  |  avg time  |  max time  |%varavg| %total
---------------------------------------------------------------
Pair    | 170.32     | 181.55     | 192.74     |  50.3 | 35.93
Neigh   | 10.211     | 11.391     | 12.164     |  20.2 |  2.25
Comm    | 24.638     | 35.073     | 46.869     | 114.3 |  6.94
Output  | 1.3286     | 1.3334     | 1.3577     |   0.8 |  0.26
Modify  | 273.91     | 275.45     | 277.38     |   7.2 | 54.52
Other   |            | 0.4393     |            |       |  0.09

Nlocal:        115.375 ave         161 max          88 min
Histogram: 2 1 2 0 0 0 2 0 0 1
Nghost:        507.875 ave         537 max         479 min
Histogram: 2 0 0 2 1 0 0 1 0 2
Neighs:           7022 ave        9536 max        5940 min
Histogram: 2 1 1 3 0 0 0 0 0 1

Total # of neighbors = 56176
Ave neighs/atom = 60.862405
Neighbor list builds = 100000
Dangerous builds = 0
All done!
Total wall time: 0:08:25
[1777822086.342101] [cn17:108456:0]          parser.c:1906 UCX  WARN  unused env variable: UCX_ROOT (set UCX_WARN_UNUSED_ENV_VARS=n to suppress this warning)
[1777822086.338481] [cn13:716889:0]          parser.c:1906 UCX  WARN  unused env variable: UCX_ROOT (set UCX_WARN_UNUSED_ENV_VARS=n to suppress this warning)
[1777822086.342101] [cn17:108457:0]          parser.c:1906 UCX  WARN  unused env variable: UCX_ROOT (set UCX_WARN_UNUSED_ENV_VARS=n to suppress this warning)
[1777822086.338481] [cn13:716890:0]          parser.c:1906 UCX  WARN  unused env variable: UCX_ROOT (set UCX_WARN_UNUSED_ENV_VARS=n to suppress this warning)
[1777822086.342101] [cn17:108458:0]          parser.c:1906 UCX  WARN  unused env variable: UCX_ROOT (set UCX_WARN_UNUSED_ENV_VARS=n to suppress this warning)
