LAMMPS (22 Aug 2018)
OMP_NUM_THREADS environment is not set. Defaulting to 1 thread. (src/comm.cpp:87)
  using 1 OpenMP thread(s) per MPI task
Reading data file ...
  orthogonal box = (-0 -0 -0) to (100 100 100)
  1 by 1 by 1 MPI processor grid
  reading atoms ...
  561 atoms
WARNING: The pair_style meam command is unsupported. Please use pair_style meam/c instead (src/MEAM/pair_meam.cpp:51)
Reading potential file library.meam with DATE: 2012-06-29
Neighbor list info ...
  update every 1 steps, delay 10 steps, check yes
  max neighbors/atom: 2000, page size: 100000
  master list distance cutoff = 6
  ghost atom cutoff = 6
  binsize = 3, bins = 34 34 34
  2 neighbor lists, perpetual/occasional/extra = 2 0 0
  (1) pair meam, perpetual
      attributes: full, newton on
      pair build: full/bin/atomonly
      stencil: full/bin/3d
      bin: standard
  (2) pair meam, perpetual, half/full from (1)
      attributes: half, newton on
      pair build: halffull/newton
      stencil: none
      bin: none
Setting up Verlet run ...
  Unit style    : metal
  Current step  : 0
  Time step     : 0.001
Per MPI rank memory allocation (min/avg/max) = 9.723 | 9.723 | 9.723 Mbytes
Step Temp PotEng KinEng TotEng 
       0         1200    -1726.413    86.862817   -1639.5502 
     200    1491.1286   -1747.4908    107.93636   -1639.5545 
     400     1391.472   -1740.2787    100.72265   -1639.5561 
     600    847.60969   -1700.9046    61.354804   -1639.5498 
     800    1304.8161   -1734.0103    94.450002   -1639.5603 
    1000    1252.4844   -1730.2189    90.661933   -1639.5569 
    1200    911.62251   -1705.5454    65.988416    -1639.557 
    1400     1124.057   -1720.9283    81.365635   -1639.5627 
    1600    1173.0064    -1724.462    84.908869   -1639.5532 
    1800    966.11767   -1709.4827    69.933085   -1639.5496 
    2000    1016.9512   -1713.1593    73.612703   -1639.5466 
    2200    1071.6001   -1717.1245    77.568505    -1639.556 
    2400    1032.0641   -1714.2615     74.70666   -1639.5549 
    2600    1031.0008   -1714.1814    74.629694   -1639.5517 
    2800    1045.0215   -1715.1982    75.644594   -1639.5536 
    3000    1015.0845   -1713.0258    73.477585   -1639.5482 
    3200    965.20064   -1709.4132    69.866706   -1639.5465 
    3400    1064.4391   -1716.5965     77.05015   -1639.5463 
    3600    1014.4607   -1712.9723    73.432431   -1639.5399 
    3800    1000.4622   -1711.9553    72.419137   -1639.5361 
    4000    1021.9073   -1713.5075    73.971458   -1639.5361 
    4200    1032.9417   -1714.3055    74.770189   -1639.5353 
    4400    1033.4836   -1714.3416    74.809417   -1639.5322 
    4600    963.22835   -1709.2519     69.72394    -1639.528 
    4800    1018.1638   -1713.2328     73.70048   -1639.5323 
    5000    1001.8904   -1712.0493    72.522519   -1639.5268 
    5200    988.55161   -1711.0841    71.556982   -1639.5271 
    5400     1017.122   -1713.1549    73.625072   -1639.5298 
    5600      1032.92   -1714.3026    74.768621    -1639.534 
    5800    999.54251    -1711.883    72.352565   -1639.5304 
    6000    979.28828   -1710.4108     70.88645   -1639.5243 
    6200    1007.4234   -1712.4454    72.923032   -1639.5224 
    6400    1026.1592   -1713.7989    74.279233   -1639.5197 
    6600    967.32955   -1709.5397    70.020809   -1639.5189 
    6800    977.24979   -1710.2577    70.738892   -1639.5188 
    7000    949.44471   -1708.2414    68.726202   -1639.5152 
    7200    900.40506   -1704.6903    65.176433   -1639.5139 
    7400    1003.1975   -1712.1325    72.617131   -1639.5154 
    7600     971.3406   -1709.8299    70.311151   -1639.5187 
    7800    1000.9224   -1711.9702     72.45245   -1639.5178 
    8000    918.96394   -1706.0356    66.519831   -1639.5157 
    8200    941.70488   -1707.6784     68.16595   -1639.5125 
    8400    962.50262   -1709.1798    69.671408   -1639.5084 
    8600    922.18215   -1706.2572    66.752783   -1639.5045 
    8800    954.21238   -1708.5781    69.071313   -1639.5067 
    9000    994.95519   -1711.5323    72.020509   -1639.5117 
    9200    941.84228   -1707.6867    68.175895   -1639.5108 
    9400    922.68552   -1706.2992     66.78922     -1639.51 
    9600    885.95578   -1703.6355    64.130512    -1639.505 
    9800    921.21091   -1706.1916    66.682479   -1639.5091 
   10000    939.89349    -1707.544     68.03483   -1639.5092 
Loop time of 49.8368 on 1 procs for 10000 steps with 561 atoms

Performance: 17.337 ns/day, 1.384 hours/ns, 200.655 timesteps/s
99.6% CPU use with 1 MPI tasks x 1 OpenMP threads

MPI task timing breakdown:
Section |  min time  |  avg time  |  max time  |%varavg| %total
---------------------------------------------------------------
Pair    | 49.381     | 49.381     | 49.381     |   0.0 | 99.09
Neigh   | 0.16242    | 0.16242    | 0.16242    |   0.0 |  0.33
Comm    | 0.0067165  | 0.0067165  | 0.0067165  |   0.0 |  0.01
Output  | 0.076001   | 0.076001   | 0.076001   |   0.0 |  0.15
Modify  | 0.16679    | 0.16679    | 0.16679    |   0.0 |  0.33
Other   |            | 0.04374    |            |       |  0.09

Nlocal:    561 ave 561 max 561 min
Histogram: 1 0 0 0 0 0 0 0 0 0
Nghost:    0 ave 0 max 0 min
Histogram: 1 0 0 0 0 0 0 0 0 0
Neighs:    13895 ave 13895 max 13895 min
Histogram: 1 0 0 0 0 0 0 0 0 0
FullNghs:  27790 ave 27790 max 27790 min
Histogram: 1 0 0 0 0 0 0 0 0 0

Total # of neighbors = 27790
Ave neighs/atom = 49.5365
Neighbor list builds = 104
Dangerous builds = 0
All done!
Total wall time: 0:00:49
