LAMMPS (22 Aug 2018)
OMP_NUM_THREADS environment is not set. Defaulting to 1 thread. (src/comm.cpp:87)
  using 1 OpenMP thread(s) per MPI task
Reading data file ...
  orthogonal box = (-0 -0 -0) to (200 200 200)
  1 by 1 by 1 MPI processor grid
  reading atoms ...
  1415 atoms
WARNING: The pair_style meam command is unsupported. Please use pair_style meam/c instead (src/MEAM/pair_meam.cpp:51)
Reading potential file library.meam with DATE: 2012-06-29
Neighbor list info ...
  update every 1 steps, delay 10 steps, check yes
  max neighbors/atom: 2000, page size: 100000
  master list distance cutoff = 6
  ghost atom cutoff = 6
  binsize = 3, bins = 67 67 67
  2 neighbor lists, perpetual/occasional/extra = 2 0 0
  (1) pair meam, perpetual
      attributes: full, newton on
      pair build: full/bin/atomonly
      stencil: full/bin/3d
      bin: standard
  (2) pair meam, perpetual, half/full from (1)
      attributes: half, newton on
      pair build: halffull/newton
      stencil: none
      bin: none
Setting up Verlet run ...
  Unit style    : metal
  Current step  : 0
  Time step     : 0.001
Per MPI rank memory allocation (min/avg/max) = 11.48 | 11.48 | 11.48 Mbytes
Step Temp PotEng KinEng TotEng 
       0          300   -4771.9004    54.832154   -4717.0683 
     200    292.23947   -4811.3818    53.413732   -4757.9681 
     400    300.87345   -4827.0503    54.991796   -4772.0585 
     600    273.42197   -4817.8781    49.974385   -4767.9037 
     800    349.18065   -4831.5641     63.82109    -4767.743 
    1000    221.92231   -4820.8386    40.561593    -4780.277 
    1200    395.01792   -4815.2404    72.198945   -4743.0415 
    1400    282.41934   -4832.4961    51.618868   -4780.8772 
    1600    247.60077   -4836.3568    45.254945   -4791.1018 
    1800    390.63869   -4824.0783    71.398535   -4752.6798 
    2000    283.22162   -4848.1785    51.765504    -4796.413 
    2200     255.5372   -4863.3851    46.705517   -4816.6796 
    2400    351.58453   -4856.2576    64.260457   -4791.9972 
    2600    284.19486   -4871.7911    51.943387   -4819.8477 
    2800      279.566   -4887.5539    51.097354   -4836.4565 
    3000     334.8051   -4888.8968    61.193616   -4827.7032 
    3200    282.37319   -4905.9493    51.610433   -4854.3389 
    3400    286.39211   -4914.8832    52.344988   -4862.5383 
    3600    325.03904   -4912.5823    59.408635   -4853.1737 
    3800    283.50651   -4918.6134    51.817574   -4866.7958 
    4000    304.39427    -4919.645    55.635311   -4864.0097 
    4200     315.7743   -4923.1532    57.715283   -4865.4379 
    4400    277.13992   -4929.4606     50.65393   -4878.8066 
    4600    315.86776   -4921.9724    57.732365   -4864.2401 
    4800    312.55474   -4921.4512    57.126833   -4864.3244 
    5000    277.35901   -4928.2895    50.693972   -4877.5956 
    5200    312.94359   -4925.8143    57.197903   -4868.6164 
    5400    311.93753   -4925.4624    57.014021   -4868.4484 
    5600    280.06493   -4925.3291    51.188544   -4874.1406 
    5800    309.56659   -4921.2075    56.580676   -4864.6268 
    6000    301.83874   -4925.5178    55.168227   -4870.3495 
    6200    285.56992   -4929.0318    52.194712   -4876.8371 
    6400    322.02723   -4924.7037    58.858154   -4865.8456 
    6600    306.39527   -4924.1994    56.001042   -4868.1984 
    6800    292.21741   -4927.5615    53.409699   -4874.1518 
    7000    316.28593   -4926.1349    57.808795   -4868.3261 
    7200    295.69447   -4924.5821    54.045215   -4870.5369 
    7400    303.28314   -4927.0023    55.432225   -4871.5701 
    7600    306.79659   -4926.1118    56.074393   -4870.0374 
    7800    294.57154   -4925.2121    53.839973   -4871.3722 
    8000    300.66379   -4924.0826    54.953477   -4869.1292 
    8200    307.53663   -4926.9706    56.209653   -4870.7609 
    8400    294.01218    -4926.123    53.737737   -4872.3853 
    8600    310.63445   -4924.3565    56.775853   -4867.5807 
    8800    298.85354   -4925.6175     54.62261   -4870.9949 
    9000    297.67968   -4924.8795     54.40806   -4870.4715 
    9200     306.9855   -4924.6331     56.10892   -4868.5242 
    9400    292.12006   -4924.2424    53.391906   -4870.8505 
    9600    314.40145   -4926.5418    57.464362   -4869.0775 
    9800    300.94936   -4924.0062    55.005672   -4869.0005 
   10000    291.45141   -4925.5093    53.269694   -4872.2396 
   10200    306.29069   -4925.4144    55.981927   -4869.4325 
   10400    301.95849   -4924.3044    55.190114   -4869.1142 
   10600    301.79259   -4927.0561    55.159793   -4871.8963 
   10800    296.59334   -4926.0015    54.209505    -4871.792 
   11000    298.37689   -4923.9811    54.535492   -4869.4456 
   11200    303.06295   -4923.0751    55.391981   -4867.6831 
   11400    295.51597   -4926.5795     54.01259   -4872.5669 
   11600    300.15476   -4925.5873     54.86044   -4870.7269 
   11800    314.28505   -4924.9225    57.443086   -4867.4795 
   12000    297.21998   -4924.7509    54.324039   -4870.4268 
   12200    309.05446   -4927.0898    56.487072   -4870.6027 
   12400     303.8674   -4924.8664    55.539012   -4869.3273 
   12600    301.42002   -4925.9307    55.091696    -4870.839 
   12800    298.32854   -4925.6104    54.526654   -4871.0837 
   13000     321.0412   -4924.6765    58.677935   -4865.9985 
   13200    298.82306   -4925.1873    54.617041   -4870.5703 
   13400    294.60576   -4926.4258    53.846228   -4872.5795 
   13600    320.28994   -4926.4613    58.540624   -4867.9207 
   13800    298.63563   -4924.3362    54.582781   -4869.7534 
   14000    303.05717    -4926.474    55.390924    -4871.083 
   14200    301.10203   -4925.9015    55.033576   -4870.8679 
   14400    304.94258   -4924.9776    55.735527   -4869.2421 
   14600     302.1165   -4922.8706    55.218994   -4867.6516 
   14800    305.95387   -4928.4248    55.920365   -4872.5044 
   15000    310.39053    -4926.041    56.731271   -4869.3097 
   15200    310.88362   -4924.6279    56.821395   -4867.8065 
   15400    302.65875    -4927.037    55.318103   -4871.7189 
   15600    302.17825   -4923.9153     55.23028    -4868.685 
   15800    304.79685   -4924.1495    55.708893   -4868.4406 
   16000    306.27984   -4927.2246    55.979944   -4871.2447 
   16200    310.61529   -4924.1002     56.77235   -4867.3278 
   16400    306.74191   -4925.5879    56.064399   -4869.5235 
   16600    304.72107   -4925.9366    55.695041   -4870.2416 
   16800    308.51256   -4923.7233    56.388027   -4867.3353 
   17000    306.32342   -4925.9739    55.987909    -4869.986 
   17200    304.91194   -4928.1631    55.729929   -4872.4332 
   17400    307.61546    -4925.937     56.22406    -4869.713 
   17600    316.34462   -4924.1778    57.819523   -4866.3583 
   17800     305.6368   -4926.0541    55.862413   -4870.1917 
   18000    303.02651   -4927.2631     55.38532   -4871.8778 
   18200    297.17415   -4922.9795    54.315663   -4868.6639 
   18400    311.43542   -4923.4224    56.922249   -4866.5001 
   18600    309.56523   -4927.5855    56.580428   -4871.0051 
   18800    311.32253   -4928.9375    56.901616   -4872.0358 
   19000    310.81168   -4924.0454    56.808246   -4867.2371 
   19200    298.84262   -4925.1853    54.620616   -4870.5647 
   19400    305.76974   -4927.4366    55.886711   -4871.5499 
   19600    303.67213   -4923.5378    55.503322   -4868.0345 
   19800      311.067   -4925.1455    56.854911   -4868.2906 
   20000     301.2495   -4925.2972    55.060529   -4870.2366 
   20200    306.29784   -4925.5012    55.983234    -4869.518 
   20400    308.71792    -4924.859    56.425562   -4868.4334 
   20600    318.60924   -4927.2881    58.233436   -4869.0547 
   20800    309.14847   -4926.1529    56.504255   -4869.6486 
   21000    303.92665   -4926.3072    55.549842   -4870.7574 
   21200    307.44049   -4924.7616     56.19208   -4868.5695 
   21400    307.77896   -4923.2817    56.253945   -4867.0278 
   21600    316.46755   -4926.0224    57.841991   -4868.1804 
   21800    310.48138   -4927.0739    56.747875    -4870.326 
   22000    310.94226   -4926.3567    56.832113   -4869.5246 
   22200     319.8924   -4924.1442    58.467963   -4865.6762 
   22400    306.83253   -4925.6731    56.080962   -4869.5921 
   22600    296.31684   -4926.5064    54.158968   -4872.3474 
   22800    324.68974   -4925.8576    59.344792   -4866.5128 
   23000    306.65023   -4925.8259    56.047642   -4869.7783 
   23200    310.02251   -4928.5121    56.664005   -4871.8481 
   23400    324.11442   -4925.9344    59.239639   -4866.6948 
   23600     300.7155   -4924.9206    54.962927   -4869.9577 
   23800    307.53107    -4926.033    56.208636   -4869.8244 
   24000    319.82811   -4924.8302    58.456214    -4866.374 
   24200    309.79498   -4927.2168    56.622419   -4870.5944 
   24400    302.05952   -4924.8771    55.208579   -4869.6685 
   24600    321.70389   -4923.5411    58.799056    -4864.742 
   24800     302.4702   -4925.5638    55.283642   -4870.2802 
   25000    310.38937   -4927.1864    56.731059   -4870.4554 
   25200      309.729   -4923.3025    56.610361   -4866.6921 
   25400    309.18771   -4925.4412    56.511426   -4868.9298 
   25600    304.58342     -4925.37    55.669883   -4869.7001 
   25800     312.4284   -4925.4587     57.10374   -4868.3549 
   26000    302.09778   -4924.7867    55.215573   -4869.5711 
   26200    310.91586   -4924.8021    56.827287   -4867.9749 
   26400    322.39304   -4926.6357    58.925015   -4867.7107 
   26600    305.91885   -4926.6864    55.913965   -4870.7725 
   26800    308.20777     -4924.19    56.332319   -4867.8576 
   27000    319.28849   -4923.9217    58.357584   -4865.5642 
   27200    307.05659   -4927.1227    56.121913   -4871.0008 
   27400    298.32703   -4925.6455    54.526378   -4871.1191 
   27600    319.63992   -4924.0495    58.421818   -4865.6276 
   27800    300.69412   -4924.9644     54.95902   -4870.0054 
   28000    310.73875    -4925.718    56.794916   -4868.9231 
   28200    317.73196   -4925.0585    58.073092   -4866.9854 
   28400     312.0864   -4925.0284    57.041232   -4867.9871 
   28600    309.70835   -4924.5084    56.606587   -4867.9019 
   28800    300.57599   -4925.1006    54.937429   -4870.1631 
   29000    311.76299    -4925.959    56.982121   -4868.9768 
   29200    318.79139   -4924.2465    58.266729   -4865.9798 
   29400    315.42523   -4927.3329    57.651483   -4869.6814 
   29600    295.14635   -4925.5264    53.945034   -4871.5814 
   29800    315.94362   -4924.7248     57.74623   -4866.9786 
   30000    318.02101   -4926.1154    58.125923   -4867.9894 
   30200    302.46845   -4924.4491    55.283321   -4869.1658 
   30400    303.15959    -4924.218    55.409645   -4868.8083 
   30600    305.89072   -4923.8958    55.908823   -4867.9869 
   30800    314.30028   -4924.7378     57.44587   -4867.2919 
   31000    314.46134   -4925.9501    57.475308   -4868.4747 
   31200    309.78419   -4927.9147    56.620448   -4871.2943 
   31400    313.66277   -4924.6335    57.329351   -4867.3042 
   31600    323.72491   -4924.7067    59.168447   -4865.5382 
   31800    300.11325   -4926.1703    54.852852   -4871.3174 
   32000    317.28547   -4925.0802    57.991486   -4867.0888 
   32200    317.24039   -4924.8632    57.983246   -4866.8799 
   32400    304.54322   -4925.3504    55.662536   -4869.6879 
   32600    326.53788   -4924.6394    59.682584   -4864.9568 
   32800    309.68228    -4926.275    56.601821   -4869.6732 
   33000    305.46685   -4925.1837     55.83135   -4869.3524 
   33200    317.98361   -4921.8836    58.119087   -4863.7645 
   33400    304.83185   -4925.7258     55.71529   -4870.0105 
   33600    301.83315   -4924.1975    55.167206   -4869.0303 
   33800     322.5428   -4923.8494    58.952387   -4864.8971 
   34000    298.99942    -4924.154    54.649274   -4869.5047 
   34200    306.91252    -4923.436     56.09558   -4867.3404 
   34400    319.26467   -4925.2175    58.353231   -4866.8643 
   34600    306.32166   -4926.5713    55.987587   -4870.5837 
   34800    321.16213   -4924.0858    58.700038   -4865.3857 
   35000    309.94225   -4923.3204    56.649338   -4866.6711 
   35200    291.74501   -4923.3771    53.323358   -4870.0537 
   35400    323.80084   -4924.4637    59.182325   -4865.2814 
   35600    311.64322   -4925.3652     56.96023    -4868.405 
   35800     308.4636   -4927.6036    56.379079   -4871.2245 
   36000    321.87751   -4924.8964     58.83079   -4866.0656 
   36200    308.00127   -4922.2728    56.294576   -4865.9782 
   36400    300.96251   -4922.2252    55.008074   -4867.2171 
   36600    314.73544   -4921.9235    57.525407   -4864.3981 
   36800    314.46006   -4924.9498    57.475074   -4867.4747 
   37000    301.11847   -4923.9374     55.03658   -4868.9008 
   37200    311.86061   -4922.1126    56.999963   -4865.1127 
   37400    310.21969   -4923.9188    56.700046   -4867.2187 
   37600    306.32466   -4924.4577    55.988137   -4868.4695 
   37800     314.9484   -4924.1017     57.56433   -4866.5374 
   38000       312.79   -4924.2161    57.169831   -4867.0463 
   38200    308.02469   -4922.5767    56.298858   -4866.2778 
   38400    305.81903   -4922.2071    55.895719   -4866.3114 
   38600    314.16099   -4925.4076    57.420412   -4867.9872 
   38800    317.52043   -4925.2958     58.03443   -4867.2614 
   39000    317.92478    -4925.092    58.108334   -4866.9836 
   39200    319.29015    -4926.313    58.357888   -4867.9551 
   39400    321.29754   -4924.5674    58.724788   -4865.8426 
   39600    309.10654   -4925.0386    56.496591   -4868.5421 
   39800    310.77497   -4924.0274    56.801536   -4867.2259 
   40000    316.77605    -4924.991    57.898376   -4867.0926 
   40200    303.72306   -4926.1297    55.512631    -4870.617 
   40400     319.2682   -4923.5534    58.353876   -4865.1995 
   40600    320.94471   -4924.7509    58.660298   -4866.0906 
   40800     307.0896   -4926.0452    56.127946   -4869.9172 
   41000     320.5764   -4922.0805    58.592981   -4863.4875 
   41200    324.55552   -4925.0989     59.32026   -4865.7786 
   41400    299.51186   -4924.0912    54.742935   -4869.3483 
   41600    317.56106    -4921.969    58.041856   -4863.9271 
   41800    308.06715   -4924.7751    56.306617   -4868.4685 
   42000    305.07891    -4924.711    55.760446   -4868.9506 
   42200     339.3562   -4924.3593    62.025437   -4862.3339 
   42400    312.92447   -4926.8135    57.194408   -4869.6191 
   42600    317.63086   -4926.2151    58.054614   -4868.1605 
   42800    336.41395   -4921.9981    61.487672   -4860.5105 
   43000    309.19134    -4924.403    56.512089   -4867.8909 
   43200    310.98675     -4926.85    56.840244   -4870.0098 
   43400     323.9794   -4924.2779     59.21496    -4865.063 
   43600    311.00687   -4921.8669    56.843921    -4865.023 
   43800    324.66167   -4923.5934    59.339661   -4864.2537 
   44000    308.53184   -4923.8743    56.391552   -4867.4828 
   44200    313.50559   -4925.2264    57.300622   -4867.9258 
   44400    318.44443   -4922.6646    58.203313   -4864.4613 
   44600    309.75333   -4923.4555    56.614807   -4866.8407 
   44800    322.05977    -4925.936    58.864103   -4867.0719 
   45000    323.55075   -4923.7995    59.136614   -4864.6629 
   45200    297.11084     -4922.66    54.304091   -4868.3559 
   45400    319.31096   -4924.2806    58.361692   -4865.9189 
   45600    315.13377   -4923.2456    57.598211   -4865.6474 
   45800    316.72281   -4925.9919    57.888645   -4868.1033 
   46000    319.19308   -4923.5984    58.340147   -4865.2582 
   46200    316.19215   -4923.5051    57.791655   -4865.7134 
   46400    315.99616   -4923.9861    57.755834   -4866.2302 
   46600    321.33645   -4923.4473    58.731899   -4864.7154 
   46800    316.70246    -4926.933    57.884925   -4869.0481 
   47000    314.83476   -4925.5271     57.54356   -4867.9835 
   47200    328.22745   -4922.2492    59.991394   -4862.2578 
   47400    309.68869   -4924.8265    56.602992   -4868.2236 
   47600    311.20702   -4926.2201    56.880503   -4869.3396 
   47800    327.45125   -4922.6524    59.849524   -4862.8029 
   48000    305.35386   -4920.8918    55.810699   -4865.0811 
   48200    311.18382   -4924.0021    56.876263   -4867.1258 
   48400    313.61814   -4922.4447    57.321194   -4865.1235 
   48600    326.07944    -4923.514    59.598794   -4863.9153 
   48800    321.52818   -4925.5266    58.766941   -4866.7596 
   49000     318.8256   -4924.3663     58.27298   -4866.0933 
   49200    321.31325   -4922.1699    58.727659   -4863.4423 
   49400    322.22103   -4926.6259    58.893577   -4867.7323 
   49600    309.79483   -4924.0678    56.622392   -4867.4454 
   49800    331.79925   -4923.7717    60.644225   -4863.1275 
   50000    303.61727   -4924.2152    55.493297   -4868.7219 
   50200     312.5553   -4924.6709    57.126934    -4867.544 
   50400    329.87034   -4922.5652     60.29167   -4862.2735 
   50600    319.72318   -4925.4631    58.437036   -4867.0261 
   50800    317.43819   -4925.8799    58.019399   -4867.8605 
   51000    323.65332   -4923.1674    59.155363    -4864.012 
   51200    307.71033   -4923.5578    56.241399   -4867.3164 
   51400    312.25138   -4923.2346    57.071384   -4866.1632 
   51600    323.79285   -4923.6863    59.180865   -4864.5054 
   51800    310.25841   -4923.4334    56.707122   -4866.7262 
   52000    327.72699    -4924.116    59.899923   -4864.2161 
   52200    312.18715    -4924.147    57.059646   -4867.0873 
   52400    318.56491   -4925.4531    58.225334   -4867.2278 
   52600    323.18019   -4921.3159    59.068887    -4862.247 
   52800    319.60433   -4925.5355    58.415312   -4867.1202 
   53000    311.32957   -4924.9636    56.902902   -4868.0607 
   53200    329.10697   -4920.6065    60.152147   -4860.4543 
   53400    307.90338   -4922.9816    56.276684   -4866.7049 
   53600    316.15109   -4927.2777     57.78415   -4869.4935 
   53800    322.81428   -4922.2781    59.002007   -4863.2761 
   54000    328.35681   -4923.8156    60.015037   -4863.8006 
   54200    312.01211   -4922.7501    57.027653   -4865.7225 
   54400     320.1314   -4923.5596    58.511646   -4865.0479 
   54600    314.36147   -4923.6039    57.457055   -4866.1468 
   54800     314.7841   -4922.0627    57.534301   -4864.5284 
   55000    323.74264   -4924.4566    59.171686   -4865.2849 
   55200    311.01641   -4925.6004    56.845666   -4868.7547 
   55400     321.9362   -4922.4595    58.841516    -4863.618 
   55600    334.22936   -4923.8924    61.088386    -4862.804 
   55800    311.53611   -4925.1259    56.940653   -4868.1853 
   56000    320.56298   -4924.6122    58.590529   -4866.0216 
   56200    321.53463    -4922.754    58.768121   -4863.9859 
   56400    316.66152   -4923.4833    57.877444   -4865.6059 
   56600     321.7565   -4923.2101    58.808673   -4864.4014 
   56800    318.94744   -4923.7055     58.29525   -4865.4102 
   57000    312.79411   -4923.7966    57.170583    -4866.626 
   57200    318.79624   -4921.5339    58.267614   -4863.2662 
   57400    316.73571   -4921.9627    57.891003   -4864.0717 
   57600    325.24054   -4927.0288    59.445464   -4867.5833 
   57800    316.82582   -4923.5155    57.907473    -4865.608 
   58000    317.59826   -4921.2971    58.048654   -4863.2484 
   58200    319.83331   -4924.1798    58.457163   -4865.7226 
   58400    318.79379   -4921.7438    58.267167   -4863.4766 
   58600    331.90386   -4923.9489    60.663344   -4863.2855 
   58800    306.47647   -4923.1634    56.015884   -4867.1475 
   59000    319.33173      -4921.1    58.365488   -4862.7345 
   59200    320.14469   -4922.6301    58.514077    -4864.116 
   59400    314.75052   -4924.2937    57.528162   -4866.7656 
   59600    320.27542   -4922.6422    58.537971   -4864.1042 
   59800     318.9992    -4923.979    58.304711   -4865.6743 
   60000     316.9758   -4922.4247    57.934885   -4864.4899 
   60200    323.89391   -4921.6534    59.199335   -4862.4541 
   60400    311.37368   -4924.9291    56.910964   -4868.0181 
   60600    323.28642    -4922.985    59.088302   -4863.8967 
   60800    326.34034   -4920.9655    59.646479    -4861.319 
   61000     303.6953   -4922.7696    55.507558   -4867.2621 
   61200    316.09521   -4921.3903    57.773936   -4863.6164 
   61400    326.00727   -4921.9178    59.585602   -4862.3322 
   61600    308.97207   -4924.5299    56.472014   -4868.0579 
   61800    329.87308   -4922.7041    60.292171   -4862.4119 
   62000    329.77248   -4923.7831    60.273785   -4863.5093 
   62200    309.57902   -4924.0124    56.582948   -4867.4294 
   62400    329.32275    -4922.673    60.191585   -4862.4815 
   62600     324.3348   -4922.7273    59.279919   -4863.4474 
   62800    308.59229   -4923.0644    56.402599   -4866.6618 
   63000    336.77055   -4922.5463    61.552849   -4860.9934 
   63200    324.44376   -4922.3676    59.299834   -4863.0678 
   63400    310.76054   -4924.3326    56.798899   -4867.5337 
   63600     321.8529   -4922.0265    58.826293   -4863.2002 
   63800    325.50709   -4919.7675    59.494182   -4860.2733 
   64000    315.45673   -4923.8112     57.65724   -4866.1539 
   64200     320.5338   -4925.0765    58.585195   -4866.4913 
   64400    324.96802   -4922.1665    59.395654   -4862.7708 
   64600    320.89138   -4922.0056    58.650552   -4863.3551 
   64800    320.52443   -4923.0435    58.583483     -4864.46 
   65000    326.26223   -4924.3316    59.632203   -4864.6994 
   65200    328.85883   -4922.2947    60.106794   -4862.1879 
   65400    323.05296   -4922.0569    59.045631   -4863.0113 
   65600    317.88998   -4922.1703    58.101974   -4864.0683 
   65800    317.38212   -4923.1174     58.00915   -4865.1082 
   66000    314.34725   -4920.2583    57.454455   -4862.8038 
   66200    329.92325   -4923.3949     60.30134   -4863.0935 
   66400    315.64138   -4924.3305    57.690988   -4866.6396 
   66600    318.21018   -4922.5694    58.160498   -4864.4089 
   66800    324.41199   -4920.5089    59.294028   -4861.2149 
   67000    323.71911   -4922.5672    59.167386   -4863.3999 
   67200     319.9176   -4923.0427     58.47257   -4864.5701 
   67400    321.27525   -4920.8927    58.720713    -4862.172 
   67600    331.91051   -4923.6647    60.664559   -4863.0001 
   67800    320.37397   -4923.7204    58.555983   -4865.1645 
   68000    321.71213   -4922.0382    58.800562   -4863.2377 
   68200    332.51973    -4921.846    60.775909   -4861.0701 
   68400    326.32868   -4922.8267    59.644347   -4863.1824 
   68600    331.72613   -4924.9082    60.630861   -4864.2774 
   68800    324.85393   -4924.1779    59.374802   -4864.8031 
   69000    320.73587   -4922.5172    58.622128   -4863.8951 
   69200    324.36605   -4921.0127    59.285629   -4861.7271 
   69400    323.77995   -4923.0672    59.178507   -4863.8887 
   69600    325.13591   -4924.6312    59.426341   -4865.2049 
   69800    320.58224   -4920.7179     58.59405   -4862.1239 
   70000    330.26369   -4922.6548    60.363564   -4862.2912 
   70200    315.94082   -4924.3459    57.745719   -4866.6002 
   70400    327.67028   -4921.5544    59.889557   -4861.6648 
   70600    327.28013   -4922.7751    59.818248   -4862.9569 
   70800     311.4663   -4923.6101    56.927892   -4866.6822 
   71000     324.6883   -4921.4834    59.344529   -4862.1389 
   71200    326.54041   -4923.3823    59.683046   -4863.6993 
   71400    325.08808   -4922.5732    59.417597   -4863.1556 
   71600     332.9573   -4920.8975    60.855885   -4860.0416 
   71800    316.29088   -4923.6241      57.8097   -4865.8144 
   72000    326.57998   -4924.4547    59.690279   -4864.7644 
   72200    326.47561   -4922.0933    59.671202   -4862.4221 
   72400     326.3824    -4924.314    59.654166   -4864.6598 
   72600    315.48451   -4919.8338    57.662318   -4862.1715 
   72800    334.06266   -4921.9906    61.057916   -4860.9327 
   73000    316.66351   -4925.8792    57.877807   -4868.0014 
   73200     323.4386   -4923.4837    59.116117   -4864.3676 
   73400    332.35258   -4920.4258    60.745359   -4859.6805 
   73600     316.0342   -4923.3154    57.762786   -4865.5526 
   73800    336.16049   -4923.8291    61.441346   -4862.3878 
   74000    330.83542   -4923.3676    60.468061   -4862.8995 
   74200    314.59038   -4924.8364    57.498892   -4867.3375 
   74400     329.2368   -4921.3678    60.175876   -4861.1919 
   74600     329.8098   -4922.8532    60.280605   -4862.5726 
   74800    323.84126   -4925.9982    59.189712   -4866.8084 
   75000    340.04541   -4922.8788    62.151407   -4860.7274 
   75200    321.47724   -4921.8735    58.757631   -4863.1159 
   75400    323.00688   -4925.1936    59.037209   -4866.1564 
   75600     333.6235   -4922.8621    60.977651   -4861.8845 
   75800    325.02982   -4924.1608     59.40695   -4864.7539 
   76000    333.23119   -4924.5187    60.905947   -4863.6128 
   76200    324.64813   -4919.2286    59.337188   -4859.8915 
   76400    326.20074   -4923.4011    59.620964   -4863.7801 
   76600    325.36372   -4925.2799    59.467979   -4865.8119 
   76800    326.58148   -4922.9309    59.690553   -4863.2403 
   77000    333.29856   -4923.3105    60.918259   -4862.3922 
   77200    327.51657   -4922.9393    59.861464   -4863.0778 
   77400    324.28826     -4923.59    59.271413   -4864.3186 
   77600    331.32322   -4923.2167    60.557218   -4862.6595 
   77800    326.32133   -4922.1803    59.643003   -4862.5373 
   78000    326.13803   -4923.7429    59.609501   -4864.1334 
   78200    336.50135    -4923.627    61.503646   -4862.1233 
   78400    327.00375   -4922.3381    59.767733   -4862.5703 
   78600    328.88289   -4922.4423    60.111191   -4862.3311 
   78800    333.22943   -4923.5155    60.905624   -4862.6099 
   79000    321.76607   -4922.5843    58.810422   -4863.7739 
   79200    332.54343   -4922.5191    60.780241   -4861.7389 
   79400     319.4641   -4922.0253    58.389682   -4863.6356 
   79600    327.09993   -4922.6906    59.785312   -4862.9053 
   79800    331.74212   -4921.6287    60.633784   -4860.9949 
   80000    322.74899   -4922.0225    58.990074   -4863.0324 
   80200    327.88951   -4923.0719    59.929626   -4863.1422 
   80400     330.3577   -4922.8353    60.380747   -4862.4546 
   80600    332.88655   -4921.7381    60.842954   -4860.8952 
   80800    329.34113   -4922.8848    60.194945   -4862.6899 
   81000    338.91088   -4924.0199    61.944044   -4862.0759 
   81200    328.52194   -4922.8826    60.045219   -4862.8374 
   81400    331.61397   -4924.4214    60.610361   -4863.8111 
   81600    340.81015   -4921.5483    62.291181   -4859.2571 
   81800    331.46117    -4921.259    60.582432   -4860.6766 
   82000    322.84807   -4925.2555    59.008183   -4866.2473 
   82200    328.95109   -4922.5823    60.123656   -4862.4586 
   82400    329.33257   -4920.2002    60.193381   -4860.0069 
   82600    325.82234    -4921.736    59.551803   -4862.1842 
   82800    333.31017   -4923.7814    60.920382    -4862.861 
   83000    328.36581   -4922.2468    60.016682   -4862.2301 
   83200    330.50873   -4923.0515    60.408352   -4862.6431 
   83400    335.07083   -4922.7586    61.242184   -4861.5164 
   83600    323.05704   -4922.3638    59.046378   -4863.3174 
   83800    321.63865   -4922.3416    58.787133   -4863.5545 
   84000    341.70863    -4922.473      62.4554   -4860.0176 
   84200    331.62085   -4922.3645    60.611618   -4861.7528 
   84400    325.29597   -4922.8091    59.455595   -4863.3535 
   84600    342.46643   -4923.4292    62.593907   -4860.8353 
   84800    323.67691   -4923.2618    59.159674   -4864.1021 
   85000    324.38307   -4920.8488    59.288741   -4861.5601 
   85200    328.20237   -4918.7673    59.986809   -4858.7805 
   85400     322.1594   -4922.1888    58.882312   -4863.3065 
   85600    328.86668   -4923.2316    60.108227   -4863.1234 
   85800     338.0477   -4921.9477    61.786277   -4860.1615 
   86000    330.09633   -4923.9087    60.332976   -4863.5757 
   86200    327.74888   -4922.0826    59.903923   -4862.1787 
   86400    331.91007   -4922.1057     60.66448   -4861.4412 
   86600    321.90999   -4922.9629    58.836727   -4864.1262 
   86800    326.22662   -4920.2753    59.625693   -4860.6496 
   87000    347.45025   -4923.0508    63.504819    -4859.546 
   87200    317.16982   -4923.3656    57.970348   -4865.3953 
   87400    340.08788   -4923.5182     62.15917    -4861.359 
   87600    336.30821   -4921.1107    61.468344   -4859.6423 
   87800    329.18888   -4925.0181    60.167117   -4864.8509 
   88000    327.57881   -4921.9191    59.872838   -4862.0462 
   88200    334.99976   -4920.7542    61.229194    -4859.525 
   88400    331.80676   -4922.7292    60.645598   -4862.0836 
   88600    331.48752   -4920.8955    60.587249   -4860.3082 
   88800    318.52052   -4921.6639    58.217219   -4863.4467 
   89000     327.7533   -4922.9248     59.90473     -4863.02 
   89200    334.41594   -4921.0024    61.122488   -4859.8799 
   89400    327.27502   -4922.3067    59.817315   -4862.4894 
   89600    328.24692   -4922.1966    59.994952   -4862.2017 
   89800      340.426   -4923.3596     62.22097   -4861.1386 
   90000    333.56338   -4921.5834    60.966661   -4860.6168 
   90200    333.36531   -4921.5225     60.93046    -4860.592 
   90400    327.19297   -4922.5141    59.802317   -4862.7118 
   90600    318.37927   -4920.3959    58.191404   -4862.2045 
   90800    338.38999   -4919.0171     61.84884   -4857.1683 
   91000    329.74478   -4922.5648    60.268721    -4862.296 
   91200     328.9188   -4923.6167    60.117753   -4863.4989 
   91400    333.28106   -4920.6258    60.915061   -4859.7107 
   91600    323.10305   -4921.6453    59.054787   -4862.5905 
   91800    336.25134   -4922.4787    61.457951   -4861.0207 
   92000    341.17464    -4922.968    62.357801   -4860.6102 
   92200    325.99983    -4920.813    59.584242   -4861.2288 
   92400    337.66082   -4919.8561    61.715566   -4858.1406 
   92600    328.05691   -4922.0793    59.960223   -4862.1191 
   92800    329.37311   -4923.8557     60.20079   -4863.6549 
   93000    340.89046   -4922.0341    62.305861   -4859.7282 
   93200    331.41745   -4919.8749    60.574442   -4859.3005 
   93400    329.97271   -4921.7677    60.310381   -4861.4573 
   93600    343.07439   -4923.8293    62.705026   -4861.1243 
   93800    336.48251   -4920.6335    61.500202   -4859.1333 
   94000    337.21005   -4922.0322    61.633178   -4860.3991 
   94200    337.08059   -4923.5406    61.609516   -4861.9311 
   94400    326.91252   -4922.4734    59.751058   -4862.7224 
   94600    340.12861   -4921.7271    62.166614   -4859.5605 
   94800    327.48737   -4917.7303    59.856125   -4857.8742 
   95000    322.94599   -4921.1202     59.02608   -4862.0942 
   95200     334.4742   -4923.3843    61.133135   -4862.2511 
   95400    339.93675   -4921.1321    62.131547   -4859.0005 
   95600    328.42919    -4920.915    60.028265   -4860.8867 
   95800    328.95504   -4922.2692    60.124377   -4862.1448 
   96000    329.94268     -4920.86    60.304893   -4860.5551 
   96200    330.60908   -4919.6622    60.426693   -4859.2355 
   96400    329.25962   -4919.7999    60.180048   -4859.6199 
   96600    325.11285   -4923.0242    59.422125    -4863.602 
   96800    340.57054   -4923.2251    62.247388   -4860.9777 
   97000    336.04525   -4919.1812    61.420282   -4857.7609 
   97200    330.95421   -4920.6414    60.489774   -4860.1517 
   97400    341.61363   -4922.2839    62.438037   -4859.8459 
   97600    341.67458   -4923.0541    62.449177   -4860.6049 
   97800    334.46663    -4922.998    61.131751   -4861.8662 
   98000    340.88139   -4921.8581    62.304202   -4859.5539 
   98200    335.42556    -4921.311    61.307019    -4860.004 
   98400    340.75663     -4923.49      62.2814   -4861.2086 
   98600    328.91172   -4919.4704     60.11646   -4859.3539 
   98800    332.19491   -4918.6849    60.716542   -4857.9683 
   99000    343.08537   -4922.3174    62.707032   -4859.6104 
   99200      324.127   -4922.9739    59.241938    -4863.732 
   99400    340.32168   -4922.2509    62.201902    -4860.049 
   99600    343.88538   -4920.4648    62.853254   -4857.6115 
   99800    317.32141   -4920.9243    57.998054   -4862.9263 
  100000     336.9441   -4923.4882    61.584568   -4861.9036 
  100200    341.80188    -4920.233    62.472444   -4857.7605 
  100400    336.14821    -4923.063    61.439101   -4861.6239 
  100600     331.9201   -4922.4883    60.666314    -4861.822 
  100800    346.77614   -4922.2717    63.381608     -4858.89 
  101000    330.56178   -4922.5455    60.418048   -4862.1274 
  101200    334.62628   -4922.3487    61.160931   -4861.1878 
  101400    343.68299   -4921.7662    62.816261     -4858.95 
  101600    321.05265   -4923.0252    58.680028   -4864.3451 
  101800    338.00773   -4921.7059    61.778972   -4859.9269 
  102000    349.81744   -4920.0917    63.937478   -4856.1542 
  102200    320.97713   -4923.7088    58.666224   -4865.0425 
  102400    333.29081   -4922.6245    60.916843   -4861.7076 
  102600    335.52571   -4919.0517    61.325323   -4857.7264 
  102800    337.29599   -4922.9654    61.648885   -4861.3166 
  103000    336.10023   -4923.7436    61.430331   -4862.3133 
  103200    350.71114   -4924.1419    64.100824   -4860.0411 
  103400     346.7558   -4923.3571    63.377892   -4859.9792 
  103600    336.84255   -4921.9754    61.566008   -4860.4094 
  103800    327.16969   -4922.4038    59.798062   -4862.6058 
  104000    328.37512   -4921.2538    60.018383   -4861.2354 
  104200    329.15565   -4920.3643    60.161044   -4860.2032 
  104400    339.04692   -4922.3117    61.968909   -4860.3428 
  104600    340.60406   -4923.8106    62.253514    -4861.557 
  104800    339.69813   -4922.2953    62.087933   -4860.2074 
  105000    334.34435   -4922.3943    61.109402   -4861.2849 
  105200    330.99905   -4920.5952    60.497969   -4860.0972 
  105400    330.23358    -4921.132     60.35806   -4860.7739 
  105600    335.88913   -4922.6964    61.391748   -4861.3047 
  105800    339.65835   -4922.6509    62.080663   -4860.5703 
  106000    336.26549   -4922.6928    61.460537   -4861.2323 
  106200    333.43172   -4922.1508    60.942598   -4861.2082 
  106400    336.38559   -4921.7668    61.482488   -4860.2843 
  106600    344.07651   -4923.8542    62.888186    -4860.966 
  106800    343.50307    -4923.426    62.783377   -4860.6426 
  107000     340.5366   -4922.8665    62.241184   -4860.6253 
  107200    326.05663   -4921.3426    59.594624    -4861.748 
  107400    350.10966   -4922.7393    63.990888   -4858.7484 
  107600    332.65102   -4921.1463    60.799906   -4860.3464 
  107800     333.4904   -4922.7656    60.953322   -4861.8123 
  108000    348.60089   -4922.5547    63.715124   -4858.8396 
  108200    336.23943   -4920.0095    61.455774   -4858.5537 
  108400     328.4224   -4922.5214    60.027025   -4862.4944 
  108600    335.70638   -4924.1152    61.358346   -4862.7568 
  108800    349.72741   -4922.8194    63.921023   -4858.8984 
  109000    347.01234   -4922.5394    63.424779   -4859.1146 
  109200    349.37189   -4923.7735    63.856044   -4859.9175 
  109400    334.48058   -4920.9065    61.134302   -4859.7722 
  109600    333.65914   -4921.6803    60.984164   -4860.6962 
  109800    336.98154   -4922.1263    61.591412   -4860.5348 
  110000    342.11388   -4919.8974     62.52947    -4857.368 
  110200    329.10617   -4922.7448       60.152   -4862.5928 
  110400    336.11308   -4921.2134    61.432679   -4859.7807 
  110600    347.49153   -4919.9071    63.512362   -4856.3947 
  110800    325.94793   -4922.6507    59.574757    -4863.076 
  111000    339.01637    -4922.291    61.963325   -4860.3277 
  111200    338.96992   -4919.0375    61.954836   -4857.0826 
  111400    327.30324   -4922.4409    59.822471   -4862.6184 
  111600    341.82266   -4920.4984    62.476242   -4858.0221 
  111800    339.88834   -4919.4334    62.122699   -4857.3107 
  112000    333.54687   -4924.1991    60.963645   -4863.2354 
  112200    347.27418   -4922.5734    63.472638   -4859.1007 
  112400    353.07587   -4921.8517    64.533034   -4857.3187 
  112600    331.96581   -4923.0341    60.674667   -4862.3595 
  112800    335.47159   -4920.4274    61.315432    -4859.112 
  113000    343.28482   -4919.9235    62.743486     -4857.18 
  113200    331.03126   -4922.3936    60.503857   -4861.8898 
  113400    353.23523    -4922.922    64.562161   -4858.3599 
  113600    333.90786   -4920.1943    61.029623   -4859.1647 
  113800     335.3636   -4923.3331    61.295695   -4862.0374 
  114000    353.89721   -4921.2246    64.683154   -4856.5414 
  114200    341.76248   -4920.3953    62.465243   -4857.9301 
  114400    325.20323   -4922.6447    59.438644   -4863.2061 
  114600    357.23626   -4923.4663    65.293445   -4858.1729 
  114800    337.82966   -4920.5839    61.746425   -4858.8375 
  115000    338.68778   -4922.5464    61.903267   -4860.6431 
  115200    339.95772    -4919.797    62.135379   -4857.6616 
  115400    330.80055   -4920.7702    60.461689   -4860.3085 
  115600    334.50266   -4920.8626    61.138338   -4859.7243 
  115800    344.11009   -4920.8738    62.894324   -4857.9795 
  116000    331.54784    -4921.767    60.598274   -4861.1687 
  116200    338.90143   -4921.3882    61.942317   -4859.4459 
  116400    349.08666   -4918.1747    63.803911   -4854.3708 
  116600    326.41535   -4920.5516    59.660188   -4860.8914 
  116800    332.73504   -4921.2382    60.815263    -4860.423 
  117000    340.48057   -4919.7551    62.230943   -4857.5242 
  117200    340.62717   -4921.5957    62.257737   -4859.3379 
  117400    335.09832   -4920.6825    61.247209   -4859.4352 
  117600    341.81339   -4920.6999    62.474547   -4858.2254 
  117800     342.5751   -4921.9953    62.613768   -4859.3815 
  118000    336.71555   -4917.9981    61.542796   -4856.4553 
  118200    341.86057   -4919.8135    62.483171   -4857.3303 
  118400    336.39495    -4922.637    61.484199   -4861.1528 
  118600    345.21546   -4921.5724    63.096357   -4858.4761 
  118800    349.69393   -4921.0554    63.914905   -4857.1405 
  119000    336.61448   -4921.4649    61.524322   -4859.9406 
  119200    339.34095   -4922.6561    62.022651   -4860.6335 
  119400    345.16702   -4919.5679    63.087503   -4856.4804 
  119600    331.13487   -4918.9271    60.522794   -4858.4043 
  119800    337.93278   -4921.9838    61.765274   -4860.2186 
  120000    346.87003   -4920.8299     63.39877   -4857.4311 
  120200     347.2117   -4924.0114    63.461218   -4860.5501 
  120400    333.01672   -4922.6592    60.866746   -4861.7924 
  120600    353.66735   -4923.3207    64.641142   -4858.6795 
  120800    350.24603   -4923.7846    64.015813   -4859.7688 
  121000    337.90803   -4922.7722     61.76075   -4861.0114 
  121200    343.21234   -4921.7409    62.730239   -4859.0106 
  121400    337.28393   -4922.3091     61.64668   -4860.6625 
  121600     329.9158   -4923.0237    60.299979   -4862.7237 
  121800    357.83521   -4922.9746    65.402917   -4857.5717 
  122000    338.87357   -4921.6406    61.937226   -4859.7034 
  122200     353.1031   -4924.0007    64.538012   -4859.4627 
  122400    347.08878   -4921.9555    63.438751   -4858.5168 
  122600    346.49613   -4923.1721     63.33043   -4859.8417 
  122800      349.117   -4922.2802    63.809456   -4858.4707 
  123000    353.37294   -4924.6008     64.58733   -4860.0134 
  123200    345.20755   -4922.8415    63.094911   -4859.7466 
  123400    349.66086   -4924.0808     63.90886   -4860.1719 
  123600     347.2741   -4923.3527    63.472623   -4859.8801 
  123800    358.61661   -4924.1467    65.545737    -4858.601 
  124000    347.55895   -4924.7124    63.524685   -4861.1877 
  124200    341.93506   -4922.3752    62.496786   -4859.8784 
  124400    347.07155   -4920.3143    63.435601   -4856.8787 
  124600    336.88052     -4922.08    61.572947    -4860.507 
  124800    347.67382   -4923.0589    63.545682   -4859.5132 
  125000    346.63352    -4920.298    63.355542   -4856.9425 
  125200    340.80845    -4923.582    62.290871   -4861.2912 
  125400    346.42944   -4923.4183    63.318241   -4860.1001 
  125600    341.37688   -4921.0391    62.394765   -4858.6443 
  125800    339.04482    -4924.198    61.968526   -4862.2295 
  126000    346.71053   -4921.4103    63.369617   -4858.0407 
  126200    346.75988    -4920.669    63.378636   -4857.2903 
  126400    339.91153   -4925.3133    62.126938   -4863.1864 
  126600    353.42687    -4920.887    64.597188   -4856.2898 
  126800    337.58504   -4919.6075    61.701716   -4857.9058 
  127000    328.39585   -4921.4245    60.022172   -4861.4023 
  127200    355.30807   -4921.9658    64.941022   -4857.0247 
  127400    341.08962   -4922.3664    62.342262   -4860.0242 
  127600     333.3568   -4921.1775    60.928904   -4860.2486 
  127800    360.95369   -4922.1942    65.972894   -4856.2213 
  128000    347.68244   -4923.6631    63.547256   -4860.1158 
  128200    337.79559   -4922.1082    61.740199    -4860.368 
  128400    347.18355   -4919.5741    63.456072    -4856.118 
  128600    337.86478   -4920.5423    61.752846   -4858.7894 
  128800    342.84669   -4922.8103    62.663408   -4860.1469 
  129000    349.26322   -4922.3309    63.836182   -4858.4947 
  129200    344.63944   -4921.8974    62.991075   -4858.9063 
  129400    345.77865   -4921.9868    63.199294   -4858.7875 
  129600    350.04405   -4923.1526    63.978897   -4859.1737 
  129800    350.67959   -4925.2912    64.095057   -4861.1961 
  130000    352.64108   -4921.3318    64.453566   -4856.8782 
  130200    355.54648   -4922.3652    64.984596   -4857.3806 
  130400    337.27111    -4922.811    61.644338   -4861.1667 
  130600    352.24505   -4923.4597    64.381183   -4859.0786 
  130800    347.04833   -4919.5865    63.431358   -4856.1552 
  131000    344.96072   -4921.1587    63.049797   -4858.1089 
  131200    347.49305   -4922.0469     63.51264   -4858.5343 
  131400    347.89008   -4921.4761    63.585207   -4857.8909 
  131600    346.60918   -4920.6006    63.351093   -4857.2495 
  131800    351.83102   -4921.2482    64.305509   -4856.9427 
  132000    346.40023   -4923.2938    63.312902   -4859.9809 
  132200    341.84696   -4921.8433    62.480683   -4859.3626 
  132400    351.77572   -4921.2159      64.2954   -4856.9205 
  132600     345.3994   -4922.1804    63.129977   -4859.0504 
  132800     340.5654   -4922.5493    62.246448   -4860.3028 
  133000    342.04441   -4920.0048    62.516772    -4857.488 
  133200    354.04337   -4921.2118    64.709867   -4856.5019 
  133400    349.96755   -4922.9538    63.964914   -4858.9889 
  133600    338.13417   -4921.8318    61.802083   -4860.0297 
  133800    345.38702   -4922.0519    63.127713   -4858.9242 
  134000    346.63373    -4922.049     63.35558   -4858.6934 
  134200    340.17502   -4919.9992    62.175096   -4857.8241 
  134400    354.85435   -4921.7428    64.858094   -4856.8847 
  134600    334.65265   -4920.0471    61.165752   -4858.8814 
  134800     343.8897   -4923.8906    62.854043   -4861.0365 
  135000     348.3114   -4920.8508    63.662214   -4857.1885 
  135200    350.13165   -4917.6467    63.994908   -4853.6517 
  135400    331.25117   -4922.2825    60.544051   -4861.7385 
  135600    348.33442   -4923.3004    63.666421    -4859.634 
  135800    358.65417   -4918.6861    65.552602   -4853.1335 
  136000    339.20322   -4922.4766    61.997476   -4860.4792 
  136200    342.65525   -4923.4101    62.628417   -4860.7816 
  136400    362.36664   -4919.4563    66.231144   -4853.2252 
  136600    340.44582   -4921.4497    62.224592   -4859.2251 
  136800      340.502   -4921.9032    62.234859   -4859.6684 
  137000    355.59069   -4919.5689    64.992677   -4854.5762 
  137200    336.35196   -4920.0176    61.476341   -4858.5413 
  137400    348.38477   -4921.1208    63.675623   -4857.4452 
  137600    350.08344   -4920.5103    63.986096   -4856.5242 
  137800    346.84107   -4924.2804    63.393477   -4860.8869 
  138000    363.30949   -4924.3997    66.403472   -4857.9962 
  138200    364.51906    -4920.397    66.624551   -4853.7725 
  138400    330.39687   -4921.0351    60.387906   -4860.6472 
  138600    356.99211   -4922.4603     65.24882   -4857.2115 
  138800    366.07633    -4920.433    66.909179   -4853.5238 
  139000    334.07312   -4923.4953    61.059829   -4862.4354 
  139200    352.56302   -4922.5816      64.4393   -4858.1423 
  139400    361.85254   -4919.1035    66.137179   -4852.9663 
  139600     344.6852   -4922.7426    62.999439   -4859.7431 
  139800    356.48734   -4923.6045    65.156561   -4858.4479 
  140000    362.67586   -4919.1853    66.287661   -4852.8976 
  140200    348.90569    -4922.084    63.770834   -4858.3131 
  140400    355.08512   -4924.4241    64.900272   -4859.5238 
  140600    349.47613   -4921.5217    63.875095   -4857.6466 
  140800    340.04133   -4920.4378    62.150662   -4858.2871 
  141000     355.3652   -4919.8327    64.951464   -4854.8812 
  141200    347.90943   -4920.4991    63.588745   -4856.9104 
  141400    341.78739   -4922.0377    62.469795   -4859.5679 
  141600    357.91209   -4922.5471     65.41697   -4857.1302 
  141800    356.16979   -4922.5171    65.098523   -4857.4186 
  142000    363.83778   -4923.1732    66.500029   -4856.6731 
  142200    359.86243   -4923.4142     65.77344   -4857.6408 
  142400    333.51471    -4920.926    60.957766   -4859.9682 
  142600    357.10803   -4921.7555    65.270007   -4856.4855 
  142800    342.86644   -4921.0528    62.667018   -4858.3858 
  143000     354.3985   -4921.7588    64.774777    -4856.984 
  143200    362.95756   -4920.5476    66.339148   -4854.2084 
  143400    332.51008   -4919.1779    60.774146   -4858.4038 
  143600    341.79977   -4920.7397    62.472058   -4858.2677 
  143800    360.53253   -4920.5042    65.895917   -4854.6083 
  144000    341.82743   -4921.4028    62.477114   -4858.9257 
  144200    347.93085   -4923.6208    63.592659   -4860.0282 
  144400    345.94694   -4917.8205    63.230052   -4854.5905 
  144600    352.70068   -4918.4885    64.464459    -4854.024 
  144800     355.6649   -4923.9155    65.006242   -4858.9092 
  145000     363.2975   -4922.7703    66.401281    -4856.369 
  145200    354.49089   -4922.3765    64.791663   -4857.5849 
  145400    342.84174   -4920.7859    62.662503   -4858.1234 
  145600    359.70928   -4918.9668    65.745449   -4853.2214 
  145800     346.7184   -4921.1181    63.371056    -4857.747 
  146000    354.22338   -4922.2056     64.74277   -4857.4628 
  146200    355.52612   -4921.8129    64.980876    -4856.832 
  146400    344.57802   -4921.6931     62.97985   -4858.7132 
  146600    362.21008   -4921.7617     66.20253   -4855.5592 
  146800    340.73852    -4920.808     62.27809   -4858.5299 
  147000    332.65776   -4919.2145    60.801138   -4858.4134 
  147200    364.33912   -4919.8047    66.591662   -4853.2131 
  147400    336.15395    -4921.131     61.44015   -4859.6909 
  147600    343.91465   -4919.9251    62.858603   -4857.0665 
  147800    355.34292   -4918.7878    64.947392   -4853.8404 
  148000    340.60523   -4921.4819    62.253728   -4859.2282 
  148200     366.2075   -4919.5424    66.933153   -4852.6093 
  148400    351.82311    -4920.119    64.304063   -4855.8149 
  148600     335.5367   -4920.8437    61.327332   -4859.5163 
  148800    371.21809   -4921.9841    67.848957   -4854.1351 
  149000    348.21273   -4920.0981    63.644179   -4856.4539 
  149200    346.66039   -4920.6911    63.360452   -4857.3307 
  149400    359.90918   -4920.6902    65.781984   -4854.9082 
  149600    358.30048   -4921.9186    65.487957   -4856.4306 
  149800    345.04026   -4920.5919    63.064335   -4857.5276 
  150000    347.13442   -4917.8998    63.447093   -4854.4527 
  150200     354.3562   -4921.4245    64.767045   -4856.6575 
  150400    347.21356   -4920.7666    63.461557    -4857.305 
  150600    359.24876   -4919.1893    65.661277    -4853.528 
  150800    350.55652   -4920.1454    64.072564   -4856.0728 
  151000    353.49354   -4922.3289    64.609373   -4857.7195 
  151200    359.61114   -4920.8151     65.72751   -4855.0876 
  151400    349.11113   -4918.5263    63.808384   -4854.7179 
  151600    352.94142    -4921.974    64.508461   -4857.4656 
  151800    351.71163   -4921.4418    64.283687   -4857.1581 
  152000    364.39534   -4920.9585    66.601938   -4854.3565 
  152200    343.65325   -4919.1228    62.810826    -4856.312 
  152400    342.80302   -4918.3953    62.655426   -4855.7399 
  152600     355.9032    -4919.604    65.049796   -4854.5542 
  152800    359.16111   -4922.1964    65.645257   -4856.5511 
  153000    344.78251   -4921.7971    63.017225   -4858.7799 
  153200     344.7626   -4918.1215    63.013587    -4855.108 
  153400    350.34008   -4915.8814    64.033004   -4851.8484 
  153600    358.55062   -4921.2869    65.533675   -4855.7532 
  153800     348.5073   -4922.0278     63.69802   -4858.3298 
  154000    352.49277   -4918.3429    64.426459   -4853.9165 
  154200    342.59478   -4919.2221    62.617365   -4856.6047 
  154400    355.20784   -4922.2898    64.922703   -4857.3671 
  154600    356.28213   -4919.4584    65.119055   -4854.3393 
  154800    362.03059   -4921.0838    66.169723    -4854.914 
  155000    360.70611   -4921.1988    65.927643   -4855.2711 
  155200    355.15049   -4920.2404    64.912221   -4855.3282 
  155400     349.6963   -4920.7714    63.915338    -4856.856 
  155600    350.64959    -4920.174    64.089575   -4856.0844 
  155800    362.93166   -4919.6365    66.334416    -4853.302 
  156000    358.44899   -4920.7556      65.5151   -4855.2405 
  156200    359.86244   -4922.3079    65.773442   -4856.5344 
  156400    362.95123   -4921.8234    66.337992   -4855.4854 
  156600    349.85106   -4920.2906    63.943623    -4856.347 
  156800    356.78644   -4919.6237    65.211229   -4854.4125 
  157000    361.53866   -4919.7854    66.079812   -4853.7056 
  157200    351.88926   -4922.4149    64.316153   -4858.0987 
  157400    359.80019   -4919.8697    65.762064   -4854.1076 
  157600    356.14457   -4918.3062    65.093912   -4853.2123 
  157800    347.82147   -4921.0696    63.572667    -4857.497 
  158000    363.73799   -4922.5217     66.48179   -4856.0399 
  158200    358.10989   -4919.3288    65.453121   -4853.8757 
  158400    353.78826   -4918.5639    64.663241   -4853.9007 
  158600     341.5475   -4919.1508     62.42595   -4856.7249 
  158800    343.82166   -4919.6781    62.841607   -4856.8365 
  159000    358.64091   -4918.5377    65.550178   -4852.9875 
  159200    360.01069   -4919.6579    65.800537   -4853.8573 
  159400    345.33571   -4921.6532    63.118336   -4858.5349 
  159600    360.89928    -4919.924    65.962949   -4853.9611 
  159800    362.95779   -4918.0329     66.33919   -4851.6937 
  160000    354.75125     -4920.31     64.83925   -4855.4708 
  160200    356.74705   -4920.5215     65.20403   -4855.3175 
  160400    362.59236   -4921.5332    66.272401   -4855.2608 
  160600    351.62431   -4920.3365    64.267726   -4856.0688 
  160800     354.8466   -4919.4004    64.856677   -4854.5438 
  161000    345.74614   -4917.5483    63.193352   -4854.3549 
  161200    357.68638   -4918.5501    65.375715   -4853.1744 
  161400    360.39102   -4918.5742    65.870053   -4852.7042 
  161600    349.93836   -4920.1658     63.95958   -4856.2062 
  161800    362.45163   -4920.5491    66.246679   -4854.3024 
  162000    348.02658   -4917.6463    63.610156   -4854.0362 
  162200    360.90817   -4920.6825    65.964573    -4854.718 
  162400    351.25301   -4919.2369    64.199864    -4855.037 
  162600    373.01274   -4921.1014    68.176972   -4852.9244 
  162800    352.42982   -4920.1087    64.414953   -4855.6938 
  163000    353.92482   -4920.2637      64.6882   -4855.5755 
  163200    369.34311   -4920.5345     67.50626   -4853.0282 
  163400     355.2948   -4917.9474    64.938596   -4853.0088 
  163600     354.9174   -4919.4921    64.869618   -4854.6225 
  163800    351.35873   -4919.1145    64.219186   -4854.8953 
  164000    354.12026    -4918.998    64.723922   -4854.2741 
  164200    362.75433   -4920.6364    66.302004   -4854.3344 
  164400    361.57364   -4921.5352    66.086205   -4855.4489 
  164600    354.97675   -4919.4325    64.880465    -4854.552 
  164800    371.28336   -4919.5817    67.860887   -4851.7208 
  165000    349.09618   -4917.9805     63.80565   -4854.1749 
  165200    351.29524   -4919.0724    64.207582   -4854.8648 
  165400    375.76148   -4919.6753    68.679371   -4850.9959 
  165600    354.62658   -4922.0068    64.816463   -4857.1903 
  165800    361.98931   -4921.9098    66.162177   -4855.7477 
  166000    362.84903   -4917.1435    66.319312   -4850.8242 
  166200    356.20428   -4919.4149    65.104826   -4854.3101 
  166400    359.93149   -4920.3898    65.786062   -4854.6038 
  166600    365.13856   -4919.3751    66.737779   -4852.6373 
  166800    349.27727   -4920.6552    63.838749   -4856.8165 
  167000    358.89863   -4920.6146    65.597282   -4855.0173 
  167200     365.6449   -4915.8639    66.830324   -4849.0335 
  167400    350.05284   -4919.0307    63.980504   -4855.0502 
  167600     351.1879   -4921.1691    64.187963   -4856.9811 
  167800    372.13978   -4918.3958    68.017418   -4850.3784 
  168000    358.94841   -4918.9253    65.606381   -4853.3189 
  168200    351.36628   -4920.4013    64.220565   -4856.1807 
  168400    355.69236    -4917.453     65.01126   -4852.4417 
  168600    346.22233   -4917.1561    63.280387   -4853.8758 
  168800    369.64122   -4919.3477    67.560747    -4851.787 
  169000    354.51003   -4920.2762    64.795161   -4855.4811 
  169200    355.78812    -4921.785    65.028763   -4856.7562 
  169400    361.38628   -4915.6507     66.05196   -4849.5987 
  169600    359.63625    -4918.512      65.7321   -4852.7799 
  169800    342.42177   -4922.0168    62.585744   -4859.4311 
  170000    366.62078   -4919.3174     67.00869   -4852.3087 
  170200    360.44931   -4916.1959    65.880707   -4850.3152 
  170400    350.56848   -4920.2846    64.074748   -4856.2099 
  170600    361.60537    -4920.066    66.092004    -4853.974 
  170800    364.37656   -4917.9562    66.598504   -4851.3577 
  171000    355.76888   -4917.1369    65.025246   -4852.1117 
  171200    368.95764   -4919.8383    67.435807   -4852.4025 
  171400    350.78785   -4921.1616    64.114845   -4857.0468 
  171600    360.58213   -4917.7694    65.904983   -4851.8645 
  171800    363.27535   -4915.6094    66.397232   -4849.2122 
  172000    346.66694   -4919.0601     63.36165   -4855.6985 
  172200      363.273   -4918.1922    66.396803   -4851.7954 
  172400    372.24896   -4916.1388    68.037374   -4848.1014 
  172600    342.88838   -4920.2994    62.671027   -4857.6284 
  172800    363.04725   -4921.1229    66.355542   -4854.7673 
  173000    365.45832   -4916.4089    66.796222   -4849.6127 
  173200    362.61187   -4920.2205    66.275966   -4853.9445 
  173400    355.51828   -4919.4034    64.979443   -4854.4239 
  173600    377.48689   -4919.4574    68.994731   -4850.4627 
  173800    355.65957   -4920.6362    65.005268   -4855.6309 
  174000    361.78014   -4921.5825    66.123947   -4855.4586 
  174200    368.41587    -4917.578    67.336786   -4850.2412 
  174400    374.19083   -4920.7632    68.392296   -4852.3709 
  174600    353.32513   -4918.0163    64.578593   -4853.4377 
  174800    356.71876   -4916.2978     65.19886    -4851.099 
  175000    355.07018   -4917.8886    64.897543   -4852.9911 
  175200    356.91942   -4919.7849    65.235535   -4854.5494 
  175400    357.07534    -4918.866    65.264033   -4853.6019 
  175600    367.05805   -4917.8113    67.088612   -4850.7227 
  175800    367.27094    -4919.623    67.127521   -4852.4955 
  176000    364.53579   -4920.9643    66.627608   -4854.3367 
  176200    364.32289   -4917.6997    66.588695    -4851.111 
  176400    368.57203   -4919.5456    67.365327   -4852.1802 
  176600     351.7852   -4917.8383    64.297133   -4853.5411 
  176800    361.82609    -4917.688    66.132345   -4851.5556 
  177000    366.59873    -4918.076     67.00466   -4851.0713 
  177200    362.40875   -4919.0557    66.238841   -4852.8169 
  177400    363.17749    -4918.434    66.379346   -4852.0546 
  177600    361.95595    -4919.017     66.15608   -4852.8609 
  177800    358.43211   -4918.0749    65.512014   -4852.5628 
  178000    367.67213   -4918.5677     67.20085   -4851.3668 
  178200    358.95629    -4920.561    65.607822   -4854.9532 
  178400    372.28304   -4920.8743    68.043602   -4852.8307 
  178600    365.28669   -4919.2216    66.764853   -4852.4567 
  178800     359.9499   -4919.1177    65.789427   -4853.3283 
  179000    349.94056   -4918.3552    63.959981   -4854.3952 
  179200    360.08044   -4918.5421    65.813287   -4852.7288 
  179400    365.91063   -4917.2338    66.878892   -4850.3549 
  179600    361.24836   -4919.4979    66.026751   -4853.4711 
  179800    356.38676   -4919.9927    65.138178   -4854.8545 
  180000    369.39518   -4919.7139    67.515778   -4852.1981 
  180200    362.26681    -4919.787    66.212898   -4853.5742 
  180400    364.65659   -4918.8808    66.649688   -4852.2311 
  180600    367.36162    -4915.847    67.144095   -4848.7029 
  180800    356.62075   -4919.3634    65.180946   -4854.1824 
  181000    365.44656   -4919.1465    66.794072   -4852.3524 
  181200    369.58781   -4919.4003    67.550985   -4851.8493 
  181400    348.79085   -4920.1661    63.749844   -4856.4162 
  181600    379.39967   -4920.1928    69.344337   -4850.8484 
  181800    372.39301    -4918.311    68.063703   -4850.2473 
  182000    357.31232   -4919.9797    65.307346   -4854.6723 
  182200    359.23993   -4917.9542    65.659663   -4852.2946 
  182400    364.16542   -4917.6573    66.559913   -4851.0974 
  182600    348.70437    -4917.516    63.734038    -4853.782 
  182800    372.27923   -4918.2618    68.042907   -4850.2189 
  183000     372.5812   -4918.2983    68.098098   -4850.2002 
  183200    358.93967   -4920.5721    65.604784   -4854.9673 
  183400    365.96373   -4919.8702    66.888598   -4852.9816 
  183600    369.33416   -4919.2738    67.504624   -4851.7691 
  183800    358.22364   -4917.5396    65.473913   -4852.0657 
  184000    358.90106   -4916.0021    65.597726   -4850.4044 
  184200    357.39558   -4916.4298    65.322565   -4851.1072 
  184400    361.45409   -4921.1756    66.064355   -4855.1112 
  184600    363.67747   -4918.9259     66.47073   -4852.4552 
  184800     380.9083   -4919.1097    69.620074   -4849.4897 
  185000    355.85304   -4918.2741    65.040628   -4853.2334 
  185200    367.60385   -4917.7701     67.18837   -4850.5818 
  185400     368.0542    -4917.295    67.270681   -4850.0243 
  185600    352.16689   -4920.1682    64.366896   -4855.8013 
  185800    364.90847   -4919.5564    66.695723   -4852.8607 
  186000    368.58628   -4917.3011    67.367932   -4849.9332 
  186200    360.46187   -4918.2945    65.883002   -4852.4115 
  186400    365.84485   -4918.3247    66.866869   -4851.4578 
  186600    368.99587     -4918.48    67.442794   -4851.0372 
  186800    355.90778   -4917.2652    65.050633   -4852.2146 
  187000     370.4657   -4919.9304    67.711441    -4852.219 
  187200    364.39689    -4918.529     66.60222   -4851.9267 
  187400    378.93009    -4920.543     69.25851   -4851.2845 
  187600    362.08158   -4918.0562    66.179042   -4851.8771 
  187800    359.72675   -4918.6642    65.748641   -4852.9156 
  188000    367.83717   -4915.9197    67.231014   -4848.6887 
  188200    376.36734   -4918.7214    68.790106   -4849.9313 
  188400    345.05672   -4920.3218    63.067344   -4857.2545 
  188600    373.34185   -4917.4931    68.237126    -4849.256 
  188800    368.33221   -4917.6531    67.321495   -4850.3316 
  189000    356.76023   -4920.2801    65.206439   -4855.0736 
  189200     363.9248   -4915.7993    66.515935   -4849.2834 
  189400    372.02227   -4919.4658    67.995941   -4851.4699 
  189600    366.47173   -4919.3882    66.981447   -4852.4068 
  189800    373.12629   -4918.3463    68.197726   -4850.1485 
  190000    359.27049   -4918.6913     65.66525   -4853.0261 
  190200    363.70182    -4917.318     66.47518   -4850.8428 
  190400    357.15227   -4914.6255    65.278094   -4849.3474 
  190600    362.78393   -4917.5501    66.307414   -4851.2427 
  190800    371.78769   -4919.9875    67.953065   -4852.0344 
  191000      366.923   -4918.0928    67.063927   -4851.0288 
  191200    371.44075   -4918.2975    67.889655   -4850.4079 
  191400    359.00186   -4915.9494     65.61615   -4850.3333 
  191600      367.978   -4921.1823    67.256755   -4853.9256 
  191800    357.13297   -4915.6555    65.274566   -4850.3809 
  192000    368.55259   -4915.8906    67.361774   -4848.5288 
  192200    359.00631   -4920.3872    65.616963   -4854.7702 
  192400    369.93317   -4917.7441    67.614108     -4850.13 
  192600    368.68712   -4914.6799    67.386363   -4847.2935 
  192800    368.98307   -4919.1922    67.440454   -4851.7518 
  193000    373.17878   -4918.6892    68.207321   -4850.4819 
  193200    370.96735   -4917.2168    67.803129   -4849.4137 
  193400     372.9132   -4920.6148    68.158779    -4852.456 
  193600    380.91054   -4920.2128    69.620484   -4850.5923 
  193800    362.23022   -4918.4765     66.20621   -4852.2703 
  194000      368.793    -4918.109    67.405714   -4850.7033 
  194200    363.13651   -4916.2093    66.371856   -4849.8375 
  194400    374.08001   -4920.2103    68.372041   -4851.8383 
  194600    369.54322    -4920.214    67.542835   -4852.6711 
  194800     381.5713   -4917.9212    69.741254     -4848.18 
  195000    365.31103   -4915.7276    66.769301   -4848.9583 
  195200    370.61435   -4919.0736    67.738609    -4851.335 
  195400    376.26801   -4918.0198    68.771952   -4849.2478 
  195600    363.31829   -4917.8395    66.405082   -4851.4344 
  195800    368.08685   -4918.6677    67.276649   -4851.3911 
  196000    378.87859   -4917.5075    69.249097   -4848.2584 
  196200     366.2509   -4917.0285    66.941086   -4850.0874 
  196400    365.70701    -4919.131    66.841677   -4852.2893 
  196600     367.2922   -4917.8082    67.131408   -4850.6768 
  196800    369.20631   -4917.7579    67.481256   -4850.2766 
  197000     380.5733   -4919.4143    69.558845   -4849.8554 
  197200    367.56723   -4918.7932    67.181675   -4851.6115 
  197400     373.1996   -4918.1766    68.211126   -4849.9655 
  197600    365.10837   -4915.9395    66.732261   -4849.2073 
  197800    376.87988   -4918.2412    68.883785   -4849.3574 
  198000    361.66162   -4918.4512    66.102286    -4852.349 
  198200    365.78289   -4917.8203    66.855545   -4850.9647 
  198400    376.01672   -4915.8429    68.726022   -4847.1169 
  198600     370.6747   -4917.6198     67.74964   -4849.8701 
  198800    363.67115   -4919.4479    66.469575   -4852.9783 
  199000    366.31272   -4917.3489    66.952385   -4850.3965 
  199200    376.88065   -4917.3651    68.883926   -4848.4812 
  199400    371.50173   -4918.3138      67.9008    -4850.413 
  199600    354.86764   -4916.5819    64.860524   -4851.7214 
  199800    383.09391   -4917.4929    70.019548   -4847.4734 
  200000    368.06365     -4915.32    67.272409   -4848.0476 
  200200    371.19811   -4918.6955    67.845306   -4850.8502 
  200400    362.50673   -4918.4058    66.256749    -4852.149 
  200600    364.03116   -4917.4362    66.535374   -4850.9008 
  200800    366.92149   -4916.9842    67.063651   -4849.9205 
  201000    370.56948   -4917.2892    67.730408   -4849.5588 
  201200    358.76337   -4916.9888    65.572561   -4851.4163 
  201400    368.57881    -4916.658    67.366566   -4849.2915 
  201600    386.62904   -4917.4896    70.665677   -4846.8239 
  201800    362.03171   -4920.7265    66.169928   -4854.5566 
  202000    382.62385   -4920.3952    69.933633   -4850.4615 
  202200    383.63503   -4916.7261    70.118449   -4846.6076 
  202400     371.5826   -4918.1148    67.915581   -4850.1992 
  202600     363.2442    -4917.884     66.39154   -4851.4925 
  202800    366.54102   -4919.1821    66.994112    -4852.188 
  203000    375.71361    -4917.427    68.670622   -4848.7564 
  203200    374.48434     -4916.71    68.445943   -4848.2641 
  203400    367.61496   -4919.5366      67.1904   -4852.3462 
  203600    369.11737   -4916.9134    67.465001   -4849.4484 
  203800    379.45879   -4916.9112    69.355143   -4847.5561 
  204000    372.53536    -4920.699    68.089719   -4852.6093 
  204200    373.34465   -4917.8542    68.237638   -4849.6166 
  204400    377.18576   -4917.6149    68.939691   -4848.6752 
  204600    368.73775   -4918.7459    67.395616   -4851.3503 
  204800    367.63889   -4916.9374    67.194773   -4849.7427 
  205000    383.63453   -4917.9531    70.118358   -4847.8347 
  205200    371.58244   -4918.2106    67.915551    -4850.295 
  205400    361.62457    -4917.429    66.095512   -4851.3335 
  205600    373.95703   -4917.6107    68.349565   -4849.2611 
  205800    378.32791   -4918.8355    69.148446    -4849.687 
  206000     376.6095    -4919.717    68.834366   -4850.8826 
  206200    375.69729    -4918.194    68.667639   -4849.5264 
  206400    373.45932   -4918.7779    68.258595   -4850.5193 
  206600    367.83475   -4917.0273    67.230572   -4849.7967 
  206800    370.63111   -4916.3509    67.741672   -4848.6092 
  207000    372.44132   -4918.5005    68.072533    -4850.428 
  207200    376.25136   -4919.8044    68.768908   -4851.0355 
  207400    372.02446   -4916.8955    67.996342   -4848.8992 
  207600    367.96735   -4916.2785    67.254808   -4849.0237 
  207800    372.07459   -4917.7597    68.005504   -4849.7542 
  208000    373.55114   -4916.7043    68.275379    -4848.429 
  208200    357.53382   -4917.6381    65.347831   -4852.2903 
  208400    373.38331   -4918.2587    68.244703    -4850.014 
  208600    382.89406   -4915.9085    69.983019   -4845.9255 
  208800    362.82652   -4918.7045    66.315197   -4852.3893 
  209000    377.79687   -4918.7414    69.051387     -4849.69 
  209200     375.1061   -4916.2523    68.559584   -4847.6927 
  209400    368.27248   -4918.9757    67.310578   -4851.6652 
  209600      371.307   -4916.5051    67.865208   -4848.6399 
  209800    380.84078   -4920.3002    69.607733   -4850.6924 
  210000    378.59363   -4919.2733    69.197014   -4850.0763 
  210200     378.7665   -4915.8686     69.22861     -4846.64 
  210400     363.7076   -4918.0183    66.476237   -4851.5421 
  210600    375.41393   -4916.9916    68.615847   -4848.3757 
  210800    388.30215   -4919.1692    70.971477   -4848.1977 
  211000    369.86869   -4920.5164    67.602322   -4852.9141 
  211200    370.42759   -4915.2891    67.704475   -4847.5846 
  211400    373.78318   -4914.5801    68.317788   -4846.2623 
  211600    348.23968   -4914.9471    63.649106    -4851.298 
  211800    383.14936   -4917.7609    70.029682   -4847.7312 
  212000    379.46253   -4918.4117    69.355825   -4849.0559 
  212200     376.9381   -4919.4008    68.894426   -4850.5064 
  212400    369.56506   -4916.9139    67.546828   -4849.3671 
  212600    372.45563   -4916.5053    68.075147   -4848.4302 
  212800    373.32729   -4915.7999    68.234465   -4847.5655 
  213000    377.82634    -4916.379    69.056773   -4847.3222 
  213200    382.83935   -4918.1013     69.97302   -4848.1282 
  213400    377.54689   -4919.5785    69.005697   -4850.5728 
  213600    362.63998   -4915.4087    66.281103   -4849.1276 
  213800    373.10635   -4913.5884    68.194082   -4845.3943 
  214000    388.48354   -4919.3466     71.00463    -4848.342 
  214200    375.20563    -4919.363    68.577775   -4850.7852 
  214400    377.69871   -4915.7396    69.033446   -4846.7061 
  214600    380.23382   -4917.5096    69.496798   -4848.0128 
  214800    363.86731   -4917.1177    66.505427   -4850.6123 
  215000    377.81119   -4916.9876    69.054005   -4847.9336 
  215200     371.9914   -4916.0158    67.990298   -4848.0255 
  215400    378.48426   -4918.1411    69.177023   -4848.9641 
  215600    381.11004    -4916.956    69.656947   -4847.2991 
  215800    374.49908   -4917.0792    68.448636   -4848.6306 
  216000    369.37794   -4914.2012    67.512626   -4846.6886 
  216200    365.53247   -4916.5566    66.809774   -4849.7468 
  216400    379.43834   -4920.4169    69.351405   -4851.0655 
  216600     388.3104   -4916.7147    70.972985   -4845.7418 
  216800    374.42258   -4915.8511    68.434655   -4847.4164 
  217000    373.33491   -4917.9606    68.235857   -4849.7247 
  217200    373.35983   -4916.6099    68.240411   -4848.3695 
  217400    363.88301   -4913.7418    66.508297   -4847.2335 
  217600    377.72904    -4917.172    69.038989    -4848.133 
  217800    383.83976   -4918.6345    70.155869   -4848.4787 
  218000    373.63595   -4916.7898     68.29088    -4848.499 
  218200    377.72318    -4915.365    69.037917   -4846.3271 
  218400    368.56021   -4915.9509    67.363167   -4848.5878 
  218600    364.76865   -4917.3026    66.670169   -4850.6324 
  218800    384.60276   -4915.9187    70.295326   -4845.6233 
  219000    378.88661   -4915.2207    69.250562   -4845.9701 
  219200    376.73618   -4918.1482    68.857521   -4849.2907 
  219400    376.10562   -4916.9142     68.74227   -4848.1719 
  219600    374.01402   -4915.6716    68.359981   -4847.3116 
  219800    372.06642   -4917.0253    68.004011   -4849.0213 
  220000     391.1658   -4917.0317    71.494878   -4845.5368 
  220200    370.30838   -4917.4561    67.682686   -4849.7734 
  220400    375.23743   -4915.1601    68.583588   -4846.5766 
  220600    395.09112   -4915.4017    72.212323   -4843.1894 
  220800    370.61715   -4917.4243    67.739121   -4849.6852 
  221000    377.31113   -4918.4474    68.962605   -4849.4848 
  221200    375.44265   -4915.2352    68.621097   -4846.6141 
  221400    382.70221   -4915.2594    69.947955   -4845.3115 
  221600     368.2298   -4916.7261    67.302776   -4849.4233 
  221800    374.30018   -4917.0936    68.412283   -4848.6813 
  222000    380.92825   -4913.4834     69.62372   -4843.8597 
  222200    375.18685   -4916.0339    68.574344   -4847.4595 
  222400    373.92799   -4917.8909    68.344257   -4849.5466 
  222600    383.43219    -4915.493    70.081375   -4845.4117 
  222800     374.4408   -4917.0393    68.437984   -4848.6013 
  223000    380.50899   -4917.6333    69.547091   -4848.0862 
  223200    385.40545   -4916.5114    70.442036   -4846.0694 
  223400    370.33412   -4917.5756    67.687392   -4849.8882 
  223600    367.77875   -4913.5499    67.220337   -4846.3296 
  223800    395.77856    -4914.341    72.337969   -4842.0031 
  224000     367.5074   -4917.1038     67.17074   -4849.9331 
  224200    381.28935   -4917.6411     69.68972   -4847.9514 
  224400    384.63826   -4913.9949    70.301814   -4843.6931 
  224600    369.61463   -4918.8627    67.555887   -4851.3068 
  224800    369.04315   -4917.5686    67.451435   -4850.1172 
  225000    398.41427   -4915.9047    72.819709    -4843.085 
  225200    369.25019   -4915.1318    67.489276   -4847.6425 
  225400    370.05814   -4918.1014     67.63695   -4850.4644 
  225600    371.05926   -4917.2306    67.819927   -4849.4107 
  225800    376.66014   -4916.6397    68.843623   -4847.7961 
  226000    384.25842   -4916.3135    70.232389   -4846.0811 
  226200    366.87487   -4915.3633     67.05513   -4848.3082 
  226400    373.82141   -4917.4536    68.324777   -4849.1289 
  226600    391.75739   -4916.3311    71.603004   -4844.7281 
  226800    378.16835   -4917.2935    69.119283   -4848.1742 
  227000    375.18613   -4917.8657    68.574211   -4849.2915 
  227200    382.24739   -4914.4096    69.864826   -4844.5448 
  227400    369.94108   -4915.0247    67.615554   -4847.4091 
  227600    381.44094   -4917.1008    69.717427   -4847.3834 
  227800    379.83539   -4914.4839    69.423975     -4845.06 
  228000    373.73183   -4916.8686    68.308404   -4848.5602 
  228200    387.69238    -4916.695    70.860027    -4845.835 
  228400    385.11171   -4915.4345    70.388347   -4845.0462 
  228600    378.56865   -4918.3722    69.192448   -4849.1798 
  228800    379.87416   -4916.4623     69.43106   -4847.0312 
  229000    383.75515    -4917.732    70.140404   -4847.5916 
  229200    367.95674   -4915.4902    67.252869   -4848.2373 
  229400    386.55002   -4916.1687    70.651234   -4845.5175 
  229600    385.00164   -4915.6934     70.36823   -4845.3251 
  229800    379.60472   -4916.8158    69.381815    -4847.434 
  230000    385.58018   -4917.7877    70.473971   -4847.3138 
  230200      380.412   -4916.4686    69.529364   -4846.9392 
  230400    378.80131   -4916.7059    69.234971   -4847.4709 
  230600    372.75516   -4914.8714    68.129893   -4846.7415 
  230800    381.16845   -4915.5026    69.667624    -4845.835 
  231000    375.29614   -4915.3251    68.594318   -4846.7308 
  231200    389.67474   -4917.0401    71.222351   -4845.8177 
  231400    376.00423   -4914.9212     68.72374   -4846.1974 
  231600    369.32779   -4915.6949    67.503459   -4848.1914 
  231800    396.66515   -4918.1133    72.500014   -4845.6133 
  232000    377.39463   -4916.6754    68.977868   -4847.6975 
  232200     376.2595   -4913.9673    68.770395    -4845.197 
  232400    386.59036   -4914.2424    70.658607   -4843.5838 
  232600    375.24278   -4917.3859    68.584566   -4848.8014 
  232800    397.04738   -4918.0892    72.569876   -4845.5193 
  233000    381.36212   -4913.7837    69.703022   -4844.0806 
  233200    389.75005   -4917.1596    71.236114   -4845.9234 
  233400    392.77924   -4918.8695    71.789772   -4847.0797 
  233600    383.63373   -4917.9502    70.118213    -4847.832 
  233800    375.89102   -4912.9319    68.703046   -4844.2288 
  234000     390.7545   -4915.7971    71.419703   -4844.3774 
  234200    387.23896   -4918.6534    70.777154   -4847.8763 
  234400    381.74879   -4916.6285    69.773694   -4846.8548 
  234600    383.37987   -4914.4926    70.071813   -4844.4208 
  234800    373.97655   -4916.2676    68.353133   -4847.9145 
  235000    388.81389    -4914.449     71.06501    -4843.384 
  235200    379.55435   -4913.0505    69.372608   -4843.6779 
  235400    364.47077   -4915.7322    66.615724   -4849.1165 
  235600    388.04985   -4913.2903    70.925363    -4842.365 
  235800    388.29808   -4914.9422    70.970734   -4843.9715 
  236000    368.57933   -4915.9632    67.366662   -4848.5965 
  236200     393.7982   -4916.3285    71.976012   -4844.3525 
  236400    388.83012   -4916.7289    71.067977   -4845.6609 
  236600    386.86716   -4917.3677    70.709199   -4846.6585 
  236800    389.43271   -4915.7958    71.178115   -4844.6177 
  237000    379.02945    -4915.836    69.276669   -4846.5594 
  237200    397.41027   -4916.1648    72.636204   -4843.5286 
  237400    387.84757   -4915.6666    70.888392   -4844.7782 
  237600     370.9699   -4917.9939    67.803596   -4850.1903 
  237800    390.81639   -4914.7081    71.431014   -4843.2771 
  238000    394.86621   -4914.6721    72.171216   -4842.5008 
  238200    372.71608   -4918.0329    68.122751   -4849.9101 
  238400    387.55149   -4916.8056    70.834275   -4845.9714 
  238600    382.08772   -4914.2674    69.835641   -4844.4317 
  238800    378.38653   -4916.3801    69.159161   -4847.2209 
  239000    383.38808   -4915.0174    70.073313   -4844.9441 
  239200    374.91185   -4913.5168     68.52408   -4844.9927 
  239400    375.39719   -4916.2763    68.612788   -4847.6635 
  239600     404.9722   -4917.5748    74.018326   -4843.5565 
  239800    378.63197   -4915.6201    69.204021    -4846.416 
  240000    383.13486   -4915.7693    70.027031   -4845.7423 
  240200    389.61945   -4915.4479    71.212246   -4844.2356 
  240400    383.13646   -4919.0224    70.027325   -4848.9951 
  240600    391.32354   -4916.8298    71.523709   -4845.3061 
  240800    386.97386   -4915.1491      70.7287   -4844.4204 
  241000    381.18066   -4916.7962    69.669856   -4847.1264 
  241200    387.49809   -4915.4116    70.824517   -4844.5871 
  241400    383.29672   -4911.7907    70.056615   -4841.7341 
  241600    368.08838   -4914.0418    67.276928   -4846.7649 
  241800    378.10247   -4916.2809    69.107242   -4847.1737 
  242000    383.90639   -4914.1354    70.168047   -4843.9674 
  242200    389.15228   -4916.0027    71.126858   -4844.8758 
  242400    383.17785   -4914.8929    70.034889    -4844.858 
  242600    377.31106   -4915.0538    68.962593   -4846.0912 
  242800    379.33643   -4916.2725    69.332777   -4846.9397 
  243000     386.1124   -4914.0729    70.571248   -4843.5016 
  243200    384.02321   -4914.7526    70.189398   -4844.5632 
  243400    375.94246   -4914.6438    68.712448   -4845.9314 
  243600    397.79677   -4916.5733    72.706845   -4843.8664 
  243800    389.63076   -4917.1809    71.214312   -4845.9665 
  244000    392.32313   -4917.1189    71.706406   -4845.4125 
  244200    382.75321   -4914.6876    69.957276   -4844.7303 
  244400       385.18   -4913.8565     70.40083   -4843.4557 
  244600    378.10517   -4915.7134    69.107737   -4846.6057 
  244800    384.91716   -4914.9652     70.35279   -4844.6124 
  245000    388.59472   -4914.7676    71.024951   -4843.7426 
  245200    373.01638   -4913.0986    68.177637   -4844.9209 
  245400    395.93359   -4916.1741    72.366304   -4843.8078 
  245600    384.92343   -4915.1614    70.353935   -4844.8075 
  245800    394.47013   -4914.7866    72.098822   -4842.6878 
  246000    381.56123   -4914.5593    69.739414   -4844.8199 
  246200    390.61327   -4917.6653    71.393889   -4846.2714 
  246400     386.3719    -4916.732    70.618678   -4846.1133 
  246600    387.23627   -4916.2471    70.776661   -4845.4704 
  246800    392.47502   -4914.1408    71.734169   -4842.4066 
  247000    392.08327   -4916.0117    71.662567   -4844.3491 
  247200    385.80392   -4918.1748    70.514866   -4847.6599 
  247400    388.18685   -4914.7058    70.950404   -4843.7554 
  247600    384.42636    -4913.103    70.263083   -4842.8399 
  247800    377.83859   -4917.2647    69.059011   -4848.2057 
  248000    385.60253   -4915.2603    70.478057   -4844.7823 
  248200    385.87586    -4912.974    70.528015    -4842.446 
  248400    384.58123   -4915.9743    70.291391    -4845.683 
  248600    402.10384   -4916.7109    73.494065   -4843.2168 
  248800    391.87353    -4916.275    71.624233   -4844.6508 
  249000    382.06149   -4916.0998    69.830847   -4846.2689 
  249200    390.78203   -4910.3482    71.424734   -4838.9234 
  249400    390.99693   -4916.5736    71.464013   -4845.1096 
  249600    385.71857   -4920.3415    70.499266   -4849.8423 
  249800    393.67853   -4912.9998    71.954139   -4841.0457 
  250000    388.58918   -4913.4588    71.023939   -4842.4349 
  250200    387.66435   -4918.7836    70.854904   -4847.9287 
  250400    383.46784   -4914.5481    70.087891   -4844.4602 
  250600    392.58029   -4915.3481    71.753409   -4843.5946 
  250800    377.88491   -4913.3577    69.067478   -4844.2902 
  251000    388.37788   -4914.2033    70.985318    -4843.218 
  251200    368.83156   -4916.1856    67.412762   -4848.7729 
  251400    393.19326    -4916.677    71.865444   -4844.8116 
  251600      387.869   -4912.4977    70.892308   -4841.6054 
  251800      373.993   -4916.0261    68.356139     -4847.67 
  252000    392.34948    -4915.187    71.711223   -4843.4758 
  252200    401.54961   -4913.5803    73.392766   -4840.1876 
  252400    383.56134   -4917.1706    70.104981   -4847.0656 
  252600    377.99005   -4915.0548    69.086695   -4845.9681 
  252800    399.15754   -4913.7085    72.955558    -4840.753 
  253000    386.06427   -4916.0508    70.562452   -4845.4884 
  253200    387.33889   -4915.9057    70.795419   -4845.1102 
  253400    406.50658   -4915.5265     74.29877   -4841.2277 
  253600    380.71067   -4916.8656    69.583952   -4847.2817 
  253800    379.78992   -4913.5672    69.415664   -4844.1515 
  254000    394.39448   -4911.4312    72.084995   -4839.3462 
  254200    377.45544    -4916.342    68.988983    -4847.353 
  254400    383.51528   -4917.2045    70.096563    -4847.108 
  254600    398.22681   -4913.9461    72.785446   -4841.1606 
  254800    385.89521   -4917.3507    70.531551   -4846.8191 
  255000    382.71508   -4913.3785    69.950307   -4843.4282 
  255200    382.24142    -4912.729    69.863734   -4842.8653 
  255400    378.75613   -4914.4729    69.226715   -4845.2462 
  255600    407.49343   -4916.3053    74.479141   -4841.8261 
  255800     385.8979   -4916.4015    70.532044   -4845.8695 
  256000    392.67758   -4918.3554    71.771191   -4846.5843 
  256200    390.24393   -4912.5182    71.326384   -4841.1918 
  256400    391.61953   -4914.8566    71.577808   -4843.2788 
  256600    379.79368   -4915.2812    69.416351   -4845.8648 
  256800    396.75934   -4915.6281     72.51723   -4843.1109 
  257000    383.80361   -4913.5435    70.149262   -4843.3943 
  257200    388.97792   -4914.1951     71.09499   -4843.1001 
  257400    392.81223   -4916.0468    71.795802    -4844.251 
  257600    380.76759   -4915.0467    69.594356   -4845.4523 
  257800    393.97873    -4912.907    72.009008    -4840.898 
  258000    390.78509   -4914.7445    71.425293   -4843.3193 
  258200    397.11558   -4919.4165    72.582341   -4846.8341 
  258400    400.99639    -4915.735    73.291652   -4842.4433 
  258600    386.24623   -4914.5896    70.595708   -4843.9939 
  258800    382.78385   -4915.4431    69.962877   -4845.4803 
  259000    391.45712   -4915.9285    71.548124   -4844.3804 
  259200    395.63553   -4915.2585    72.311826   -4842.9466 
  259400    389.30286   -4913.9281    71.154381   -4842.7737 
  259600    382.71442   -4914.8457    69.950187   -4844.8955 
  259800    404.64547   -4917.8492    73.958608   -4843.8906 
  260000    400.34601   -4915.3983     73.17278   -4842.2255 
  260200    385.18798   -4912.3567    70.402288   -4841.9544 
  260400    388.24293   -4915.6889    70.960653   -4844.7282 
  260600    401.48372   -4917.1809    73.380724   -4843.8002 
  260800    394.38218   -4915.7438    72.082748    -4843.661 
  261000    396.07661   -4914.7797    72.392445   -4842.3873 
  261200    396.71013   -4915.7647    72.508236   -4843.2565 
  261400    384.41771   -4917.1269    70.261503   -4846.8654 
  261600    393.13197   -4913.0888    71.854242   -4841.2346 
  261800    395.38463   -4911.4414    72.265969   -4839.1755 
  262000    389.01155   -4918.8498    71.101138   -4847.7487 
  262200    388.40986   -4917.7066    70.991164   -4846.7155 
  262400    404.03349   -4913.7825    73.846755   -4839.9358 
  262600    393.71956   -4914.5535    71.961637   -4842.5919 
  262800    392.50236   -4917.3788    71.739165   -4845.6396 
  263000    390.17318   -4914.9805    71.313452   -4843.6671 
  263200     391.3725   -4913.7348    71.532658   -4842.2021 
  263400    387.00171   -4912.6009    70.733791   -4841.8671 
  263600    396.85127   -4917.0202    72.534032   -4844.4862 
  263800    378.60101   -4913.9538    69.198363   -4844.7554 
  264000    397.56811   -4913.5207    72.665052   -4840.8557 
  264200    389.73806   -4910.8288    71.233925   -4839.5949 
  264400     390.3069   -4916.3878    71.337893   -4845.0499 
  264600    389.14016   -4918.0757    71.124644    -4846.951 
  264800    394.73161   -4914.7979    72.146614   -4842.6513 
  265000    399.79367    -4913.878    73.071826   -4840.8062 
  265200    381.00546   -4913.7854    69.637833   -4844.1476 
  265400    391.10004   -4915.1721    71.482858   -4843.6893 
  265600    393.57673   -4914.8827    71.935533   -4842.9471 
  265800    388.41714   -4914.8494    70.992493   -4843.8569 
  266000    395.30821   -4913.3633    72.252001   -4841.1113 
  266200    396.76191   -4916.1348    72.517699   -4843.6171 
  266400    389.55532   -4919.1556    71.200523   -4847.9551 
  266600    403.61565   -4912.9291    73.770385   -4839.1587 
  266800    400.31422   -4912.0206    73.166969   -4838.8536 
  267000    383.41649   -4916.7031    70.078506   -4846.6246 
  267200    393.48259   -4915.6866    71.918326   -4843.7683 
  267400    401.36148    -4913.707    73.358381   -4840.3486 
  267600    386.26751   -4913.4592    70.599598   -4842.8596 
  267800    396.30524   -4916.8324    72.434233   -4844.3981 
  268000    390.05867   -4914.3264    71.292523   -4843.0338 
  268200    399.73769   -4914.2685    73.061595   -4841.2069 
  268400    400.83776   -4915.6581    73.262658   -4842.3954 
  268600    386.42687   -4915.4417    70.628725    -4844.813 
  268800    395.66082   -4913.7542    72.316449   -4841.4377 
  269000    402.53396   -4916.6963    73.572679   -4843.1237 
  269200    404.07749   -4915.8746    73.854797   -4842.0198 
  269400    394.83575    -4914.967    72.165648   -4842.8013 
  269600    387.93791   -4914.7642    70.904903   -4843.8593 
  269800    398.25701   -4914.8338    72.790966   -4842.0428 
  270000    393.87936   -4916.2492    71.990844   -4844.2584 
  270200    398.91983   -4915.7006    72.912111   -4842.7885 
  270400    396.28329   -4914.6397    72.430221   -4842.2095 
  270600    398.82779   -4917.6384    72.895288   -4844.7432 
  270800    402.15008   -4914.0582    73.502516   -4840.5557 
  271000    420.48832   -4915.5305    76.854267   -4838.6762 
  271200    381.18553   -4916.3335    69.670745   -4846.6628 
  271400    383.08552   -4912.6634    70.018014   -4842.6454 
  271600    391.86284    -4908.395    71.622279   -4836.7727 
  271800    399.30496   -4915.0589    72.982503   -4842.0764 
  272000     390.6461    -4914.563     71.39989   -4843.1631 
  272200    397.88579   -4913.0018    72.723115   -4840.2787 
  272400    391.99795   -4913.9771    71.646973   -4842.3301 
  272600    395.61759   -4914.8149    72.308548   -4842.5064 
  272800    389.96861   -4913.3321    71.276061   -4842.0561 
  273000    382.89209   -4911.3514     69.98266   -4841.3688 
  273200    392.57383   -4914.4151    71.752228   -4842.6629 
  273400    392.59871   -4917.3495    71.756776   -4845.5928 
  273600    387.81637   -4913.1468     70.88269   -4842.2641 
  273800    408.72617   -4913.8859    74.704454   -4839.1815 
  274000    383.01018   -4911.5977    70.004243   -4841.5935 
  274200    399.54524   -4916.6654     73.02642    -4843.639 
  274400    405.77488   -4916.4189    74.165034   -4842.2538 
  274600    391.85318   -4914.2924    71.620512   -4842.6719 
  274800    400.53142    -4915.803    73.206667   -4842.5963 
  275000    394.13702   -4914.8266    72.037938   -4842.7887 
  275200    399.61916   -4914.2244     73.03993   -4841.1844 
  275400    394.64449   -4913.0577    72.130691    -4840.927 
  275600    396.50789   -4915.9837    72.471272   -4843.5124 
  275800    393.55707   -4915.0775    71.931939   -4843.1455 
  276000    401.68867    -4914.889    73.418184   -4841.4708 
  276200    385.59935   -4913.2104    70.477476   -4842.7329 
  276400     397.7006   -4914.1235    72.689267   -4841.4343 
  276600    391.97607      -4912.3    71.642973   -4840.6571 
  276800    398.21469   -4914.7687     72.78323   -4841.9855 
  277000    395.66824   -4914.6758    72.317806    -4842.358 
  277200    395.24778    -4915.428    72.240956    -4843.187 
  277400    395.69903   -4916.0858    72.323433   -4843.7623 
  277600    395.07998   -4914.1331    72.210287   -4841.9228 
  277800    411.26993   -4915.2999    75.169386   -4840.1305 
  278000    401.84397   -4915.7917    73.446567   -4842.3451 
  278200    394.12852   -4916.0439    72.036384   -4844.0075 
  278400     384.6082   -4913.6471    70.296319   -4843.3508 
  278600    413.62213   -4913.5619    75.599307   -4837.9626 
  278800    409.31701   -4916.7833    74.812444   -4841.9708 
  279000    391.15811   -4915.3986    71.493473   -4843.9052 
  279200    402.96777   -4914.1812    73.651969   -4840.5292 
  279400    392.39556   -4913.0814    71.719645   -4841.3617 
  279600    390.37112   -4913.6361    71.349631   -4842.2864 
  279800    396.67896   -4913.9086    72.502539   -4841.4061 
  280000    406.34295   -4915.4113    74.268863   -4841.1424 
  280200    400.76802   -4915.6539    73.249912    -4842.404 
  280400    398.81794   -4916.0564    72.893489   -4843.1629 
  280600    391.62189   -4912.7308    71.578239   -4841.1525 
  280800    407.84323   -4915.7823    74.543075   -4841.2392 
  281000    385.99767   -4914.2206    70.550277   -4843.6703 
  281200    408.24456   -4914.0354    74.616428    -4839.419 
  281400    384.37595   -4913.3593    70.253871   -4843.1055 
  281600     392.2889   -4915.3222     71.70015   -4843.6221 
  281800    403.15918    -4911.477    73.686954   -4837.7901 
  282000    391.13079   -4912.3175    71.488478   -4840.8291 
  282200    382.20637   -4914.8036    69.857328   -4844.9463 
  282400    409.76091   -4914.2434    74.893578   -4839.3499 
  282600    405.22814   -4913.6914    74.065105   -4839.6263 
  282800     397.6311   -4916.7086    72.676566   -4844.0321 
  283000    404.11829   -4913.1402    73.862254    -4839.278 
  283200    390.42391   -4912.9633    71.359279   -4841.6041 
  283400    387.35446   -4913.5705    70.798264   -4842.7722 
  283600    409.92331   -4914.1496    74.923259   -4839.2263 
  283800    404.54684   -4915.0712    73.940581   -4841.1306 
  284000    387.69792    -4911.284    70.861039   -4840.4229 
  284200    405.48444   -4912.4778     74.11195   -4838.3659 
  284400    391.06581   -4917.8562    71.476602   -4846.3796 
  284600    400.26049   -4914.0207    73.157149   -4840.8635 
  284800    403.67155   -4908.8545    73.780602   -4835.0739 
  285000     380.4506   -4914.8559    69.536418   -4845.3195 
  285200    404.18994   -4915.4886    73.875349   -4841.6132 
  285400    416.81999    -4911.184    76.183793   -4835.0002 
  285600    404.12009   -4918.8432    73.862583   -4844.9806 
  285800    382.73781   -4914.5624    69.954461   -4844.6079 
  286000    416.74224   -4912.2181    76.169582   -4836.0485 
  286200    398.97381   -4914.1348    72.921977   -4841.2128 
  286400    408.06649   -4915.9971    74.583882   -4841.4132 
  286600     404.4672   -4917.5704    73.926025   -4843.6443 
  286800    403.01636   -4915.2901     73.66085   -4841.6293 
  287000    409.55981    -4911.354    74.856821   -4836.4972 
  287200     393.1205   -4915.4795    71.852145   -4843.6274 
  287400    387.21174   -4913.8436    70.772178   -4843.0714 
  287600    411.65884   -4909.2661    75.240469   -4834.0256 
  287800    397.72442   -4913.7525    72.693621   -4841.0589 
  288000    396.06466   -4915.9346    72.390261   -4843.5444 
  288200    419.55037   -4913.8064    76.682834   -4837.1235 
  288400    399.01654   -4913.6599    72.929787   -4840.7302 
  288600    396.71866   -4915.6793    72.509796   -4843.1695 
  288800    401.35397   -4911.3745    73.357008   -4838.0175 
  289000    394.95883   -4911.5757    72.188143   -4839.3876 
  289200    393.20883   -4913.3733    71.868289    -4841.505 
  289400    404.72831   -4914.6199    73.973749   -4840.6461 
  289600    391.43495   -4914.3585     71.54407   -4842.8145 
  289800    406.76656   -4912.3175    74.346287   -4837.9712 
  290000    408.03489   -4914.5904    74.578106   -4840.0123 
  290200    402.73087   -4915.7364     73.60867   -4842.1278 
  290400    406.86696   -4913.4002    74.364639   -4839.0355 
  290600    412.95494    -4916.724    75.477362   -4841.2466 
  290800    398.46223   -4913.1639    72.828474   -4840.3354 
  291000    418.30392   -4915.2839    76.455016   -4838.8288 
  291200    395.01513   -4917.1777    72.198435   -4844.9793 
  291400    406.00939   -4914.1978    74.207897   -4839.9899 
  291600    410.31445   -4914.9429     74.99475   -4839.9482 
  291800    400.18401   -4915.6212    73.143171    -4842.478 
  292000    421.38654   -4914.0504    77.018439    -4837.032 
  292200     401.2183   -4917.3532    73.332211    -4844.021 
  292400    397.73708   -4914.7896    72.695935   -4842.0937 
  292600    408.70605   -4909.0335    74.700777   -4834.3327 
  292800    406.23714   -4917.0529    74.249523   -4842.8034 
  293000    390.52238   -4915.7187    71.377277   -4844.3414 
  293200    422.30873   -4912.2921    77.186991   -4835.1051 
  293400    401.91482   -4912.9536    73.459517   -4839.4941 
  293600    401.42172   -4916.0001    73.369392   -4842.6307 
  293800    410.61235   -4913.9538    75.049199   -4838.9046 
  294000    400.01435   -4915.4574    73.112161   -4842.3453 
  294200    399.04991   -4912.5847    72.935886   -4839.6488 
  294400    413.77746   -4911.5304    75.627697   -4835.9027 
  294600    396.83502    -4915.891    72.531062   -4843.3599 
  294800    398.14793   -4914.2654    72.771028   -4841.4944 
  295000    412.76215     -4912.31    75.442126   -4836.8679 
  295200    405.14724   -4913.9986    74.050319   -4839.9483 
  295400    408.16943    -4913.623    74.602695   -4839.0203 
  295600    410.70184   -4913.0407    75.065555   -4837.9751 
  295800     401.1276   -4914.5851    73.315634   -4841.2695 
  296000    406.39493   -4913.9438    74.278364   -4839.6655 
  296200    397.92521    -4912.085     72.73032   -4839.3547 
  296400    406.72585   -4915.4701    74.338847   -4841.1313 
  296600    408.33977   -4914.2564    74.633829   -4839.6226 
  296800    402.54611   -4914.9572    73.574901   -4841.3823 
  297000    423.80576   -4916.6354    77.460609   -4839.1748 
  297200    415.27071   -4914.4228    75.900624   -4838.5221 
  297400     401.8371   -4912.1624    73.445312   -4838.7171 
  297600    399.71116   -4911.4892    73.056746   -4838.4324 
  297800    402.70738   -4914.7217    73.604377   -4841.1174 
  298000    408.33299   -4914.6465     74.63259   -4840.0139 
  298200    398.83914   -4912.1273    72.897364   -4839.2299 
  298400    399.70217   -4912.5563    73.055102   -4839.5012 
  298600    408.48022   -4911.3657    74.659501   -4836.7062 
  298800    403.02481   -4913.0925    73.662393   -4839.4301 
  299000    398.88729   -4914.0609    72.906163   -4841.1547 
  299200    404.71416   -4912.8357    73.971163   -4838.8646 
  299400    408.95238   -4910.0248    74.745799    -4835.279 
  299600    405.71514   -4914.1023    74.154117   -4839.9482 
  299800    392.74948   -4913.5395    71.784332   -4841.7551 
  300000     418.6452   -4911.1677    76.517393   -4834.6503 
  300200    403.98815   -4914.1848    73.838467   -4840.3463 
  300400    385.09163   -4911.3113    70.384678   -4840.9267 
  300600    409.99207   -4910.4533    74.935828   -4835.5175 
  300800    407.13017    -4914.631    74.412746   -4840.2182 
  301000     406.1364     -4912.42    74.231111   -4838.1889 
  301200    411.63117   -4911.8147    75.235412   -4836.5792 
  301400    405.34628   -4915.8364    74.086699   -4841.7497 
  301600    415.87841   -4913.6191    76.011696   -4837.6074 
  301800    403.52632   -4911.3929    73.754057   -4837.6388 
  302000    402.77707   -4913.2059    73.617114   -4839.5888 
  302200    414.61674   -4914.8852    75.781095   -4839.1041 
  302400    393.92769   -4911.2988    71.999679   -4839.2991 
  302600    424.68791   -4913.2549    77.621842    -4835.633 
  302800    413.11348   -4912.5064     75.50634   -4837.0001 
  303000    400.21728   -4914.3563    73.149252    -4841.207 
  303200    408.94013   -4911.4539     74.74356   -4836.7103 
  303400    408.06547   -4912.2119    74.583695   -4837.6282 
  303600    394.49805   -4914.6905    72.103926   -4842.5866 
  303800    419.52679   -4913.8198    76.678525   -4837.1413 
  304000    400.97533   -4913.2462    73.287803   -4839.9584 
  304200    407.59032   -4915.1075    74.496849   -4840.6107 
  304400    411.72835   -4913.3632    75.253174     -4838.11 
  304600    395.44988   -4912.4717    72.277895   -4840.1938 
  304800    409.23804   -4911.6987    74.798011   -4836.9007 
  305000    412.36768    -4913.519    75.370026   -4838.1489 
  305200    397.20503    -4913.052    72.598691   -4840.4534 
  305400    409.72751   -4909.7492    74.887472   -4834.8617 
  305600    415.54307   -4914.8079    75.950405   -4838.8575 
  305800    412.26873   -4917.5925    75.351941   -4842.2406 
  306000    413.18366   -4911.7172    75.519166    -4836.198 
  306200    415.68796   -4914.0901    75.976887   -4838.1132 
  306400    392.95962   -4912.0591    71.822741   -4840.2364 
  306600    428.41335   -4912.7706    78.302755   -4834.4679 
  306800    402.57057   -4914.4586     73.57937   -4840.8792 
  307000    413.57164   -4914.7268    75.590079   -4839.1368 
  307200    414.51883   -4911.2679    75.763201   -4835.5047 
  307400    393.32088   -4913.0758    71.888769    -4841.187 
  307600    412.90795   -4913.0639    75.468773   -4837.5951 
  307800    416.06166    -4908.963     76.04519   -4832.9178 
  308000    400.64917   -4914.2955     73.22819   -4841.0673 
  308200     396.9359   -4911.8321      72.5495   -4839.2826 
  308400    418.86735   -4908.2557    76.557996   -4831.6977 
  308600    390.83087   -4912.4472    71.433661   -4841.0135 
  308800    399.57112   -4912.1638    73.031149   -4839.1326 
  309000    409.43806    -4907.487    74.834569   -4832.6524 
  309200    398.61638   -4912.4549    72.856648   -4839.5983 
  309400    396.83305   -4911.9311    72.530702   -4839.4004 
  309600    421.77305   -4912.1251    77.089082    -4835.036 
  309800    397.19176    -4912.295    72.596265   -4839.6987 
  310000    423.12206   -4912.0766    77.335646    -4834.741 
  310200    423.35496   -4912.9058    77.378213   -4835.5276 
  310400    399.71281   -4916.4282    73.057047   -4843.3711 
  310600    421.53901   -4911.3113    77.046305    -4834.265 
  310800    411.40978   -4909.6407    75.194948   -4834.4457 
  311000    382.68357   -4913.7024    69.944547   -4843.7578 
  311200    426.78806   -4912.9489    78.005695   -4834.9432 
  311400    404.65279   -4910.2147    73.959947   -4836.2548 
  311600    403.45356    -4915.889    73.740759   -4842.1482 
  311800    425.59982     -4912.95    77.788516   -4835.1615 
  312000    405.61247   -4913.1713    74.135351    -4839.036 
  312200    412.93217   -4914.8045      75.4732   -4839.3313 
  312400    422.76308   -4912.3503    77.270033   -4835.0803 
  312600    401.02893   -4912.2689    73.297599   -4838.9713 
  312800    399.40738   -4910.7106    73.001223   -4837.7094 
  313000    415.61325    -4911.296    75.963231   -4835.3328 
  313200    404.96596   -4913.8481    74.017185   -4839.8309 
  313400    407.92919   -4909.2661    74.558787   -4834.7073 
  313600    402.75164   -4908.5914    73.612466   -4834.9789 
  313800    390.25573   -4910.8031    71.328541   -4839.4745 
  314000    422.85735   -4912.9088    77.287263   -4835.6216 
  314200    402.00258   -4909.9966    73.475557    -4836.521 
  314400    389.26401   -4909.7977     71.14728   -4838.6504 
  314600    407.27877   -4909.4298    74.439907   -4834.9899 
  314800    397.04417   -4909.9307    72.569289   -4837.3614 
  315000    395.57287   -4912.6904    72.300374     -4840.39 
  315200    406.36487   -4908.4612     74.27287   -4834.1883 
  315400     418.9285   -4910.1923    76.569173   -4833.6231 
  315600    417.35364   -4913.9936     76.28133   -4837.7123 
  315800    397.69039   -4911.8723    72.687402   -4839.1849 
  316000    414.30075    -4912.439    75.723342   -4836.7156 
  316200    413.65783   -4912.0766    75.605832   -4836.4708 
  316400    407.30492   -4911.1494    74.444687   -4836.7047 
  316600    401.41968   -4909.9641    73.369019   -4836.5951 
  316800    410.40344   -4912.4814    75.011015   -4837.4704 
  317000    406.86419   -4909.5668    74.364132   -4835.2027 
  317200    410.14621   -4911.3904    74.963999   -4836.4264 
  317400    416.79142   -4914.0043     76.17857   -4837.8257 
  317600    405.99918   -4910.6581    74.206031   -4836.4521 
  317800    404.11744   -4909.4052    73.862098   -4835.5431 
  318000    405.95816   -4910.5948    74.198533   -4836.3963 
  318200    404.68539   -4912.1469    73.965904    -4838.181 
  318400    418.75085   -4914.3115    76.536703   -4837.7748 
  318600    412.82321   -4912.1421    75.453285   -4836.6888 
  318800    400.41002   -4909.6674     73.18448   -4836.4829 
  319000    401.03815   -4912.0142    73.299285   -4838.7149 
  319200    416.56724   -4914.0526    76.137596    -4837.915 
  319400    414.33577    -4908.676    75.729741   -4832.9462 
  319600     423.9646   -4915.2047    77.489639   -4837.7151 
  319800    406.92027   -4915.2345    74.374382   -4840.8601 
  320000    417.66846   -4910.4955     76.33887   -4834.1567 
  320200    413.15575   -4909.6781    75.514066    -4834.164 
  320400    400.31399   -4910.6611    73.166927   -4837.4942 
  320600    415.96858   -4911.8799    76.028177   -4835.8518 
  320800    421.34835   -4911.2484    77.011457   -4834.2369 
  321000    412.44636   -4909.0883    75.384406   -4833.7039 
  321200    404.48953   -4908.2287    73.930106   -4834.2986 
  321400    419.80798   -4909.7904    76.729918   -4833.0604 
  321600    417.29749   -4912.9142    76.271067   -4836.6432 
  321800    409.31705   -4912.0961     74.81245   -4837.2836 
  322000    424.81914   -4910.3067    77.645827   -4832.6609 
  322200    416.48024   -4910.9518    76.121694   -4834.8301 
  322400    408.63186   -4913.2062    74.687217    -4838.519 
  322600    418.27185   -4910.4507    76.449154   -4834.0015 
  322800    415.43764   -4907.3859    75.931135   -4831.4548 
  323000    405.68486   -4911.0898    74.148582   -4836.9412 
  323200    410.23066   -4911.5951    74.979435   -4836.6157 
  323400    413.73556   -4909.8983     75.62004   -4834.2782 
  323600    411.54285   -4911.2656    75.219269   -4836.0463 
  323800    412.39992   -4912.0231     75.37592   -4836.6472 
  324000    425.98519   -4912.9119    77.858951    -4835.053 
  324200    403.98642   -4910.0466    73.838152   -4836.2084 
  324400    401.40629   -4911.1149    73.366571   -4837.7483 
  324600    407.97588    -4908.938    74.567321   -4834.3707 
  324800    424.75377   -4910.2374     77.63388   -4832.6035 
  325000     403.0578   -4912.7172    73.668423   -4839.0488 
  325200    398.38698   -4910.9368     72.81472    -4838.122 
  325400    423.59214   -4908.4361    77.421564   -4831.0146 
  325600    408.05134   -4911.0454    74.581112   -4836.4643 
  325800    403.17313   -4911.2697    73.689504   -4837.5802 
  326000     420.1197   -4909.9265    76.786892   -4833.1396 
  326200    410.79645   -4911.6901    75.082847   -4836.6072 
  326400    404.53462   -4909.0346    73.938348   -4835.0962 
  326600    413.88338   -4910.0803    75.647057   -4834.4333 
  326800    404.53828   -4911.6682    73.939018   -4837.7292 
  327000    423.84381     -4909.93    77.467562   -4832.4625 
  327200    418.68981   -4910.3809    76.525547   -4833.8554 
  327400    407.71168   -4914.1706    74.519031   -4839.6516 
  327600    418.02999   -4913.7181    76.404949   -4837.3132 
  327800    413.13821    -4910.444    75.510859   -4834.9331 
  328000    428.88325   -4912.3435    78.388641   -4833.9548 
  328200    404.37197   -4911.0423     73.90862   -4837.1337 
  328400    410.60549   -4911.2454    75.047945   -4836.1974 
  328600    419.76837   -4909.1307    76.722679    -4832.408 
  328800    416.04947   -4913.5375    76.042961   -4837.4945 
  329000     411.3167   -4914.5015    75.177935   -4839.3236 
  329200    423.61896   -4912.3396    77.426466   -4834.9131 
  329400    413.11018    -4908.549    75.505736   -4833.0432 
  329600    414.11111   -4911.7005     75.68868   -4836.0119 
  329800    405.80889   -4913.4604     74.17125   -4839.2891 
  330000    413.85584   -4912.4934    75.642022   -4836.8513 
  330200    430.79207    -4909.098    78.737523   -4830.3604 
  330400    424.29293   -4912.1455    77.549651   -4834.5958 
  330600    400.74439   -4912.7387    73.245593   -4839.4931 
  330800    416.66467   -4910.5835    76.155405   -4834.4281 
  331000    404.34018   -4906.9234    73.902809   -4833.0206 
  331200    408.61151   -4911.8941    74.683496   -4837.2106 
  331400    410.64318   -4909.0239    75.054833   -4833.9691 
  331600    417.96005   -4912.4456    76.392165   -4836.0535 
  331800    414.64577   -4914.4605    75.786402   -4838.6741 
  332000     412.8717   -4908.0542    75.462147   -4832.5921 
  332200    417.88033   -4910.6341    76.377595   -4834.2565 
  332400    416.84966   -4913.8576    76.189215   -4837.6684 
  332600    422.19098   -4911.4616    77.165468   -4834.2962 
  332800    414.16694   -4910.4608    75.698885   -4834.7619 
  333000    411.88319   -4909.3308    75.281474   -4834.0494 
  333200    417.63854   -4910.3549    76.333402   -4834.0215 
  333400    411.82605   -4912.8203    75.271031   -4837.5492 
  333600    430.93562   -4910.8473     78.76376   -4832.0835 
  333800    416.73968   -4909.8026    76.169113   -4833.6335 
  334000    407.41543   -4910.6763    74.464885   -4836.2114 
  334200    429.28221   -4911.0148    78.461559   -4832.5533 
  334400    409.44768   -4911.0769    74.836327   -4836.2406 
  334600    405.39653   -4912.7453    74.095883   -4838.6495 
  334800    424.11543   -4911.0654    77.517208   -4833.5482 
  335000    420.30122   -4909.7032     76.82007   -4832.8831 
  335200    412.02976   -4913.3386    75.308264   -4838.0303 
  335400    413.88157   -4908.7949    75.646725   -4833.1482 
  335600    421.95325   -4907.3249    77.122019   -4830.2029 
  335800     400.5801   -4909.8588    73.215565   -4836.6433 
  336000    423.67774   -4911.6212     77.43721   -4834.1839 
  336200    419.74464     -4910.62    76.718342   -4833.9017 
  336400    420.01394   -4911.5953    76.767563   -4834.8277 
  336600    436.67486    -4913.041    79.812744   -4833.2282 
  336800     415.0142   -4911.5095    75.853742   -4835.6558 
  337000    401.08975    -4907.637    73.308715   -4834.3283 
  337200    438.21308   -4911.1556    80.093889   -4831.0617 
  337400    403.14097   -4909.9893    73.683626   -4836.3056 
  337600    410.91562   -4909.2863    75.104628   -4834.1817 
  337800     417.7666   -4906.5603    76.356808   -4830.2035 
  338000    415.09122   -4910.3842    75.867819   -4834.5163 
  338200    406.07837   -4910.8864    74.220505   -4836.6659 
  338400    426.29513   -4907.4816      77.9156    -4829.566 
  338600    415.31568   -4910.9589    75.908844   -4835.0501 
  338800    411.25204   -4913.2827    75.166116   -4838.1166 
  339000    422.16853   -4908.5442    77.161365   -4831.3829 
  339200    411.18718   -4908.2849    75.154263   -4833.1307 
  339400    415.59735   -4911.2306    75.960325   -4835.2703 
  339600    423.06119   -4907.9128     77.32452   -4830.5883 
  339800    408.67868    -4907.664    74.695774   -4832.9683 
  340000    413.22312   -4911.8203    75.526378   -4836.2939 
  340200    426.53616   -4908.9753    77.959654   -4831.0157 
  340400    418.99812   -4909.7911    76.581898   -4833.2092 
  340600    406.23433   -4911.0414     74.24901   -4836.7924 
  340800    424.03736   -4909.6676    77.502939   -4832.1647 
  341000    417.99192   -4907.9878    76.397991   -4831.5898 
  341200    420.75229   -4912.7637    76.902513   -4835.8611 
  341400    423.46887   -4911.6347    77.399033   -4834.2357 
  341600    427.75646   -4909.2134    78.182693   -4831.0307 
  341800     414.8172   -4909.6396    75.817735   -4833.8219 
  342000    419.20412   -4908.5114    76.619549   -4831.8919 
  342200    422.17685   -4909.7207    77.162886   -4832.5578 
  342400    418.08878   -4910.5307    76.415694    -4834.115 
  342600    412.78267   -4906.7424    75.445875   -4831.2966 
  342800    416.22968   -4907.2074    76.075899   -4831.1315 
  343000    419.11851   -4910.7449    76.603902    -4834.141 
  343200    432.01393   -4909.3502    78.960847   -4830.3893 
  343400    425.23749   -4907.2155    77.722291   -4829.4932 
  343600    410.20619     -4910.07    74.974962   -4835.0951 
  343800    412.99226   -4908.9749    75.484184   -4833.4908 
  344000    433.31626    -4906.819    79.198879   -4827.6201 
  344200    421.66099   -4909.9869      77.0686   -4832.9183 
  344400    405.28619   -4910.5861    74.075715   -4836.5104 
  344600     425.4719   -4908.1542    77.765136    -4830.389 
  344800    429.85333   -4909.8074    78.565945   -4831.2414 
  345000    424.27287   -4909.3516    77.545984   -4831.8056 
  345200    421.88168   -4909.3676    77.108937   -4832.2587 
  345400    412.70277    -4908.364    75.431273   -4832.9327 
  345600    420.57669   -4909.5169    76.870418   -4832.6465 
  345800    416.79953    -4908.157    76.180053   -4831.9769 
  346000    425.09357   -4912.1168    77.695985   -4834.4208 
  346200    411.14515    -4908.331    75.146581   -4833.1845 
  346400    434.05294   -4908.1891    79.333524   -4828.8555 
  346600    409.52679   -4909.9755    74.850787   -4835.1248 
  346800    425.22647   -4910.8433    77.720277    -4833.123 
  347000    439.19958   -4913.0971    80.274195   -4832.8229 
  347200    411.38364   -4909.7982     75.19017    -4834.608 
  347400    434.78932   -4907.7934    79.468117   -4828.3253 
  347600    426.42961   -4910.0935    77.940179   -4832.1533 
  347800    415.30155    -4910.445    75.906262   -4834.5387 
  348000    424.10238   -4905.6737    77.514822   -4828.1589 
  348200    416.62354   -4908.4855    76.147887   -4832.3376 
  348400      415.697   -4909.8222    75.978538   -4833.8437 
  348600    431.30477    -4908.694    78.831231   -4829.8628 
  348800     418.5229   -4909.3645    76.495039   -4832.8695 
  349000    415.21807   -4907.3807    75.891003   -4831.4897 
  349200    425.03653   -4908.2101    77.685562   -4830.5245 
  349400    415.31573   -4910.2692    75.908853   -4834.3603 
  349600    426.64025   -4908.4086    77.978679     -4830.43 
  349800    429.28984   -4908.9107    78.462954   -4830.4477 
  350000    413.86137   -4912.1852    75.643034   -4836.5422 
  350200     427.2807   -4910.1027    78.095737    -4832.007 
  350400    426.89192   -4907.4934    78.024678   -4829.4687 
  350600    408.16257   -4909.1242    74.601442   -4834.5227 
  350800    425.64277   -4908.1624    77.796366    -4830.366 
  351000    421.87385   -4908.7723    77.107506   -4831.6648 
  351200    417.45207   -4909.6572     76.29932   -4833.3578 
  351400    429.20203   -4909.4302    78.446906   -4830.9833 
  351600     415.5252   -4908.1413    75.947138   -4832.1941 
  351800     415.6194   -4908.4569    75.964355   -4832.4925 
  352000     428.7128   -4906.5893    78.357487   -4828.2318 
  352200    414.92573   -4907.9947    75.837572   -4832.1571 
  352400    420.83862    -4910.893    76.918292   -4833.9747 
  352600      427.021   -4906.9512     78.04827   -4828.9029 
  352800    441.47421   -4908.7686    80.689939   -4828.0787 
  353000    419.99323   -4908.7129    76.763777   -4831.9491 
  353200    414.91532   -4906.4313    75.835668   -4830.5957 
  353400    417.41368   -4907.5363    76.292303    -4831.244 
  353600    433.36996   -4909.7759    79.208694   -4830.5672 
  353800    445.37892   -4910.7103    81.403617   -4829.3067 
  354000    423.28747   -4910.2571    77.365878   -4832.8912 
  354200    426.44216   -4909.0259    77.942473   -4831.0835 
  354400     422.4854   -4907.4654    77.219282   -4830.2461 
  354600    408.90003   -4909.0585    74.736231   -4834.3223 
  354800    420.47152   -4907.9724    76.851197   -4831.1212 
  355000    422.03548   -4907.4974    77.137047   -4830.3603 
  355200    424.99277   -4909.5097    77.677562   -4831.8322 
  355400    419.96462    -4908.193    76.758548   -4831.4344 
  355600    439.94657    -4908.611    80.410725   -4828.2002 
  355800    428.27309   -4909.3665     78.27712   -4831.0894 
  356000    426.15308   -4910.3553    77.889637   -4832.4657 
  356200    431.81967   -4910.1768    78.925342   -4831.2514 
  356400    419.76585   -4904.5295    76.722218   -4827.8073 
  356600      422.919   -4905.3638    77.298532   -4828.0653 
  356800    425.19214   -4908.7785    77.714002   -4831.0645 
  357000    422.93848   -4909.4679    77.302093   -4832.1658 
  357200    429.40204   -4906.9868    78.483462   -4828.5033 
  357400     430.4073   -4909.6905    78.667197   -4831.0233 
  357600    415.56431   -4906.5942    75.954286   -4830.6399 
  357800     441.1083   -4906.2345    80.623059   -4825.6114 
  358000     419.1588   -4907.5882    76.611266   -4830.9769 
  358200    424.86034   -4907.3082    77.653359   -4829.6549 
  358400    427.01277   -4907.5548    78.046767    -4829.508 
  358600    414.66285   -4907.3093    75.789523   -4831.5198 
  358800    430.78748   -4905.7426    78.736684   -4827.0059 
  359000    439.03388   -4910.3485    80.243911   -4830.1046 
  359200    416.56007   -4909.2805    76.136286   -4833.1443 
  359400    432.95855   -4904.4441    79.133499   -4825.3106 
  359600    433.89513   -4909.4619    79.304681   -4830.1573 
  359800     421.3046   -4911.2765    77.003463    -4834.273 
  360000    436.83442   -4907.6405    79.841907   -4827.7986 
  360200    440.56625   -4909.6937    80.523987   -4829.1697 
  360400    418.80386   -4909.3024    76.546392    -4832.756 
  360600    420.52403   -4906.9036    76.860794   -4830.0428 
  360800    436.15779   -4907.6281    79.718236   -4827.9098 
  361000    424.06892   -4908.9414    77.508708   -4831.4327 
  361200    438.99951   -4910.3055    80.237628   -4830.0679 
  361400    420.01553   -4905.8505    76.767853   -4829.0827 
  361600    426.83905     -4908.99    78.015014   -4830.9749 
  361800    428.88956    -4906.904    78.389795   -4828.5142 
  362000    435.38122   -4907.5209    79.576299   -4827.9446 
  362200    412.66206   -4909.6236    75.423831   -4834.1998 
  362400     426.0046   -4905.2641    77.862498   -4827.4016 
  362600      422.538   -4905.3129    77.228894    -4828.084 
  362800    418.11146   -4909.5272    76.419839   -4833.1074 
  363000    424.56849   -4906.7237    77.600016   -4829.1236 
  363200    430.33194   -4907.5019    78.653423   -4828.8485 
  363400     423.0329   -4906.7803    77.319349    -4829.461 
  363600     437.6734   -4909.1248     79.99525   -4829.1296 
  363800    429.03518   -4909.7305    78.416409   -4831.3141 
  364000    441.81254   -4908.8559    80.751776   -4828.1041 
  364200    426.39896   -4907.3598    77.934577   -4829.4252 
  364400    421.93017   -4907.5068      77.1178    -4830.389 
  364600    428.72717   -4906.0799    78.360114   -4827.7198 
  364800    424.27262   -4910.9373    77.545938   -4833.3913 
  365000    420.13062   -4906.6938     76.78889   -4829.9049 
  365200     434.3152   -4905.2734    79.381459   -4825.8919 
  365400     415.5528   -4910.7199    75.952183   -4834.7677 
  365600     423.9714   -4907.8151    77.490883   -4830.3242 
  365800    442.50458   -4904.9683    80.878263   -4824.0901 
  366000    402.91249   -4910.7979    73.641864    -4837.156 
  366200    444.75383   -4911.2872    81.289367   -4829.9978 
  366400    433.42859   -4903.9228     79.21941   -4824.7034 
  366600    409.84265   -4909.7418    74.908516   -4834.8333 
  366800    432.71585   -4909.0956     79.08914   -4830.0065 
  367000    448.10474   -4907.0045    81.901827   -4825.1026 
  367200    420.97802   -4910.4312    76.943772   -4833.4874 
  367400    428.71989    -4908.479    78.358783   -4830.1202 
  367600    439.65732   -4908.0557     80.35786   -4827.6978 
  367800     421.5621   -4909.8574    77.050526   -4832.8069 
  368000    438.28069   -4905.2525    80.106246   -4825.1462 
  368200    441.33826    -4908.609    80.665091   -4827.9439 
  368400    417.65032   -4910.8954    76.335556   -4834.5599 
  368600    435.30478   -4905.8199    79.562328   -4826.2576 
  368800    417.57918   -4905.2473    76.322553   -4828.9247 
  369000    408.30251   -4908.5391    74.627019   -4833.9121 
  369200    440.39741   -4905.7424    80.493128   -4825.2493 
  369400    435.98001   -4906.9233    79.685743   -4827.2376 
  369600     418.9962   -4910.1974    76.581547   -4833.6158 
  369800    447.99355   -4907.9194    81.881504   -4826.0379 
  370000    431.99211   -4906.8442    78.956859   -4827.8873 
  370200    414.07731   -4907.7404    75.682501   -4832.0579 
  370400    429.21537   -4905.5944    78.449344   -4827.1451 
  370600    435.44006    -4908.437    79.587054   -4828.8499 
  370800    428.50519    -4906.995    78.319541   -4828.6755 
  371000    438.08669   -4906.1447    80.070788   -4826.0739 
  371200    411.60625   -4906.4265    75.230856   -4831.1956 
  371400     433.8702   -4908.4248    79.300124   -4829.1247 
  371600    426.63936    -4908.255    77.978517   -4830.2765 
  371800     429.1616   -4907.8169    78.439516   -4829.3774 
  372000    439.47898   -4905.0904    80.325263   -4824.7651 
  372200    420.43815   -4909.1521    76.845097    -4832.307 
  372400     423.0076   -4908.5562    77.314725   -4831.2415 
  372600    437.22448   -4905.7567      79.9132   -4825.8435 
  372800    420.30281   -4905.8904    76.820361   -4829.0701 
  373000    437.91208   -4909.4493    80.038875   -4829.4104 
  373200    436.25525   -4909.0118    79.736049   -4829.2758 
  373400    414.84035   -4905.6542    75.821967   -4829.8323 
  373600    440.30878   -4906.3547    80.476928   -4825.8777 
  373800    431.82849   -4907.2832    78.926954   -4828.3562 
  374000    438.57719   -4911.3362     80.16044   -4831.1757 
  374200    437.46116   -4905.8295    79.956458   -4825.8731 
  374400     436.3615   -4907.3418    79.755469   -4827.5863 
  374600    416.84574   -4907.0908    76.188498   -4830.9023 
  374800    433.42717   -4907.9938    79.219151   -4828.7746 
  375000    414.75305   -4907.5163    75.806009   -4831.7103 
  375200    434.24347   -4906.8625    79.368348   -4827.4941 
  375400    426.78446   -4902.8179    78.005038   -4824.8129 
  375600     417.3086   -4909.2474    76.273098   -4832.9743 
  375800     437.7557   -4909.6055    80.010292   -4829.5952 
  376000    429.30426   -4904.5762    78.465591   -4826.1106 
  376200    424.85275   -4906.4182     77.65197   -4828.7663 
  376400    424.46903   -4905.3598    77.581837    -4827.778 
  376600    437.57645   -4907.7074     79.97753   -4827.7299 
  376800    416.90467   -4906.8437     76.19927   -4830.6444 
  377000    445.07877   -4906.5744    81.348758   -4825.2257 
  377200    433.04583   -4908.2507    79.149452   -4829.1012 
  377400    423.07774     -4907.79    77.327545   -4830.4624 
  377600     443.8424   -4905.3919    81.122782   -4824.2691 
  377800    444.31603   -4910.5874    81.209349   -4829.3781 
  378000    435.50111    -4909.213    79.598212   -4829.6148 
  378200     422.1262   -4904.4164    77.153628   -4827.2628 
  378400    421.81201   -4906.6759    77.096204   -4829.5797 
  378600    434.48427   -4903.5771     79.41236   -4824.1647 
  378800    435.33601   -4906.0884    79.568037   -4826.5203 
  379000    420.45627   -4908.3049     76.84841   -4831.4565 
  379200    435.64554   -4905.9252     79.62461   -4826.3005 
  379400    441.95758   -4906.8413    80.778286    -4826.063 
  379600    437.96525   -4910.9862    80.048592   -4830.9376 
  379800    440.47439   -4909.1798    80.507199   -4828.6726 
  380000    444.56524   -4905.1879    81.254898    -4823.933 
  380200    424.80026    -4905.155    77.642378   -4827.5126 
  380400    428.99101   -4908.3598    78.408337   -4829.9515 
  380600    431.89864   -4908.5827    78.939775   -4829.6429 
  380800    430.00014   -4903.2174     78.59278   -4824.6246 
  381000    426.21738   -4904.0067    77.901389   -4826.1053 
  381200    433.65172   -4908.9772    79.260192    -4829.717 
  381400    442.07782   -4907.7956    80.800263   -4826.9954 
  381600    429.14472   -4906.4028    78.436431   -4827.9663 
  381800    434.26216    -4909.437    79.371765   -4830.0652 
  382000    439.79148   -4909.1163    80.382379   -4828.7339 
  382200     437.0956   -4909.1158    79.889643   -4829.2262 
  382400    439.69861   -4907.8515    80.365405   -4827.4861 
  382600    436.42495   -4904.9855    79.767066   -4825.2185 
  382800    422.82667   -4908.9421    77.281656   -4831.6605 
  383000    425.33764   -4908.3881    77.740595   -4830.6475 
  383200    440.24091    -4906.361    80.464523   -4825.8965 
  383400    429.96814   -4908.4439    78.586931    -4829.857 
  383600    419.21087   -4906.9122    76.620782   -4830.2915 
  383800    452.88769   -4905.3687    82.776024   -4822.5927 
  384000    443.32948   -4907.8237    81.029033   -4826.7947 
  384200    424.38547    -4912.373    77.566564   -4834.8065 
  384400    443.68654   -4907.0309    81.094294   -4825.9367 
  384600     433.2227   -4903.7434    79.181778   -4824.5616 
  384800    433.31288   -4909.6903    79.198261    -4830.492 
  385000    438.08757   -4907.9821    80.070949   -4827.9112 
  385200    441.81077     -4908.34    80.751454   -4827.5885 
  385400    434.19594   -4906.4641    79.359661   -4827.1045 
  385600    433.98878   -4904.3855    79.321798   -4825.0637 
  385800    435.34176   -4910.0887    79.569087   -4830.5196 
  386000    430.61748    -4907.761    78.705612   -4829.0554 
  386200    442.85816   -4905.8153    80.942889   -4824.8725 
  386400    433.76426   -4907.5222    79.280762   -4828.2415 
  386600    427.78891   -4908.6234    78.188624   -4830.4348 
  386800    434.96136   -4905.0069    79.499561   -4825.5073 
  387000    435.04817   -4905.5896    79.515427   -4826.0742 
  387200     432.3252   -4908.2049     79.01774   -4829.1872 
  387400    422.80005    -4905.249    77.276791   -4827.9722 
  387600    444.49076   -4909.7754    81.241286   -4828.5341 
  387800    422.14888   -4904.4405    77.157773   -4827.2827 
  388000    440.31824   -4906.9056    80.478658    -4826.427 
  388200    429.05851      -4909.2    78.420674   -4830.7793 
  388400    430.98885   -4907.6401    78.773489   -4828.8666 
  388600     446.8445   -4907.0382    81.671487   -4825.3667 
  388800    440.63304   -4908.1869    80.536194   -4827.6507 
  389000    428.52018   -4905.7907    78.322282   -4827.4684 
  389200     438.6597   -4906.3203     80.17552   -4826.1447 
  389400    432.85169    -4907.787    79.113968    -4828.673 
  389600    437.05687    -4909.348    79.882564   -4829.4655 
  389800    429.64282   -4907.2849    78.527469   -4828.7574 
  390000    439.23495   -4907.0138    80.280662   -4826.7332 
  390200    438.39809    -4906.004    80.127705   -4825.8763 
  390400    435.12691   -4908.5798    79.529819     -4829.05 
  390600    425.74674   -4905.9583     77.81537   -4828.1429 
  390800    428.22431   -4904.0324    78.268204   -4825.7642 
  391000    443.35879   -4907.3344    81.034392      -4826.3 
  391200    436.46749   -4907.8704    79.774841   -4828.0956 
  391400    448.20731   -4907.9227    81.920573   -4826.0022 
  391600    433.35341   -4906.4203    79.205669   -4827.2146 
  391800    452.90923   -4909.8721    82.779962   -4827.0921 
  392000    440.84921   -4909.0421    80.575706   -4828.4664 
  392200    437.06095   -4908.0274    79.883311   -4828.1441 
  392400    442.91129   -4907.0389    80.952599   -4826.0863 
  392600    440.39322   -4909.1002    80.492362   -4828.6079 
  392800     424.5538   -4906.6705     77.59733   -4829.0732 
  393000    437.10456   -4903.3299     79.89128   -4823.4386 
  393200     438.4493   -4904.9254    80.137065   -4824.7884 
  393400    438.45309   -4909.4407    80.137757   -4829.3029 
  393600    446.10509   -4909.7136    81.536342   -4828.1772 
  393800    430.02715   -4905.7942    78.597715   -4827.1965 
  394000    450.02992   -4909.2576    82.253698   -4827.0039 
  394200     441.9003   -4907.8939    80.767817   -4827.1261 
  394400    431.03924   -4903.2648    78.782699   -4824.4821 
  394600    443.98666    -4907.587    81.149149   -4826.4379 
  394800    432.00877   -4906.9496    78.959903   -4827.9897 
  395000    443.71361   -4908.4356    81.099242   -4827.3364 
  395200    438.13066   -4906.7865    80.078826   -4826.7076 
  395400    430.88661   -4905.4163    78.754803   -4826.6615 
  395600    431.91132   -4907.2083    78.942093   -4828.2662 
  395800    447.61037   -4906.5224    81.811469    -4824.711 
  396000    436.31698   -4905.2706    79.747332   -4825.5232 
  396200    448.24397   -4910.0196    81.927273   -4828.0923 
  396400    443.91052    -4907.722    81.135233   -4826.5868 
  396600    452.00998   -4903.1916    82.615603    -4820.576 
  396800    432.27768   -4905.0622    79.009053   -4826.0531 
  397000    416.20037   -4905.4322    76.070541   -4829.3616 
  397200    440.26841   -4903.8552    80.469551   -4823.3857 
  397400    443.46043   -4904.1206    81.052968   -4823.0676 
  397600     434.1749   -4906.7198    79.355816    -4827.364 
  397800    434.29893    -4907.334    79.378485   -4827.9555 
  398000    445.61404   -4906.0844    81.446592   -4824.6378 
  398200    435.05926   -4904.5369    79.517453   -4825.0194 
  398400    440.64988   -4906.8645    80.539273   -4826.3252 
  398600    423.85927   -4904.1029    77.470389   -4826.6325 
  398800    432.39054   -4902.4757    79.029681    -4823.446 
  399000    441.06346   -4905.3508    80.614864   -4824.7359 
  399200    431.62462   -4906.1886    78.889691   -4827.2989 
  399400    426.32433   -4904.0241    77.920937   -4826.1031 
  399600    439.18415   -4902.9289    80.271376   -4822.6575 
  399800    448.04176   -4907.2163    81.890316    -4825.326 
  400000    438.94881    -4908.996    80.228362   -4828.7676 
  400200    440.04389   -4905.2358    80.428513   -4824.8073 
  400400    443.10117   -4904.5438    80.987305   -4823.5565 
  400600    435.69996   -4907.6863    79.634556   -4828.0517 
  400800    444.14481   -4904.4833    81.178054   -4823.3052 
  401000    439.91264   -4908.6735    80.404525    -4828.269 
  401200    440.70978   -4908.8957    80.550221   -4828.3455 
  401400    440.71587   -4901.1541    80.551334   -4820.6027 
  401600    439.48222   -4904.8969    80.325855    -4824.571 
  401800    439.98528   -4910.4332    80.417801   -4830.0154 
  402000    440.26958   -4904.1698    80.469763      -4823.7 
  402200    451.42267   -4905.3332    82.508258    -4822.825 
  402400    438.41346   -4908.0013    80.130514   -4827.8708 
  402600    439.59126   -4905.7582    80.345784   -4825.4124 
  402800    440.29911   -4904.2134    80.475162   -4823.7382 
  403000    442.70386   -4906.4515    80.914686   -4825.5368 
  403200     444.3074   -4907.6694    81.207771   -4826.4617 
  403400    449.54104   -4909.8958    82.164345   -4827.7315 
  403600    442.09776   -4909.0677    80.803908   -4828.2638 
  403800    447.21323   -4906.0651    81.738882   -4824.3262 
  404000    436.21589   -4906.6532    79.728855   -4826.9243 
  404200    447.72553   -4909.5369    81.832517   -4827.7044 
  404400    441.43042   -4907.1564    80.681936   -4826.4745 
  404600    451.97118   -4909.2912    82.608511   -4826.6827 
  404800    435.43361   -4906.2059    79.585876     -4826.62 
  405000     453.1722   -4906.0006    82.828026   -4823.1726 
  405200    428.88253   -4903.6451     78.38851   -4825.2566 
  405400    430.99418   -4905.8505    78.774464    -4827.076 
  405600    444.69416   -4906.0343    81.278462   -4824.7559 
  405800    436.02131   -4906.3127    79.693292   -4826.6194 
  406000    431.00357   -4907.7872     78.77618   -4829.0111 
  406200    450.88029   -4904.4886    82.409125   -4822.0795 
  406400    436.26925   -4906.1561    79.738607   -4826.4175 
  406600    431.86881   -4905.7778    78.934322   -4826.8435 
  406800    436.63067   -4902.5555    79.804667   -4822.7508 
  407000    447.71055   -4908.5445    81.829779   -4826.7147 
  407200    449.58068   -4911.7822    82.171589   -4829.6106 
  407400    437.77687   -4904.8026    80.014163   -4824.7885 
  407600    436.09468   -4903.8521    79.706701   -4824.1454 
  407800     433.0906    -4908.368    79.157633   -4829.2104 
  408000     434.9751   -4907.0447    79.502071   -4827.5426 
  408200    444.23564     -4905.54    81.194655   -4824.3453 
  408400     436.5886   -4907.6033    79.796976   -4827.8064 
  408600    449.89459   -4908.1154    82.228963   -4825.8865 
  408800    434.63481   -4904.8732    79.439875   -4825.4333 
  409000    441.49067   -4906.4221    80.692947   -4825.7291 
  409200    436.02476   -4906.9106    79.693922   -4827.2167 
  409400    442.55968   -4906.8661    80.888334   -4825.9778 
  409600    440.10626   -4905.6109    80.439914    -4825.171 
  409800    437.56285   -4908.6726    79.975044   -4828.6975 
  410000    445.09661   -4906.6192    81.352018   -4825.2672 
  410200    453.78543   -4905.7413    82.940108   -4822.8012 
  410400    430.16298   -4909.7939    78.622543   -4831.1713 
  410600    450.12798   -4907.9271    82.271622   -4825.6555 
  410800    460.01314   -4908.1661    84.078371   -4824.0878 
  411000    430.54902   -4909.7701    78.693099    -4831.077 
  411200    456.36948    -4908.967    83.412405   -4825.5546 
  411400    446.51326   -4905.6412    81.610946   -4824.0302 
  411600    435.80469   -4907.0025    79.653698   -4827.3488 
  411800    461.01712   -4911.4514    84.261872   -4827.1895 
  412000    447.96528   -4908.7235    81.876336   -4826.8471 
  412200    449.67149   -4906.3421    82.188188   -4824.1539 
  412400    459.06844   -4907.5689    83.905704   -4823.6632 
  412600    432.75357   -4909.4298    79.096035   -4830.3338 
  412800    443.29659   -4908.4287    81.023022   -4827.4057 
  413000    447.64419   -4908.0326     81.81765   -4826.2149 
  413200    442.00155   -4907.4496    80.786322   -4826.6633 
  413400     452.8266   -4909.7811    82.764859   -4827.0162 
  413600    454.32951   -4907.5269    83.039551   -4824.4873 
  413800    446.81998   -4907.1778    81.667006   -4825.5108 
  414000    445.38875   -4907.2854    81.405415     -4825.88 
  414200    452.91485   -4909.2063    82.780989   -4826.4254 
  414400    432.33075   -4909.5721    79.018753   -4830.5533 
  414600    438.00502   -4903.5021    80.055862   -4823.4463 
  414800    451.69578   -4904.1631    82.558174   -4821.6049 
  415000    421.20249   -4908.1704    76.984799   -4831.1856 
  415200    436.50018   -4906.8164    79.780816   -4827.0356 
  415400     457.2653   -4904.6815    83.576137   -4821.1054 
  415600    432.80254   -4909.6289    79.104984    -4830.524 
  415800    447.62102   -4906.8392    81.813416   -4825.0258 
  416000    449.22865   -4904.3978    82.107248   -4822.2905 
  416200    436.16849   -4910.1177    79.720192   -4830.3975 
  416400    430.75854   -4906.1243    78.731394   -4827.3929 
  416600    455.61416   -4906.8958    83.274352   -4823.6214 
  416800    438.20282   -4908.1364    80.092015   -4828.0444 
  417000      449.542   -4906.1466     82.16452    -4823.982 
  417200    441.34437    -4906.346    80.666207   -4825.6798 
  417400    440.63439    -4907.884    80.536442   -4827.3476 
  417600    450.26382   -4906.2486    82.296449   -4823.9522 
  417800    448.39583   -4908.9212     81.95503   -4826.9661 
  418000    446.90212   -4908.2631    81.682019    -4826.581 
  418200    458.20843   -4906.4295    83.748516    -4822.681 
  418400    427.41087   -4905.3906    78.119528   -4827.2711 
  418600    447.84491    -4906.966    81.854335   -4825.1117 
  418800    458.97423   -4907.2814    83.888485   -4823.3929 
  419000    447.85168   -4907.6589    81.855573   -4825.8034 
  419200    454.75765   -4908.1397    83.117805   -4825.0219 
  419400    444.26234   -4907.5595    81.199536     -4826.36 
  419600    453.21944   -4907.9678     82.83666   -4825.1312 
  419800    447.98746   -4907.3701    81.880391   -4825.4897 
  420000    445.91115   -4907.6208    81.500896   -4826.1199 
  420200    446.67669   -4907.7992    81.640815   -4826.1584 
  420400    453.32349   -4908.8184    82.855677   -4825.9628 
  420600    444.11124   -4910.2807    81.171918   -4829.1088 
  420800    443.85374   -4905.9463    81.124854   -4824.8215 
  421000    452.43166   -4903.3317    82.692673    -4820.639 
  421200      440.343    -4907.822    80.483183   -4827.3389 
  421400     448.4555   -4909.5665    81.965936   -4827.6005 
  421600    464.43012    -4908.538     84.88568   -4823.6524 
  421800    452.59632   -4907.1545     82.72277   -4824.4318 
  422000    439.84509   -4907.7247    80.392179   -4827.3326 
  422200    426.89899   -4905.6161    78.025969   -4827.5902 
  422400    456.08351   -4904.3267    83.360137   -4820.9666 
  422600    450.56189    -4906.924    82.350928   -4824.5731 
  422800    445.67479   -4910.5796    81.457695   -4829.1219 
  423000    450.73117   -4908.3841    82.381869   -4826.0022 
  423200    448.07361   -4906.2565    81.896136   -4824.3603 
  423400    453.16421      -4906.9    82.826566   -4824.0734 
  423600    462.62555   -4905.7348    84.555851   -4821.1789 
  423800    438.77553   -4909.1684     80.19669   -4828.9717 
  424000    444.33256   -4906.7508     81.21237   -4825.5385 
  424200    458.61266   -4907.5691    83.822398   -4823.7467 
  424400    435.25299   -4907.4506    79.552862   -4827.8978 
  424600    451.98484    -4905.164    82.611007    -4822.553 
  424800    448.16009   -4905.8836    81.911943   -4823.9716 
  425000    431.43632   -4908.1626    78.855275   -4829.3073 
  425200    466.18671   -4909.2864    85.206738   -4824.0796 
  425400    460.25588      -4908.4    84.122736   -4824.2772 
  425600    446.32386    -4908.114    81.576328   -4826.5377 
  425800    469.85853   -4909.0977     85.87785   -4823.2198 
  426000    452.75406   -4909.1181      82.7516   -4826.3665 
  426200    446.62234   -4906.3405    81.630882   -4824.7096 
  426400    451.79129   -4905.1235    82.575632   -4822.5478 
  426600    449.47343   -4910.4825    82.151987   -4828.3305 
  426800    453.85861   -4907.4047    82.953483   -4824.4512 
  427000    452.75759   -4905.2566    82.752245   -4822.5044 
  427200    448.63154   -4912.2285    81.998111   -4830.2304 
  427400    455.19316    -4906.748    83.197404   -4823.5506 
  427600    447.27497   -4905.2587    81.750166   -4823.5085 
  427800    435.91002   -4908.3461     79.67295   -4828.6731 
  428000     461.7125   -4903.9404     84.38897   -4819.5515 
  428200    451.80451   -4903.8971    82.578047    -4821.319 
  428400    436.56451   -4909.7123    79.792574   -4829.9197 
  428600     449.1435   -4908.0999    82.091685   -4826.0082 
  428800    461.81428   -4908.1009    84.407571   -4823.6934 
  429000    431.63215   -4904.8268    78.891068   -4825.9357 
  429200    477.82522   -4906.0705    87.333952   -4818.7365 
  429400    446.65653   -4906.4025    81.637132   -4824.7654 
  429600    440.86757   -4906.4705    80.579061   -4825.8915 
  429800    468.15809   -4905.9332    85.567053   -4820.3661 
  430000    441.11045   -4908.1434    80.623454     -4827.52 
  430200    447.15092    -4907.627    81.727492   -4825.8996 
  430400    460.52634   -4902.8741     84.17217   -4818.7019 
  430600    439.76861   -4907.2493      80.3782   -4826.8711 
  430800    448.35151   -4909.8816    81.946929   -4827.9347 
  431000     465.7103   -4907.5225    85.119662   -4822.4028 
  431200    438.14772    -4906.989    80.081943   -4826.9071 
  431400    460.12102   -4906.9009    84.098089   -4822.8028 
  431600     449.3266   -4905.9168    82.125151   -4823.7916 
  431800    439.44745   -4907.6509    80.319501   -4827.3314 
  432000    448.48219   -4904.6009    81.970815   -4822.6301 
  432200    449.05405   -4905.6634    82.075335   -4823.5881 
  432400    445.92922   -4907.3851    81.504199   -4825.8809 
  432600    450.35536   -4904.2267     82.31318   -4821.9136 
  432800    471.50115   -4910.1128    86.178079   -4823.9347 
  433000    434.09594   -4907.8706    79.341384   -4828.5292 
  433200    465.83998   -4907.7278    85.143364   -4822.5844 
  433400    451.71335   -4908.4595    82.561385   -4825.8981 
  433600    454.16589   -4908.4534    83.009645   -4825.4438 
  433800    456.90806   -4906.9159    83.510844    -4823.405 
  434000    451.96379   -4908.0813     82.60716   -4825.4742 
  434200    459.79457   -4907.1567    84.038422   -4823.1183 
  434400    450.73524   -4909.6148    82.382614   -4827.2322 
  434600    440.98386   -4905.9021    80.600316   -4825.3018 
  434800    472.31033   -4906.4753    86.325976   -4820.1493 
  435000    445.34223   -4908.9845    81.396912   -4827.5875 
  435200    455.93556   -4909.4724    83.333096   -4826.1393 
  435400    472.40927   -4907.4318    86.344058   -4821.0877 
  435600    446.86003    -4908.907    81.674326   -4827.2326 
  435800    455.41303   -4907.3806     83.23759    -4824.143 
  436000    463.06815   -4906.2786    84.636746   -4821.6418 
  436200    441.93835   -4907.6594    80.774772   -4826.8846 
  436400    457.50785    -4908.701    83.620468   -4825.0805 
  436600     453.0416   -4906.9043    82.804155   -4824.1002 
  436800    437.63271   -4907.5239    79.987814   -4827.5361 
  437000    463.07548   -4906.8985    84.638086   -4822.2604 
  437200    456.51262    -4910.071    83.438567   -4826.6324 
  437400    436.26741   -4909.9348    79.738271   -4830.1965 
  437600    468.63601   -4906.0576    85.654406   -4820.4031 
  437800    454.46356   -4906.0501    83.064052    -4822.986 
  438000    446.75552   -4908.9258    81.655223   -4827.2705 
  438200    461.62145   -4908.0993    84.372327    -4823.727 
  438400    461.47736    -4908.198    84.345992   -4823.8521 
  438600    462.19913   -4907.7037    84.477912   -4823.2258 
  438800     463.6785   -4910.0593    84.748303    -4825.311 
  439000    448.44218   -4911.6027    81.963502   -4829.6392 
  439200    447.21547   -4908.1859    81.739292   -4826.4466 
  439400    458.88451    -4904.563    83.872086   -4820.6909 
  439600    433.18074   -4907.7872     79.17411   -4828.6131 
  439800    446.93543    -4909.013    81.688106   -4827.3249 
  440000    458.59731   -4905.1589    83.819594   -4821.3393 
  440200     446.8674   -4906.6982    81.675674   -4825.0226 
  440400    450.27359   -4911.7472    82.298236    -4829.449 
  440600    454.73955   -4908.2287    83.114497   -4825.1142 
  440800     453.6989   -4904.2875    82.924292   -4821.3632 
  441000    441.21522   -4905.8375    80.642602   -4825.1949 
  441200    453.27095   -4910.4183    82.846075   -4827.5722 
  441400    455.64241   -4905.9907    83.279516   -4822.7112 
  441600    470.96597   -4909.3116    86.080262   -4823.2314 
  441800    453.24398   -4909.8729    82.841144   -4827.0317 
  442000    464.25647   -4909.8077     84.85394   -4824.9537 
  442200     457.2054   -4906.2764    83.565189   -4822.7112 
  442400    462.05727   -4907.7569    84.451983   -4823.3049 
  442600    439.59997   -4907.0588    80.347377   -4826.7114 
  442800    446.75463   -4906.6746    81.655062   -4825.0196 
  443000    466.97916   -4908.7777    85.351576   -4823.4261 
  443200    444.76234   -4907.6982    81.290923   -4826.4073 
  443400    456.12621   -4906.9158    83.367942   -4823.5479 
  443600    456.56828   -4907.9916     83.44874   -4824.5429 
  443800    447.18364   -4906.2994    81.733474   -4824.5659 
  444000    441.15472   -4902.4234    80.631545   -4821.7918 
  444200    467.55508   -4908.5929    85.456839   -4823.1361 
  444400    452.42738   -4909.1215    82.691892   -4826.4296 
  444600    454.75129   -4907.6517    83.116642    -4824.535 
  444800    460.53216   -4905.0044    84.173233   -4820.8312 
  445000    455.77555   -4908.3255    83.303849   -4825.0216 
  445200    453.84469   -4910.2393     82.95094   -4827.2883 
  445400    454.52772   -4907.2068     83.07578    -4824.131 
  445600    445.99727   -4907.1601    81.516635   -4825.6435 
  445800    445.27945     -4907.71    81.385437   -4826.3246 
  446000    459.68297   -4908.8153    84.018025   -4824.7973 
  446200    443.37194   -4907.4708    81.036793    -4826.434 
  446400    479.31513   -4908.1113     87.60627   -4820.5051 
  446600    447.03472   -4908.6088    81.706255   -4826.9026 
  446800    449.69992   -4908.8696    82.193384   -4826.6762 
  447000    465.56435   -4904.8375    85.092987   -4819.7445 
  447200     456.0997   -4907.8476    83.363096   -4824.4845 
  447400    448.10312   -4907.2642    81.901531   -4825.3627 
  447600    454.59199    -4904.129    83.087526   -4821.0415 
  447800    467.12771   -4909.9299    85.378728   -4824.5512 
  448000    450.19742    -4908.443    82.284313   -4826.1587 
  448200    452.11258   -4905.4835    82.634355   -4822.8492 
  448400    450.90303   -4906.5972     82.41328   -4824.1839 
  448600     463.0062    -4908.147    84.625424   -4823.5216 
  448800    458.04413   -4907.1393    83.718486   -4823.4208 
  449000    447.47561   -4904.8465    81.786838   -4823.0596 
  449200    477.45235   -4906.8211    87.265802   -4819.5553 
  449400    441.06197   -4909.0571    80.614591   -4828.4425 
  449600    456.71458   -4907.7639    83.475481   -4824.2884 
  449800    477.21491   -4904.7623    87.222403   -4817.5399 
  450000    440.51888   -4907.8607     80.51533   -4827.3454 
  450200    464.19316    -4911.391    84.842369   -4826.5486 
  450400     483.5792     -4907.64     88.38563   -4819.2544 
  450600    442.99202   -4903.9056    80.967354   -4822.9382 
  450800    438.40231   -4904.0758    80.128476   -4823.9473 
  451000    455.23194   -4909.1872    83.204493   -4825.9827 
  451200    456.52479   -4906.2336     83.44079   -4822.7928 
  451400    468.98913   -4905.7307    85.718947   -4820.0118 
  451600    438.71028   -4909.7507    80.184765    -4829.566 
  451800    457.48344   -4909.5429    83.616007   -4825.9269 
  452000    492.20911   -4906.1924    89.962951   -4816.2295 
  452200    458.96509   -4910.8325    83.886814   -4826.9457 
  452400    437.37048   -4906.3195    79.939883   -4826.3796 
  452600    465.05282   -4904.2105    84.999492    -4819.211 
  452800     442.1353   -4909.0127    80.810769   -4828.2019 
  453000    461.21395   -4907.1076    84.297847   -4822.8098 
  453200    481.62443   -4908.0804    88.028349   -4820.0521 
  453400    455.93959   -4908.5188    83.333833   -4825.1849 
  453600    453.68989   -4905.3743    82.922646   -4822.4517 
  453800    468.32448   -4906.7961    85.597466   -4821.1987 
  454000    449.29546    -4907.652     82.11946   -4825.5325 
  454200    458.13596   -4905.5845     83.73527   -4821.8492 
  454400    464.08557   -4905.4558    84.822703   -4820.6331 
  454600    449.38787   -4908.8091    82.136349   -4826.6728 
  454800    474.65444   -4908.1727    86.754417   -4821.4183 
  455000    484.94661   -4908.9489    88.635556   -4820.3134 
  455200     445.5396   -4908.0607    81.432986   -4826.6277 
  455400       474.54   -4909.2843      86.7335   -4822.5508 
  455600    462.55638   -4905.6853    84.543209   -4821.1421 
  455800    467.81062   -4907.3807    85.503546   -4821.8771 
  456000    466.96007    -4908.079    85.348088   -4822.7309 
  456200    456.80775    -4905.825    83.492509   -4822.3324 
  456400    466.76413   -4905.6969    85.312275   -4820.3846 
  456600    452.01743   -4907.7659    82.616964    -4825.149 
  456800    468.06821   -4908.5099    85.550626   -4822.9593 
  457000    447.82387   -4904.7789     81.85049   -4822.9284 
  457200    453.29227   -4903.6544    82.849971   -4820.8044 
  457400    456.45818   -4906.8835    83.428617   -4823.4548 
  457600    455.70697   -4908.3907    83.291315   -4825.0994 
  457800     466.0005   -4906.6314    85.172703   -4821.4587 
  458000    483.93251   -4908.4575    88.450205   -4820.0073 
  458200    443.28706   -4907.8906     81.02128   -4826.8693 
  458400    447.24889   -4907.0857      81.7454   -4825.3403 
  458600    472.18089   -4904.9398    86.302318   -4818.6374 
  458800    447.02859   -4904.9681    81.705133   -4823.2629 
  459000    453.22758     -4908.82    82.838148   -4825.9819 
  459200    466.25176   -4904.7394    85.218627   -4819.5207 
  459400     457.7362   -4905.0312    83.662205    -4821.369 
  459600    464.72185   -4907.7849    84.938999   -4822.8459 
  459800    460.40466   -4909.3142     84.14993   -4825.1643 
  460000    444.69204   -4905.4253    81.278074   -4824.1472 
  460200    467.44693   -4904.1469    85.437073   -4818.7098 
  460400    456.38686   -4906.9871    83.415581   -4823.5716 
  460600    445.27978   -4908.1942    81.385498   -4826.8087 
  460800    475.64901   -4905.3485    86.936199   -4818.4123 
  461000    453.94999   -4904.8039    82.970185   -4821.8337 
  461200      461.926   -4909.1232    84.427992   -4824.6952 
  461400    463.78266   -4903.9204    84.767339    -4819.153 
  461600    464.89999   -4907.0685    84.971559   -4822.0969 
  461800     459.0356   -4907.3531    83.899701   -4823.4534 
  462000    474.63865   -4907.3079    86.751531   -4820.5564 
  462200    449.29377   -4907.3793    82.119149   -4825.2602 
  462400    453.51405   -4905.7515    82.890506    -4822.861 
  462600    469.02849   -4905.7626    85.726141   -4820.0364 
  462800    459.82021   -4907.8588    84.043108   -4823.8157 
  463000    446.61857   -4902.6947    81.630194   -4821.0645 
  463200    464.81348   -4904.3202    84.955746   -4819.3645 
  463400    466.65635   -4909.4988    85.292576   -4824.2062 
  463600    470.26202   -4909.1205    85.951598   -4823.1689 
  463800    471.62634   -4904.3534     86.20096   -4818.1524 
  464000    454.46156   -4907.4061    83.063688   -4824.3424 
  464200    473.45536   -4906.8184    86.535257   -4820.2832 
  464400    460.88387   -4905.6621    84.237517   -4821.4246 
  464600    450.13378   -4907.4379    82.272681   -4825.1652 
  464800     464.9008   -4903.1605    84.971707   -4818.1888 
  465000    463.91534   -4905.5733    84.791591   -4820.7817 
  465200    450.20485   -4906.5137    82.285671   -4824.2281 
  465400    479.89965   -4903.0925    87.713104   -4815.3794 
  465600    461.32324   -4905.7962    84.317823   -4821.4784 
  465800    450.45599   -4909.4599    82.331574   -4827.1284 
  466000    475.59087   -4904.3914    86.925572   -4817.4658 
  466200    475.23446    -4906.462     86.86043   -4819.6015 
  466400    450.40247   -4907.1685    82.321791   -4824.8467 
  466600     460.8398   -4904.2472    84.229462   -4820.0177 
  466800     480.8027   -4905.8238    87.878158   -4817.9456 
  467000      445.883   -4903.9596     81.49575   -4822.4639 
  467200    471.93472   -4906.5351    86.257324   -4820.2778 
  467400    467.65772   -4907.6653      85.4756   -4822.1897 
  467600    454.57184   -4905.5384    83.083844   -4822.4546 
  467800    467.82117   -4900.4862    85.505473   -4814.9807 
  468000    454.37133   -4904.0426    83.047195   -4820.9954 
  468200    454.95561   -4909.5559    83.153987   -4826.4019 
  468400    480.53251   -4907.4224    87.828774   -4819.5936 
  468600    464.00115   -4906.9457    84.807274   -4822.1385 
  468800    458.98646    -4907.323    83.890721   -4823.4323 
  469000    475.16408    -4904.709    86.847566   -4817.8614 
  469200    459.30964   -4904.7357    83.949789   -4820.7859 
  469400    457.21757   -4905.1713    83.567413   -4821.6039 
  469600    475.41645   -4908.7479    86.893693   -4821.8542 
  469800    441.34748   -4904.9152    80.666777   -4824.2484 
  470000     474.6294   -4905.0132    86.749841   -4818.2634 
  470200    476.47506   -4907.0286    87.087178   -4819.9414 
  470400    450.26826   -4905.2278    82.297261   -4822.9306 
  470600    490.02712     -4904.13    89.564141   -4814.5659 
  470800    460.46034   -4908.9844    84.160107   -4824.8242 
  471000    438.34823   -4906.1657    80.118592   -4826.0471 
  471200    477.65047   -4901.3345    87.302014   -4814.0325 
  471400    468.35927    -4908.338    85.603825   -4822.7342 
  471600    469.20118    -4909.492    85.757704   -4823.7343 
  471800    472.00188   -4903.0738    86.269599   -4816.8042 
  472000    457.57246   -4907.7418    83.632277   -4824.1096 
  472200    460.36742   -4905.8377    84.143124   -4821.6946 
  472400    476.28608   -4905.3384    87.052637   -4818.2858 
  472600    444.76256   -4907.7446    81.290962   -4826.4536 
  472800    463.19216     -4903.52    84.659413   -4818.8606 
  473000    479.85405   -4904.6715    87.704769   -4816.9667 
  473200    456.94368   -4909.8751    83.517354   -4826.3578 
  473400    476.57305   -4907.2313    87.105089   -4820.1262 
  473600    487.54886   -4904.9859     89.11118   -4815.8747 
  473800    456.39842    -4907.808    83.417693   -4824.3903 
  474000    462.02318   -4905.0817    84.445753   -4820.6359 
  474200     494.3579   -4908.6719    90.355695   -4818.3162 
  474400    447.87919    -4905.336    81.860601   -4823.4754 
  474600    484.49333   -4903.0541    88.552708   -4814.5014 
  474800    455.36306   -4904.0416    83.228457   -4820.8131 
  475000    457.51216   -4908.1346    83.621257   -4824.5133 
  475200    478.49022   -4901.2016    87.455498   -4813.7461 
  475400    477.67249   -4905.9276    87.306037   -4818.6216 
  475600    449.00965   -4907.3363     82.06722   -4825.2691 
  475800    471.83734   -4904.1842    86.239525   -4817.9447 
  476000    474.24474   -4906.0936    86.679534   -4819.4141 
  476200    470.06538    -4907.108    85.915657   -4821.1923 
  476400    480.98771   -4904.3727    87.911973   -4816.4608 
  476600    443.45576   -4902.2818    81.052114   -4821.2297 
  476800     464.6884   -4906.3403    84.932886   -4821.4074 
  477000    476.86113   -4905.6366    87.157743   -4818.4788 
  477200    488.16612   -4909.1496    89.223998   -4819.9256 
  477400    464.47045   -4904.3401    84.893051   -4819.4471 
  477600    477.62307   -4906.4794    87.297004   -4819.1824 
  477800    470.07788   -4906.6355    85.917941   -4820.7176 
  478000    464.94087    -4907.886     84.97903    -4822.907 
  478200    467.75562   -4904.2894    85.493493    -4818.796 
  478400    467.54482   -4904.1965    85.454964   -4818.7416 
  478600    465.73717    -4907.499    85.124574   -4822.3744 
  478800    469.04893   -4905.6074    85.729876   -4819.8775 
  479000    468.24474   -4904.0032    85.582892   -4818.4203 
  479200    469.74568   -4905.2439    85.857223   -4819.3866 
  479400    471.93639   -4906.9176    86.257628     -4820.66 
  479600    458.54653   -4904.9246    83.810312   -4821.1143 
  479800    469.43072    -4903.849    85.799658   -4818.0493 
  480000    478.37902   -4903.8321    87.435173    -4816.397 
  480200    460.57344   -4906.7251    84.180779   -4822.5443 
  480400    466.58302   -4904.4484    85.279173   -4819.1692 
  480600    477.83318   -4904.5918    87.335408   -4817.2564 
  480800    461.63446   -4905.8676    84.374705   -4821.4929 
  481000    476.81614   -4908.2975     87.14952    -4821.148 
  481200    478.68901   -4908.9236    87.491831   -4821.4318 
  481400    471.59335   -4907.3069     86.19493    -4821.112 
  481600    473.59084   -4904.0098    86.560018   -4817.4498 
  481800    462.68219   -4908.0375    84.566202   -4823.4713 
  482000    459.92757   -4906.3238     84.06273   -4822.2611 
  482200    474.08961   -4901.8167     86.65118   -4815.1655 
  482400    468.40312   -4905.1431    85.611839   -4819.5313 
  482600     454.3841   -4905.7496    83.049528   -4822.7001 
  482800    465.84167   -4903.7191    85.143673   -4818.5754 
  483000    482.09065   -4903.7981    88.113562   -4815.6846 
  483200    475.73906   -4908.6748    86.952657   -4821.7221 
  483400    477.26447   -4907.1767    87.231463   -4819.9452 
  483600    480.75825   -4904.6948    87.870034   -4816.8248 
  483800     461.7404   -4904.7308    84.394069   -4820.3367 
  484000    476.56334   -4904.5175    87.103314   -4817.4142 
  484200    468.63707   -4904.8772    85.654599   -4819.2226 
  484400    486.39754   -4906.8737    88.900748   -4817.9729 
  484600      467.809   -4903.9629     85.50325   -4818.4597 
  484800    475.84221   -4903.8955     86.97151   -4816.9239 
  485000    470.32123   -4904.9871     85.96242   -4819.0247 
  485200    470.92685   -4905.0939    86.073112   -4819.0208 
  485400    469.67488   -4906.1244    85.844284   -4820.2801 
  485600    461.54671   -4906.4825    84.358667   -4822.1239 
  485800    480.14106   -4905.9407    87.757227   -4818.1835 
  486000    462.99115   -4901.7028    84.622673   -4817.0801 
  486200    460.00103   -4906.4182    84.076157    -4822.342 
  486400    478.83347   -4906.0879    87.518234   -4818.5697 
  486600     487.9127   -4904.7901     89.17768   -4815.6124 
  486800    461.45753   -4906.8775    84.342368   -4822.5352 
  487000    468.75801   -4905.7938    85.676704   -4820.1171 
  487200    480.26796   -4904.6447    87.780421   -4816.8643 
  487400    461.87637   -4904.7278     84.41892   -4820.3089 
  487600    482.03067   -4905.8805    88.102599   -4817.7779 
  487800    474.40531   -4904.9738    86.708882   -4818.2649 
  488000    454.33392   -4905.3966    83.040358   -4822.3562 
  488200    484.63772    -4905.529    88.579099   -4816.9499 
  488400    478.79381   -4903.8231    87.510986   -4816.3121 
  488600    451.30915   -4905.4623    82.487509   -4822.9748 
  488800    485.79515   -4906.0937    88.790647    -4817.303 
  489000    478.01026   -4904.1592    87.367773   -4816.7914 
  489200    463.80271   -4907.4204    84.771005   -4822.6494 
  489400    471.79077   -4904.5297    86.231014   -4818.2987 
  489600    476.15268   -4906.3995    87.028256   -4819.3712 
  489800    465.21671    -4906.769    85.029446   -4821.7395 
  490000    484.26663    -4906.124    88.511273   -4817.6127 
  490200    469.76659    -4906.322    85.861046    -4820.461 
  490400    481.62973   -4907.6921    88.029318   -4819.6628 
  490600    487.31727   -4906.2362    89.068851   -4817.1673 
  490800    454.99714   -4905.2876    83.161577    -4822.126 
  491000     463.4689   -4903.7276    84.709993   -4819.0176 
  491200    474.76349   -4901.5331    86.774349   -4814.7588 
  491400    455.35123   -4905.8078    83.226294   -4822.5815 
  491600    460.05879   -4904.3633    84.086714   -4820.2766 
  491800    498.10409    -4904.802    91.040399   -4813.7616 
  492000    456.34684    -4905.849    83.408267   -4822.4408 
  492200    481.29169   -4907.8422    87.967533   -4819.8747 
  492400    472.70026   -4901.6496    86.397243   -4815.2523 
  492600    471.42723   -4902.6328    86.164568   -4816.4683 
  492800    476.71779   -4904.4917    87.131543   -4817.3602 
  493000    469.29066   -4906.6647    85.774058   -4820.8906 
  493200    453.72065   -4903.0083    82.928269   -4820.0801 
  493400    475.10653   -4902.6604    86.837048   -4815.8234 
  493600    469.08434   -4905.9994    85.736349   -4820.2631 
  493800    473.01856   -4905.0337    86.455421   -4818.5783 
  494000    479.06668   -4904.6054     87.56086   -4817.0446 
  494200    470.82987   -4905.8929    86.055386   -4819.8375 
  494400    477.13558   -4903.6789    87.207905    -4816.471 
  494600    485.51659   -4906.2719    88.739735   -4817.5322 
  494800    465.57199   -4905.9645    85.094382   -4820.8701 
  495000    474.23655   -4902.3288    86.678038   -4815.6508 
  495200    479.88476   -4905.9094    87.710382    -4818.199 
  495400    466.33682   -4907.3292    85.234174    -4822.095 
  495600    463.48282   -4904.0265    84.712536   -4819.3139 
  495800    482.94892   -4904.8316    88.270431   -4816.5612 
  496000    480.45868   -4908.3335    87.815281   -4820.5182 
  496200    486.12296   -4908.9709    88.850562   -4820.1203 
  496400    479.40479   -4906.5474    87.622657   -4818.9247 
  496600    474.12089   -4906.2407    86.656898   -4819.5838 
  496800    478.86192   -4907.0591    87.523434   -4819.5356 
  497000    457.04254   -4906.7064    83.535423    -4823.171 
  497200    480.27772   -4908.6743    87.782206   -4820.8921 
  497400    479.36928   -4903.1173    87.616166   -4815.5011 
  497600    471.03337    -4903.969    86.092581   -4817.8764 
  497800    465.66167    -4909.812    85.110775   -4824.7013 
  498000     483.0387   -4907.8341    88.286841   -4819.5472 
  498200    484.93871   -4902.4483    88.634112   -4813.8142 
  498400    492.79149    -4905.742    90.069395   -4815.6726 
  498600    469.44297   -4907.9583    85.801896   -4822.1564 
  498800    469.18596   -4905.3357    85.754922   -4819.5807 
  499000    482.73328   -4902.6553    88.231018   -4814.4243 
  499200    461.46178   -4905.1035    84.343144   -4820.7604 
  499400    467.80694   -4905.1081    85.502873   -4819.6052 
  499600    481.35625   -4904.3453    87.979332    -4816.366 
  499800    477.82312   -4905.8596    87.333569    -4818.526 
  500000    469.83182   -4906.7012    85.872969   -4820.8282 
  500200     484.1321   -4905.3844    88.486686   -4816.8977 
  500400    471.37485   -4907.6643    86.154993   -4821.5094 
  500600    474.72611   -4907.5265    86.767516    -4820.759 
  500800    493.38455   -4905.6072    90.177792   -4815.4294 
  501000    462.70755   -4907.1564    84.570838   -4822.5855 
  501200    463.89501   -4905.1306    84.787874   -4820.3427 
  501400    502.59451   -4907.3345    91.861131   -4815.4734 
  501600     462.2604    -4905.623    84.489111   -4821.1338 
  501800    484.84339   -4907.4159    88.616691   -4818.7992 
  502000    475.35245    -4906.051    86.881995    -4819.169 
  502200    477.21569   -4910.6077    87.222546   -4823.3852 
  502400    477.47266   -4903.9737    87.269513   -4816.7042 
  502600    479.21737   -4904.8856    87.588402   -4817.2972 
  502800    473.52538   -4909.8018    86.548054   -4823.2538 
  503000    484.95016   -4904.5034    88.636206   -4815.8672 
  503200     485.6454   -4907.2269    88.763277   -4818.4637 
  503400      476.651   -4908.6555    87.119336   -4821.5361 
  503600    484.61009   -4905.8783     88.57405   -4817.3043 
  503800    463.28831     -4904.37    84.676986    -4819.693 
  504000    465.99361   -4902.1285    85.171443   -4816.9571 
  504200    482.80627   -4902.5867    88.244359   -4814.3423 
  504400    477.43877   -4906.0739     87.26332   -4818.8106 
  504600    476.60054   -4906.2091    87.110113    -4819.099 
  504800    475.15587   -4906.5292    86.846064   -4819.6831 
  505000    472.09189   -4904.8432     86.28605   -4818.5572 
  505200    465.05932   -4901.6903    85.000681   -4816.6896 
  505400    487.54515   -4905.5947    89.110502   -4816.4842 
  505600    459.04518   -4904.2907    83.901453   -4820.3893 
  505800    478.55683   -4905.4696    87.467671   -4818.0019 
  506000    487.68058    -4905.111    89.135256   -4815.9758 
  506200     473.3804   -4906.7876    86.521556    -4820.266 
  506400    504.33749   -4908.8314    92.179701   -4816.6517 
  506600    491.50522   -4906.9744    89.834299   -4817.1401 
  506800    474.38478   -4905.4074     86.70513   -4818.7023 
  507000    475.27392   -4906.1502    86.867642   -4819.2826 
  507200    470.73225   -4904.9085    86.037544   -4818.8709 
  507400    489.32121   -4904.7206    89.435119   -4815.2855 
  507600    483.07376   -4906.2524    88.293248   -4817.9592 
  507800    480.79782   -4905.3558    87.877266   -4817.4785 
  508000    469.14124   -4903.8403    85.746747   -4818.0935 
  508200    474.24422   -4905.2302     86.67944   -4818.5508 
  508400     495.7646   -4905.0617    90.612802   -4814.4489 
  508600    477.20171   -4906.1677    87.219992   -4818.9477 
  508800    468.92643   -4904.0655    85.707486    -4818.358 
  509000    487.04861   -4902.5417    89.019747    -4813.522 
  509200    465.63004   -4903.3474    85.104992   -4818.2424 
  509400    460.77436   -4905.0113    84.217501   -4820.7938 
  509600    495.52806   -4905.1527    90.569569   -4814.5831 
  509800    466.92875   -4905.1451    85.342364   -4819.8027 
  510000    483.43873   -4905.7281    88.359955   -4817.3682 
  510200    482.26672   -4903.4827    88.145743   -4815.3369 
  510400    467.02318   -4904.8259    85.359623   -4819.4663 
  510600     467.8041   -4902.9486    85.502354   -4817.4463 
  510800    481.61537   -4904.4854    88.026693   -4816.4587 
  511000    492.87725    -4908.989     90.08507   -4818.9039 
  511200    486.54661   -4904.7757    88.927995   -4815.8477 
  511400    480.20633   -4903.6917    87.769157   -4815.9225 
  511600    466.42844   -4905.9424     85.25092   -4820.6915 
  511800    474.69855   -4904.4348     86.76248   -4817.6723 
  512000    496.00762   -4902.9903     90.65722   -4812.3331 
  512200    483.01824    -4905.969    88.283101   -4817.6859 
  512400    489.90337   -4909.8059    89.541522   -4820.2644 
  512600    476.57414   -4903.5914    87.105288   -4816.4861 
  512800    491.56974   -4903.1654    89.846092   -4813.3193 
  513000     464.6739   -4905.6031    84.930236   -4820.6728 
  513200    476.12906   -4905.3568    87.023939   -4818.3329 
  513400    488.73322   -4904.3449     89.32765   -4815.0172 
  513600    477.89934   -4902.9303    87.347501   -4815.5828 
  513800    488.56274   -4905.8908     89.29649   -4816.5943 
  514000    486.58542   -4908.2661    88.935087    -4819.331 
  514200    468.73676   -4900.7241     85.67282   -4815.0513 
  514400    483.95507   -4902.2075    88.454329   -4813.7532 
  514600    460.49157    -4904.104    84.165816   -4819.9382 
  514800    490.97327   -4905.8297    89.737072   -4816.0926 
  515000    471.89364   -4900.1245    86.249816   -4813.8746 
  515200    470.19021   -4902.8357    85.938472   -4816.8972 
  515400    492.27033   -4906.7559     89.97414   -4816.7818 
  515600    479.45347   -4904.9382    87.631554   -4817.3067 
  515800    483.57807   -4906.8815    88.385423   -4818.4961 
  516000    477.53155    -4903.419    87.280277   -4816.1388 
  516200    476.18808   -4903.3464    87.034726   -4816.3117 
  516400    468.13406   -4904.2388    85.562661   -4818.6762 
  516600    479.74098   -4903.7115    87.684104   -4816.0274 
  516800    485.41842   -4903.7919    88.721792   -4815.0701 
  517000    476.98686   -4904.3942    87.180722   -4817.2135 
  517200    478.09903   -4903.0675    87.383999   -4815.6835 
  517400    464.11812   -4899.2963    84.828653   -4814.4676 
  517600    470.18607   -4904.0534    85.937715   -4818.1157 
  517800    468.23584   -4901.1973    85.581265   -4815.6161 
  518000    490.55161   -4906.1472    89.660004   -4816.4872 
  518200    481.52994   -4905.6775    88.011078   -4817.6664 
  518400    479.67336   -4902.9666    87.671745   -4815.2948 
  518600    475.08596   -4902.6792    86.833287   -4815.8459 
  518800    467.09407   -4905.5064     85.37258   -4820.1338 
  519000    480.08504   -4903.3893     87.74699   -4815.6423 
  519200    485.56526   -4902.1837    88.748629   -4813.4351 
  519400    476.45809    -4905.314    87.084077   -4818.2299 
  519600     480.5234   -4903.6602     87.82711   -4815.8331 
  519800    504.88196   -4905.5719    92.279216   -4813.2927 
  520000       465.37   -4905.3045    85.057463   -4820.2471 
  520200    470.85965   -4904.1162    86.060829   -4818.0554 
  520400    492.60887   -4903.8777    90.036018   -4813.8416 
  520600    479.65306   -4903.8148    87.668035   -4816.1468 
  520800    487.32352   -4904.6422    89.069994   -4815.5722 
  521000    463.59128   -4904.3755     84.73236   -4819.6432 
  521200    491.32688   -4904.2086    89.801703   -4814.4069 
  521400    491.19808   -4901.7335    89.778162   -4811.9553 
  521600    487.38525   -4907.6982    89.081275    -4818.617 
  521800    482.72186   -4906.0635     88.22893   -4817.8346 
  522000    504.07134   -4905.3703    92.131057   -4813.2393 
  522200    464.50706   -4903.5314    84.899742   -4818.6317 
  522400    473.92279   -4904.7569    86.620691   -4818.1362 
  522600    497.03446   -4904.5302      90.8449   -4813.6853 
  522800    469.85674   -4903.4048    85.877522   -4817.5273 
  523000    491.47642     -4905.14    89.829035    -4815.311 
  523200     491.1885   -4904.1656     89.77641   -4814.3892 
  523400     495.0123   -4908.8963    90.475301    -4818.421 
  523600    477.25287   -4904.2879    87.229342   -4817.0586 
  523800    475.32716   -4904.6342    86.877373   -4817.7568 
  524000    482.04985   -4901.9064    88.106104   -4813.8003 
  524200    497.72265   -4903.5645    90.970682   -4812.5939 
  524400    457.85549    -4903.446    83.684008    -4819.762 
  524600    487.82016   -4904.8185    89.160766   -4815.6578 
  524800    477.22146   -4901.8156    87.223601    -4814.592 
  525000    480.18466   -4906.7922    87.765196    -4819.027 
  525200    483.67386    -4904.426     88.40293    -4816.023 
  525400    492.38305   -4901.6262    89.994743   -4811.6315 
  525600    470.86472   -4902.6005    86.061755   -4816.5387 
  525800    479.95243   -4903.7394    87.722751   -4816.0167 
  526000    479.76737   -4903.4888    87.688927   -4815.7998 
  526200    471.37775   -4906.0018    86.155524   -4819.8463 
  526400    483.73616    -4901.289    88.414319   -4812.8747 
  526600    490.81883   -4902.8897    89.708844   -4813.1809 
  526800    466.40144   -4903.9242    85.245984   -4818.6782 
  527000    485.13452    -4902.686    88.669901   -4814.0161 
  527200    493.16703   -4904.8012    90.138034   -4814.6632 
  527400    482.32793   -4908.1209     88.15693   -4819.9639 
  527600    481.09888   -4902.2416    87.932293   -4814.3093 
  527800    505.17325    -4905.381    92.332457   -4813.0486 
  528000    479.01614   -4907.4038    87.551621   -4819.8522 
  528200    475.02215   -4899.9523    86.821625   -4813.1307 
  528400    481.54806   -4901.4687    88.014391   -4813.4543 
  528600    481.07971   -4906.2779    87.928788   -4818.3491 
  528800    488.97207   -4902.6278    89.371305   -4813.2565 
  529000    502.79201   -4903.8797    91.897229   -4811.9825 
  529200    467.18914   -4906.2895    85.389955   -4820.8995 
  529400    494.76416   -4904.1521    90.429948   -4813.7221 
  529600    483.00858   -4900.2578    88.281335   -4811.9764 
  529800    483.20591   -4907.1634    88.317402    -4818.846 
  530000    479.53449    -4900.848    87.646363   -4813.2016 
  530200     508.0402   -4905.7806    92.856461   -4812.9242 
  530400    469.15829   -4903.4108    85.749864   -4817.6609 
  530600    488.65941   -4902.7237    89.314159   -4813.4095 
  530800     486.3413   -4906.0889    88.890469   -4817.1984 
  531000    489.20812   -4905.8173    89.414449   -4816.4029 
  531200    521.75649   -4903.4195     95.36344    -4808.056 
  531400    477.30289    -4905.381    87.238485   -4818.1425 
  531600    466.19314   -4904.5209    85.207913    -4819.313 
  531800    491.75904   -4898.7571    89.880691   -4808.8764 
  532000    482.34854   -4901.3171    88.160697   -4813.1564 
  532200    477.78824   -4904.2414    87.327194   -4816.9142 
  532400    478.55806   -4902.7348    87.467897   -4815.2669 
  532600    488.40575   -4902.6643    89.267796   -4813.3965 
  532800     494.3689   -4903.2057    90.357704    -4812.848 
  533000    497.57609   -4906.6777    90.943895   -4815.7338 
  533200    470.08623     -4902.84    85.919467   -4816.9205 
  533400    493.75042   -4901.0328    90.244663   -4810.7881 
  533600    493.89484   -4902.9198     90.27106   -4812.6487 
  533800    473.69085   -4905.2217    86.578298   -4818.6434 
  534000     485.4336   -4904.6064    88.724565   -4815.8818 
  534200     483.7002   -4899.5654    88.407745   -4811.1576 
  534400    476.93068   -4900.5124    87.170454    -4813.342 
  534600      487.954   -4905.8697    89.185228   -4816.6844 
  534800    486.50558   -4903.7534    88.920495   -4814.8329 
  535000    502.52315   -4902.0984    91.848088   -4810.2503 
  535200    497.88382   -4903.2523    91.000141   -4812.2522 
  535400    474.81438   -4903.2692     86.78365   -4816.4855 
  535600    484.44176   -4903.8862    88.543283   -4815.3429 
  535800    488.73255   -4901.9201    89.327527   -4812.5926 
  536000    483.16378   -4901.9605    88.309702   -4813.6508 
  536200    482.81959   -4903.5775    88.246793   -4815.3307 
  536400    496.02026   -4903.9576     90.65953   -4813.2981 
  536600    482.22057     -4901.52    88.137308   -4813.3827 
  536800     496.4861   -4902.3968    90.744674   -4811.6522 
  537000    470.94482   -4901.2603    86.076396   -4815.1839 
  537200    484.41961   -4902.9863    88.539235   -4814.4471 
  537400     489.6157   -4900.0634    89.488944   -4810.5745 
  537600    491.75761   -4900.7021    89.880429   -4810.8217 
  537800    486.97166   -4904.1104    89.005683   -4815.1048 
  538000    486.00937   -4902.3381    88.829802   -4813.5083 
  538200    489.23001   -4902.1649     89.41845   -4812.7465 
  538400    488.97376     -4901.91    89.371614   -4812.5383 
  538600     483.7433   -4901.6417    88.415623   -4813.2261 
  538800    490.27535   -4902.5317    89.609511   -4812.9222 
  539000    481.36059   -4900.7788    87.980126   -4812.7987 
  539200     497.2617   -4904.5599    90.886434   -4813.6734 
  539400     494.4949   -4902.1943    90.380735   -4811.8135 
  539600    490.99505   -4901.8492    89.741053   -4812.1082 
  539800    476.06993   -4907.1832    87.013132   -4820.1701 
  540000    481.73212   -4900.3651    88.048032   -4812.3171 
  540200    511.37806   -4901.3369    93.466535   -4807.8704 
  540400    473.32162   -4903.8738    86.510812    -4817.363 
  540600    491.28668   -4905.7986    89.794356   -4816.0042 
  540800    487.04492    -4900.009    89.019073     -4810.99 
  541000    487.25206   -4901.3181    89.056933   -4812.2612 
  541200    483.12333   -4901.4499    88.302308   -4813.1476 
  541400    483.67386   -4903.2723    88.402931   -4814.8693 
  541600    490.38624   -4902.4237    89.629779   -4812.7939 
  541800    493.36787   -4900.9277    90.174743    -4810.753 
  542000    495.25131   -4901.1722    90.518987   -4810.6532 
  542200    485.24097   -4901.1649    88.689357   -4812.4756 
  542400    488.88122   -4903.8791      89.3547   -4814.5244 
  542600    501.98813   -4903.2499    91.750301   -4811.4996 
  542800    488.06103   -4901.6767    89.204791   -4812.4719 
  543000    475.17499   -4903.9113     86.84956   -4817.0618 
  543200    494.61972   -4900.7466    90.403548    -4810.343 
  543400    494.53007    -4899.833    90.387162   -4809.4459 
  543600    492.04836   -4905.6575     89.93357   -4815.7239 
  543800    497.95292   -4903.3026     91.01277   -4812.2898 
  544000     499.0675   -4900.5056    91.216486   -4809.2891 
  544200    491.50479   -4901.7837     89.83422   -4811.9495 
  544400    486.39879   -4902.8631    88.900977   -4813.9622 
  544600    484.42469   -4904.6427    88.540164   -4816.1025 
  544800    497.55432   -4901.8549    90.939916    -4810.915 
  545000    492.90904   -4899.9711    90.090881   -4809.8802 
  545200    481.07412   -4905.4223    87.927767   -4817.4945 
  545400      495.224    -4903.922    90.513995    -4813.408 
  545600    501.23339   -4902.5811    91.612354   -4810.9688 
  545800    474.28584    -4903.094    86.687047   -4816.4069 
  546000    485.38562   -4901.0249    88.715796   -4812.3091 
  546200     494.0987   -4900.5886    90.308319   -4810.2803 
  546400    476.23684    -4902.642    87.043638   -4815.5984 
  546600    498.05737   -4904.7613    91.031861   -4813.7294 
  546800    486.48293    -4900.839    88.916356   -4811.9226 
  547000    500.43379   -4902.5381    91.466207   -4811.0719 
  547200     488.3825   -4901.6135    89.263548     -4812.35 
  547400    497.90145   -4904.1324    91.003362    -4813.129 
  547600     495.3362    -4899.974    90.534502   -4809.4395 
  547800    485.09881   -4900.8731    88.663375   -4812.2098 
  548000    482.08004   -4901.0204    88.111623   -4812.9088 
  548200    489.02085   -4904.3568    89.380221   -4814.9765 
  548400    492.31691   -4902.9379    89.982654   -4812.9553 
  548600    512.92159   -4903.1014    93.748651   -4809.3527 
  548800    493.22422   -4902.3651    90.148487   -4812.2166 
  549000    476.00013   -4901.5802    87.000374   -4814.5798 
  549200     476.9006   -4898.7946    87.164957   -4811.6296 
  549400    492.91343   -4903.1019    90.091683   -4813.0102 
  549600    502.40535   -4903.5783    91.826557   -4811.7518 
  549800    480.11876   -4897.2679    87.753152   -4809.5147 
  550000    488.53052   -4901.1712    89.290602   -4811.8806 
  550200    494.78967   -4903.6888    90.434611   -4813.2542 
  550400    501.46726    -4901.846    91.655098   -4810.1909 
  550600    500.56262   -4903.6024    91.489754   -4812.1127 
  550800    491.36199   -4905.1251     89.80812    -4815.317 
  551000    491.57458   -4900.6825    89.846976   -4810.8355 
  551200    505.56521   -4899.8076    92.404097   -4807.4035 
  551400    482.04879   -4901.4087    88.105911   -4813.3027 
  551600    480.05261   -4905.4247    87.741061   -4817.6836 
  551800    516.99524   -4904.2359    94.493207   -4809.7427 
  552000    487.29898   -4898.5153    89.065509   -4809.4498 
  552200    487.06237    -4904.121    89.022262   -4815.0987 
  552400    484.63134    -4902.224    88.577934    -4813.646 
  552600     508.2247   -4901.6767    92.890182   -4808.7865 
  552800    480.75447   -4900.4119    87.869343   -4812.5425 
  553000     497.7716   -4902.3805     90.97963   -4811.4009 
  553200    496.45412   -4901.8338    90.738828    -4811.095 
  553400    502.03916   -4900.8837    91.759628   -4809.1241 
  553600    492.61061   -4900.4577    90.036335   -4810.4213 
  553800    484.03194   -4903.7671     88.46838   -4815.2987 
  554000    495.38782   -4899.7035    90.543937   -4809.1596 
  554200    490.53129   -4900.6767    89.656289   -4811.0204 
  554400    477.11523   -4901.3972    87.204185    -4814.193 
  554600    503.54149   -4900.4624    92.034214   -4808.4282 
  554800    508.39437   -4905.5074    92.921194   -4812.5862 
  555000    487.80024   -4903.8495    89.157126   -4814.6924 
  555200    511.17558   -4900.9728    93.429527   -4807.5433 
  555400    474.27756    -4900.965    86.685532   -4814.2795 
  555600    503.06141   -4907.0797    91.946468   -4815.1332 
  555800    500.72431     -4897.11    91.519308   -4805.5907 
  556000    502.41649   -4901.7901    91.828593   -4809.9615 
  556200     478.3733   -4904.1785    87.434128   -4816.7444 
  556400    511.12493   -4901.1684    93.420268   -4807.7481 
  556600    503.92191    -4902.153    92.103745   -4810.0492 
  556800    491.00263   -4903.7708    89.742439   -4814.0284 
  557000    499.87168   -4899.5323    91.363469   -4808.1688 
  557200    492.86236   -4901.0811    90.082348   -4810.9988 
  557400    475.74569   -4899.9482    86.953869   -4812.9944 
  557600      508.946    -4899.032    93.022017     -4806.01 
  557800    479.25062   -4901.7433    87.594478   -4814.1488 
  558000      486.956   -4903.0175    89.002821   -4814.0147 
  558200    521.21295   -4900.9778    95.264094   -4805.7137 
  558400    491.58482   -4900.6144    89.848847   -4810.7656 
  558600    479.84835   -4904.5771    87.703728   -4816.8734 
  558800    509.29592   -4903.4465    93.085974   -4810.3605 
  559000    516.40482    -4902.162    94.385295   -4807.7767 
  559200    486.39655   -4902.3235    88.900567    -4813.423 
  559400     499.0646   -4903.7507    91.215957   -4812.5347 
  559600    504.08566   -4898.5022    92.133674   -4806.3686 
  559800    480.68453   -4899.9804    87.856559   -4812.1238 
  560000    478.02639   -4898.8707    87.370721      -4811.5 
  560200    512.74006   -4901.2408    93.715472   -4807.5253 
  560400    481.62948   -4903.0029    88.029273   -4814.9736 
  560600    492.47651   -4900.5364    90.011825   -4810.5246 
  560800     496.8857   -4899.5814     90.81771   -4808.7637 
  561000    489.15751   -4902.8335    89.405198   -4813.4283 
  561200    495.70018   -4901.4666    90.601027   -4810.8656 
  561400    499.94602   -4900.7711    91.377057   -4809.3941 
  561600     484.5109   -4899.6762    88.555919   -4811.1202 
  561800    499.72658   -4901.6746    91.336949   -4810.3376 
  562000    497.92349   -4900.9296    91.007391   -4809.9222 
  562200    486.12981   -4899.9886    88.851815   -4811.1368 
  562400    498.65654   -4900.6491    91.141373   -4809.5077 
  562600    501.22047   -4901.1687    91.609992   -4809.5587 
  562800    497.46827   -4901.5329    90.924188   -4810.6087 
  563000    490.99487   -4896.3534    89.741021   -4806.6124 
  563200    513.40315   -4900.7616    93.836667   -4806.9249 
  563400    486.36983    -4905.485    88.895684   -4816.5893 
  563600    508.56664   -4903.9296    92.952681   -4810.9769 
  563800     521.6128   -4899.6271    95.337177     -4804.29 
  564000    492.83268   -4902.3693    90.076924   -4812.2924 
  564200    505.97121   -4903.5254    92.478304   -4811.0471 
  564400    508.09804   -4900.8815    92.867032   -4808.0145 
  564600    487.54437   -4897.7429    89.110359   -4808.6325 
  564800    504.67798   -4901.7775    92.241936   -4809.5356 
  565000     478.5766   -4902.1539    87.471285   -4814.6826 
  565200    506.38398   -4901.1075    92.553747   -4808.5537 
  565400    504.85863   -4895.6561    92.274953   -4803.3812 
  565600    502.43119   -4902.8316     91.83128   -4811.0003 
  565800    495.44937   -4903.9173    90.555186   -4813.3621 
  566000    476.54517   -4894.5868    87.099993   -4807.4868 
  566200     500.5559   -4897.9545    91.488526    -4806.466 
  566400    462.33124   -4898.7388    84.502058   -4814.2367 
  566600    505.63229   -4901.6343    92.416357   -4809.2179 
  566800    497.25746   -4897.4098    90.885658   -4806.5241 
  567000    504.26115    -4905.678    92.165748   -4813.5122 
  567200    502.97146   -4900.7269    91.930027   -4808.7969 
  567400      500.742   -4897.4131    91.522542   -4805.8905 
  567600    475.57767   -4899.9784     86.92316   -4813.0553 
  567800    508.24303   -4904.7934    92.893533   -4811.8999 
  568000    498.86198   -4899.6442    91.178922   -4808.4653 
  568200     490.3422   -4897.2704     89.62173   -4807.6487 
  568400    498.48126   -4901.9226    91.109337   -4810.8133 
  568600    489.24823   -4899.9183     89.42178   -4810.4965 
  568800    495.48716   -4898.0554    90.562093   -4807.4933 
  569000    509.48269   -4898.6581     93.12011    -4805.538 
  569200    482.49254   -4900.4307    88.187017   -4812.2437 
  569400     495.5458   -4901.4858    90.572811    -4810.913 
  569600    516.69616   -4899.9521    94.438543   -4805.5135 
  569800    500.67381   -4902.3912    91.510078   -4810.8811 
  570000    490.34935   -4903.4866    89.623035   -4813.8636 
  570200     517.2629   -4901.4627    94.542129   -4806.9206 
  570400    505.31695   -4900.9833    92.358722   -4808.6246 
  570600    512.75213   -4903.8674    93.717679   -4810.1498 
  570800    510.50579   -4901.6145    93.307107   -4808.3074 
  571000    498.30702   -4900.0466     91.07749   -4808.9691 
  571200     502.4787   -4901.1599    91.839964   -4809.3199 
  571400    498.74038   -4899.9205    91.156697   -4808.7638 
  571600    499.82018   -4900.7099    91.354056   -4809.3558 
  571800    487.13348   -4897.9977    89.035259   -4808.9624 
  572000     499.7822   -4900.4471    91.347114      -4809.1 
  572200    488.09378   -4898.5627    89.210778    -4809.352 
  572400    506.97941    -4897.678    92.662575   -4805.0154 
  572600    500.85186   -4899.1708    91.542621   -4807.6281 
  572800    495.31606   -4900.3677     90.53082   -4809.8369 
  573000    503.60648   -4899.0356    92.046093   -4806.9895 
  573200    503.48388   -4899.6572    92.023685   -4807.6335 
  573400     506.4288   -4902.6217     92.56194   -4810.0598 
  573600    495.17242   -4898.1858    90.504566   -4807.6812 
  573800    494.57903   -4898.4843    90.396111   -4808.0882 
  574000    496.90427   -4900.6975    90.821103   -4809.8764 
  574200    500.49169    -4897.786     91.47679   -4806.3092 
  574400    504.83557   -4901.9814    92.270739   -4809.7107 
  574600    483.06262    -4898.133    88.291213   -4809.8418 
  574800    505.68633   -4900.1005    92.426234   -4807.6742 
  575000    498.37499   -4903.6433    91.089912   -4812.5534 
  575200    504.47434   -4901.6637    92.204715   -4809.4589 
  575400    518.89835   -4898.2677    94.841047   -4803.4266 
  575600    484.76154   -4898.8484     88.60173   -4810.2467 
  575800    503.05964   -4901.4119    91.946145   -4809.4657 
  576000    506.76014   -4899.6688    92.622499   -4807.0463 
  576200    490.60955    -4899.926    89.670594   -4810.2554 
  576400    517.66103    -4901.623    94.614896   -4807.0081 
  576600    515.48359   -4902.1629    94.216917   -4807.9459 
  576800    491.34794   -4898.7811    89.805552   -4808.9755 
  577000    489.83659    -4895.904    89.529317   -4806.3747 
  577200    488.92559   -4895.1622     89.36281   -4805.7994 
  577400    497.51555   -4900.1068     90.93283    -4809.174 
  577600    517.17553   -4901.9735    94.526161   -4807.4473 
  577800    495.53569   -4901.4472    90.570963   -4810.8762 
  578000    502.44087   -4899.1842     91.83305   -4807.3511 
  578200    519.11164   -4901.0844     94.88003   -4806.2043 
  578400    497.50914   -4901.6339    90.931658   -4810.7022 
  578600    509.62986   -4901.4666    93.147009   -4808.3196 
  578800    503.50468   -4898.5661    92.027487   -4806.5387 
  579000    483.86822   -4899.5986    88.438454   -4811.1602 
  579200    508.33131   -4899.8171    92.909668   -4806.9074 
  579400    508.48146   -4900.3528    92.937112   -4807.4157 
  579600    500.63666   -4901.1919    91.503288   -4809.6886 
  579800    497.61194   -4897.7402    90.950448   -4806.7897 
  580000    499.90286   -4900.6802    91.369167   -4809.3111 
  580200     506.5851   -4899.6098    92.590506   -4807.0193 
  580400    493.53917    -4896.929    90.206051    -4806.723 
  580600    492.70547   -4899.2548    90.053673   -4809.2011 
  580800    504.95512   -4897.1112    92.292588   -4804.8186 
  581000    495.38005   -4898.9803    90.542516   -4808.4378 
  581200    500.49587   -4903.8749    91.477555   -4812.3974 
  581400    506.31402   -4896.9824     92.54096   -4804.4415 
  581600    520.83663   -4900.3763    95.195314    -4805.181 
  581800    489.65367   -4902.0543    89.495883   -4812.5585 
  582000    517.37429   -4899.2379    94.562488   -4804.6754 
  582200    521.10562   -4903.5004    95.244478   -4808.2559 
  582400    487.20323   -4901.9977    89.048009   -4812.9497 
  582600    511.94712   -4897.0252    93.570543   -4803.4546 
  582800    491.66628   -4898.1393    89.863737   -4808.2756 
  583000    497.02097   -4902.2627    90.842434   -4811.4203 
  583200    512.04566   -4896.4344    93.588554   -4802.8458 
  583400     496.1775   -4898.9243     90.68827    -4808.236 
  583600    487.20555   -4900.4813    89.048432   -4811.4329 
  583800    520.77922   -4900.1378     95.18482    -4804.953 
  584000    510.98625   -4903.6939    93.394922    -4810.299 
  584200    498.99499   -4902.7084    91.203233   -4811.5052 
  584400    523.98667   -4894.5234    95.771058   -4798.7523 
  584600     505.6104   -4899.1694    92.412357   -4806.7571 
  584800    496.55254   -4904.9522    90.756818   -4814.1954 
  585000    528.55119   -4902.1371    96.605333   -4805.5318 
  585200    498.41134   -4900.7501    91.096558   -4809.6536 
  585400    488.48309   -4898.5323    89.281933   -4809.2504 
  585600    513.29304   -4897.0754    93.816542   -4803.2588 
  585800    508.89815   -4902.9715    93.013271   -4809.9582 
  586000    498.17001   -4899.5652    91.052447   -4808.5128 
  586200    522.26232   -4896.6533    95.455891   -4801.1974 
  586400    491.06995   -4901.4435    89.754743   -4811.6887 
  586600    507.81502   -4903.2024    92.815305   -4810.3871 
  586800    513.86604   -4898.3561    93.921272   -4804.4349 
  587000    489.61979   -4897.7726    89.489692   -4808.2829 
  587200    505.67245    -4901.042    92.423698   -4808.6183 
  587400    507.89177   -4899.7099    92.829332   -4806.8805 
  587600    495.00149   -4899.6058    90.473325   -4809.1325 
  587800    495.39277   -4897.9886    90.544841   -4807.4438 
  588000    529.73496   -4899.1654    96.821695   -4802.3437 
  588200    508.04182   -4899.5069    92.856758   -4806.6501 
  588400     506.5647   -4899.4677    92.586778   -4806.8809 
  588600    498.48595   -4899.5655    91.110194   -4808.4554 
  588800    505.20985   -4902.5307    92.339147   -4810.1916 
  589000    519.42572   -4900.2507    94.937436   -4805.3132 
  589200    502.09945   -4898.6832    91.770647   -4806.9125 
  589400    510.08648    -4896.988    93.230468   -4803.7575 
  589600    493.92416   -4896.5346    90.276417   -4806.2582 
  589800    502.63787   -4899.9463    91.869056   -4808.0772 
  590000    528.02527   -4899.9726    96.509208   -4803.4634 
  590200    493.46561   -4899.3052    90.192606   -4809.1126 
  590400      490.903   -4898.5945    89.724229   -4808.8703 
  590600    529.24394   -4898.6702    96.731949   -4801.9382 
  590800    502.85728   -4898.8617    91.909159   -4806.9526 
  591000    505.39017    -4900.216    92.372105   -4807.8439 
  591200    533.46867   -4899.3316    97.504121   -4801.8275 
  591400    493.81294    -4897.092    90.256089   -4806.8359 
  591600    494.03515   -4898.5821    90.296703   -4808.2854 
  591800    517.32963   -4897.7664    94.554326    -4803.212 
  592000    508.92396   -4896.8431     93.01799   -4803.8251 
  592200    503.34686   -4897.8653     91.99864   -4805.8666 
  592400    497.84427   -4900.2446    90.992912   -4809.2516 
  592600    522.42351   -4904.6377    95.485354   -4809.1523 
  592800     510.0116   -4895.1403    93.216782   -4801.9235 
  593000    510.49528   -4898.5918    93.305186   -4805.2866 
  593200    492.81083   -4900.2852     90.07293   -4810.2122 
  593400    515.81758   -4895.6382    94.277962   -4801.3602 
  593600    513.29943    -4898.484    93.817711   -4804.6663 
  593800    488.41991    -4902.071    89.270384   -4812.8006 
  594000    532.24663   -4898.3446    97.280764   -4801.0638 
  594200    505.33918   -4897.0812    92.362785   -4804.7184 
  594400     491.2115    -4900.418    89.780615   -4810.6374 
  594600    528.07364    -4899.044    96.518049    -4802.526 
  594800    514.77731   -4900.5013    94.087828   -4806.4135 
  595000    489.54468    -4895.977    89.475964   -4806.5011 
  595200    512.79728   -4896.6535    93.725931   -4802.9275 
  595400    511.60725   -4900.4936    93.508424   -4806.9852 
  595600    501.90518   -4899.7783    91.735139   -4808.0432 
  595800    519.66435   -4896.6873    94.981051   -4801.7063 
  596000    508.22418   -4900.0474    92.890088   -4807.1573 
  596200    520.61724   -4900.8144    95.155215   -4805.6592 
  596400    504.66826    -4895.964    92.240159   -4803.7238 
  596600    493.76189   -4896.9396    90.246759   -4806.6928 
  596800    518.03374   -4899.7862    94.683018   -4805.1032 
  597000    505.10384   -4898.2595    92.319771   -4805.9398 
  597200    524.47124   -4899.8123    95.859625   -4803.9527 
  597400    520.34166   -4896.7618    95.104846   -4801.6569 
  597600    489.57249    -4899.931    89.481047   -4810.4499 
  597800    494.25635   -4895.7706    90.337133   -4805.4335 
  598000    529.14632   -4896.1486    96.714108   -4799.4345 
  598200    494.38236    -4901.704    90.360165   -4811.3439 
  598400    520.68227   -4903.1386    95.167101   -4807.9715 
  598600    499.71504   -4897.0575    91.334839   -4805.7227 
  598800    516.26719    -4898.601    94.360139   -4804.2408 
  599000    494.25648   -4898.5571    90.337158   -4808.2199 
  599200    496.10838   -4898.0126    90.675635   -4807.3369 
  599400    536.37651   -4899.1392    98.035597   -4801.1036 
  599600    514.14156   -4898.4316     93.97163     -4804.46 
  599800    496.62922   -4900.3412    90.770831   -4809.5703 
  600000    510.40327   -4900.6417    93.288367   -4807.3534 
  600200    505.75028    -4897.052    92.437924   -4804.6141 
  600400    504.93501   -4899.4581    92.288914   -4807.1692 
  600600    505.42774   -4897.8155    92.378972   -4805.4366 
  600800    508.10721   -4899.9048    92.868708   -4807.0361 
  601000    517.85237   -4900.4753    94.649869   -4805.8255 
  601200    528.08236   -4899.7871    96.519643   -4803.2675 
  601400    497.15606   -4899.1827    90.867125   -4808.3156 
  601600    502.37608   -4894.8334    91.821209   -4803.0122 
  601800    516.40786   -4894.9991     94.38585   -4800.6132 
  602000    499.72802   -4901.6827    91.337211   -4810.3455 
  602200    515.83058   -4901.2434    94.280339    -4806.963 
  602400    518.37436   -4895.8853    94.745275   -4801.1401 
  602600    511.15829   -4897.4296    93.426367   -4804.0033 
  602800     524.3992   -4898.5853    95.846458   -4802.7388 
  603000    493.67381   -4896.9117    90.230661    -4806.681 
  603200    504.08657   -4898.6949    92.133841    -4806.561 
  603400    530.24823   -4893.1728    96.915507   -4796.2573 
  603600    512.86488    -4898.411    93.738287   -4804.6727 
  603800     490.1498   -4902.8793    89.586564   -4813.2927 
  604000    526.48235   -4894.7565    96.227203   -4798.5293 
  604200    523.29305   -4899.4079    95.644283   -4803.7636 
  604400    490.73573   -4898.2447    89.693657   -4808.5511 
  604600    514.63983   -4894.8701    94.062701   -4800.8074 
  604800     508.7967   -4901.0992    92.994729   -4808.1045 
  605000    513.74648   -4898.9096     93.89942   -4805.0102 
  605200    540.43856   -4895.1529    98.778034   -4796.3748 
  605400    495.74162   -4901.0767    90.608602   -4810.4681 
  605600    500.68145   -4896.1308    91.511474   -4804.6193 
  605800    544.64794   -4896.4385    99.547398   -4796.8911 
  606000    502.24257   -4904.2853    91.796805   -4812.4885 
  606200    520.12323    -4901.841    95.064923   -4806.7761 
  606400    533.03434   -4897.5487    97.424737    -4800.124 
  606600    508.92956   -4900.5755    93.019013   -4807.5565 
  606800    534.75994   -4898.3206     97.74013   -4800.5805 
  607000    516.27979   -4896.1536    94.362442   -4801.7912 
  607200    507.38187   -4901.7128    92.736135   -4808.9767 
  607400    528.76428   -4896.8017     96.64428   -4800.1574 
  607600    515.70054   -4894.3437     94.25657   -4800.0871 
  607800    478.33656    -4900.943    87.427413   -4813.5156 
  608000    531.99057   -4896.0222    97.233962   -4798.7883 
  608200    520.31721   -4895.7607    95.100378   -4800.6604 
  608400    478.44008   -4902.3211    87.446332   -4814.8747 
  608600    518.44874   -4895.4204    94.758869   -4800.6616 
  608800    527.61769   -4895.4717    96.434713    -4799.037 
  609000    483.16026   -4899.1556    88.309059   -4810.8465 
  609200    538.60553   -4896.7269    98.443003   -4798.2839 
  609400    509.98047   -4896.6471    93.211091    -4803.436 
  609600    503.87905   -4899.1945    92.095911   -4807.0986 
  609800    525.37824   -4892.9074      96.0254    -4796.882 
  610000    496.38772   -4896.6627    90.726692    -4805.936 
  610200    509.73447   -4901.6771    93.166128    -4808.511 
  610400    522.23694   -4895.9549    95.451254   -4800.5037 
  610600    523.44093   -4897.9619    95.671311   -4802.2906 
  610800    499.77277   -4900.7178    91.345391   -4809.3724 
  611000    530.84403   -4900.5768    97.024404   -4803.5524 
  611200    532.47826   -4896.9978    97.323099   -4799.6747 
  611400    512.08053   -4893.8212    93.594927   -4800.2262 
  611600    506.48577    -4897.496    92.572352   -4804.9236 
  611800    501.31107   -4899.4624    91.626552   -4807.8359 
  612000    516.44352   -4892.4544    94.392367    -4798.062 
  612200    522.63407   -4893.5591    95.523839   -4798.0353 
  612400    513.37135   -4903.5129    93.830855   -4809.6821 
  612600    518.04157   -4896.9876     94.68445   -4802.3031 
  612800    530.10786   -4893.7887    96.889851   -4796.8989 
  613000    509.77754   -4896.9435       93.174   -4803.7695 
  613200    505.40353   -4895.6616    92.374546   -4803.2871 
  613400    525.13596   -4899.3767    95.981118   -4803.3956 
  613600    482.37222   -4896.0898    88.165025   -4807.9248 
  613800      542.451   -4894.7489    99.145855    -4795.603 
  614000    517.15946     -4900.82    94.523222   -4806.2967 
  614200    490.85404   -4901.0928    89.715279   -4811.3775 
  614400    545.40737   -4894.3113    99.686203   -4794.6251 
  614600    502.10359   -4895.3263    91.771403   -4803.5548 
  614800    487.34781    -4899.438    89.074434   -4810.3636 
  615000    535.08753   -4895.3487    97.800005   -4797.5487 
  615200    518.34951   -4891.9648    94.740733   -4797.2241 
  615400    482.73246   -4896.5843    88.230869   -4808.3535 
  615600    509.65574    -4898.365    93.151739   -4805.2133 
  615800    525.94571   -4896.6176    96.129119   -4800.4885 
  616000    501.34986   -4895.2421    91.633643   -4803.6084 
  616200    537.00584   -4897.0446    98.150622    -4798.894 
  616400    510.10248   -4897.9155    93.233392   -4804.6821 
  616600    521.16535   -4898.2004    95.255396    -4802.945 
  616800    542.01135   -4894.3766    99.065499   -4795.3111 
  617000    502.39735   -4899.8543    91.825096   -4808.0292 
  617200     505.6638   -4900.8503    92.422117   -4808.4282 
  617400    530.10801   -4892.3894    96.889879   -4795.4996 
  617600    518.47326    -4894.272    94.763352   -4799.5087 
  617800    502.45989   -4897.4714    91.836526   -4805.6349 
  618000    537.33424   -4898.3484    98.210646   -4800.1377 
  618200    510.58789   -4894.8469    93.322112   -4801.5248 
  618400    504.77969    -4897.771    92.260525   -4805.5105 
  618600     519.1515   -4898.9323    94.887316    -4804.045 
  618800    528.84292   -4897.6029    96.658654   -4800.9442 
  619000     513.3501   -4893.5509    93.826971   -4799.7239 
  619200    513.09269   -4895.1594    93.779924   -4801.3795 
  619400      500.508   -4896.2921    91.479772   -4804.8123 
  619600    525.18327   -4897.9833    95.989766   -4801.9935 
  619800    508.49053   -4895.0833    92.938769   -4802.1445 
  620000    521.35274   -4898.8455    95.289644   -4803.5558 
  620200    506.16615   -4893.3932    92.513933   -4800.8793 
  620400    521.54573   -4894.5486    95.324918   -4799.2237 
  620600    499.53395    -4896.639     91.30174   -4805.3373 
  620800    524.23513   -4894.8539    95.816471   -4799.0375 
  621000    524.37383   -4895.3665     95.84182   -4799.5247 
  621200    516.18488    -4901.252    94.345096   -4806.9069 
  621400    526.63393   -4897.0364    96.254908   -4800.7815 
  621600    523.10988    -4896.143    95.610805   -4800.5322 
  621800    530.89782   -4897.5663    97.034236   -4800.5321 
  622000    523.12997    -4896.466    95.614477   -4800.8516 
  622200     495.9919   -4898.4771    90.654347   -4807.8227 
  622400    522.31263   -4894.7575    95.465087   -4799.2924 
  622600    538.96551   -4895.5848    98.508798    -4797.076 
  622800    489.46325   -4898.3164     89.46108   -4808.8554 
  623000    517.18306    -4897.422    94.527536   -4802.8945 
  623200    531.04804   -4897.8597    97.061692    -4800.798 
  623400    516.85333   -4897.8593     94.46727    -4803.392 
  623600    524.98617   -4897.0318    95.953741   -4801.0781 
  623800    511.93142   -4897.2181    93.567674   -4803.6504 
  624000    509.13861   -4898.4441    93.057222   -4805.3869 
  624200    517.41567   -4894.1924    94.570051   -4799.6223 
  624400    515.13502   -4898.0213    94.153209   -4803.8681 
  624600    495.80723   -4897.9585    90.620594   -4807.3379 
  624800    534.25905   -4895.4673     97.64858   -4797.8187 
  625000    527.80192   -4898.2256    96.468386   -4801.7572 
  625200    511.94021   -4901.3482    93.569281    -4807.779 
  625400    522.04426   -4893.7773    95.416037   -4798.3613 
  625600    523.34453   -4897.4484    95.653692   -4801.7947 
  625800     502.4856   -4898.1094    91.841225   -4806.2681 
  626000    521.16714   -4893.9714    95.255723   -4798.7156 
  626200    523.59566   -4897.7164    95.699591   -4802.0168 
  626400    499.24259   -4898.4736    91.248488   -4807.2251 
  626600    529.33692   -4896.2662    96.748944   -4799.5173 
  626800    516.55803   -4898.3564    94.413298   -4803.9431 
  627000    507.33352   -4897.9282    92.727298   -4805.2009 
  627200     519.1097   -4892.6577    94.879676    -4797.778 
  627400    530.31635   -4898.2699    96.927957   -4801.3419 
  627600     510.9812   -4896.5138    93.393999   -4803.1198 
  627800    528.75419   -4893.9883    96.642437   -4797.3458 
  628000    502.69894    -4900.426    91.880219   -4808.5458 
  628200    516.39232   -4901.1051     94.38301    -4806.722 
  628400    534.66329   -4893.0166    97.722466   -4795.2941 
  628600    511.99992    -4896.219    93.580194   -4802.6388 
  628800    521.35107   -4899.7762    95.289339   -4804.4869 
  629000    516.07401   -4898.9918    94.324832    -4804.667 
  629200    521.92532   -4894.3334    95.394298   -4798.9391 
  629400    534.53385   -4893.9803    97.698807   -4796.2814 
  629600    512.48322   -4900.9485    93.668529     -4807.28 
  629800    517.93065   -4897.8885    94.664177   -4803.2243 
  630000    527.59888   -4892.2928    96.431276   -4795.8615 
  630200    504.83499   -4895.5122    92.270633   -4803.2416 
  630400    513.32992    -4898.022    93.823283   -4804.1987 
  630600    524.63589     -4894.78    95.889719   -4798.8902 
  630800    524.03468   -4895.3631    95.779833   -4799.5833 
  631000    501.19699   -4896.3353    91.605701   -4804.7296 
  631200    516.21032   -4895.9365    94.349744   -4801.5868 
  631400    526.95816   -4894.9858    96.314169   -4798.6716 
  631600    522.34543   -4898.6296    95.471083   -4803.1586 
  631800    500.02334   -4897.8848    91.391188   -4806.4936 
  632000    528.13339   -4895.6587     96.52897   -4799.1297 
  632200    533.49087   -4896.8435    97.508178   -4799.3353 
  632400    525.00135   -4896.5256    95.956516    -4800.569 
  632600    509.54724   -4894.6007    93.131908   -4801.4688 
  632800    529.33983   -4896.6035    96.749476    -4799.854 
  633000    532.51224   -4895.9486    97.329309   -4798.6193 
  633200    503.72259   -4897.2384    92.067314    -4805.171 
  633400    536.90805    -4898.562    98.132748   -4800.4293 
  633600    527.43647    -4897.926    96.401591   -4801.5244 
  633800    523.56839   -4899.9027    95.694608   -4804.2081 
  634000    520.21575   -4895.3271    95.081833   -4800.2453 
  634200    530.45522   -4894.8826    96.953339   -4797.9292 
  634400    534.03007    -4896.902    97.606729   -4799.2953 
  634600    505.75812    -4897.249    92.439356   -4804.8097 
  634800    530.31522   -4900.1442    96.927753   -4803.2165 
  635000    531.38474   -4897.0363    97.123232   -4799.9131 
  635200     527.7502   -4895.2105    96.458933   -4798.7516 
  635400    517.90117   -4895.3291    94.658789   -4800.6703 
  635600    521.34126    -4897.894    95.287546   -4802.6064 
  635800    530.26098   -4895.3203    96.917838   -4798.4025 
  636000    537.78195   -4899.6687    98.292474   -4801.3762 
  636200    512.99935   -4900.6081    93.762864   -4806.8452 
  636400    543.67791   -4897.2971    99.370103    -4797.927 
  636600    520.42842   -4895.3244    95.120703   -4800.2037 
  636800    505.60231   -4894.9487    92.410878   -4802.5378 
  637000    542.63651   -4897.5566    99.179762   -4798.3769 
  637200    516.30752   -4898.9207    94.367511   -4804.5532 
  637400    523.21914   -4896.0415    95.630774   -4800.4107 
  637600    538.53752   -4897.0095    98.430572   -4798.5789 
  637800    520.43987   -4900.0096    95.122795   -4804.8868 
  638000    552.70762   -4900.7521     101.0205   -4799.7316 
  638200    525.68723   -4894.3254    96.081877   -4798.2435 
  638400    510.03176   -4892.4528    93.220465   -4799.2323 
  638600    537.22445   -4895.9111    98.190579   -4797.7205 
  638800    517.92679   -4897.4987     94.66347   -4802.8352 
  639000    518.11482   -4897.8695    94.697838   -4803.1716 
  639200    531.31981   -4893.5533    97.111364    -4796.442 
  639400    523.23501    -4892.884    95.633674   -4797.2503 
  639600    529.69794   -4894.9828    96.814929   -4798.1678 
  639800    519.00738    -4896.101    94.860974     -4801.24 
  640000    528.70216   -4900.0991    96.632927   -4803.4662 
  640200    529.06292   -4894.1285    96.698865   -4797.4296 
  640400    516.85358   -4892.1592    94.467317   -4797.6919 
  640600    524.38641   -4897.9972    95.844121   -4802.1531 
  640800    525.28334   -4894.3412    96.008056   -4798.3332 
  641000    537.93888   -4895.7358    98.321157   -4797.4147 
  641200    518.26532     -4899.44    94.725346   -4804.7147 
  641400      522.169   -4895.4543    95.438835   -4800.0155 
  641600    567.54135    -4899.505    103.73172   -4795.7733 
  641800    508.68192   -4898.3062     92.97375   -4805.3325 
  642000    530.08794   -4898.3287    96.886211   -4801.4425 
  642200    523.97464   -4892.9499    95.768859   -4797.1811 
  642400    517.46501   -4894.4168    94.579069   -4799.8377 
  642600    516.06829   -4896.9699    94.323785   -4802.6461 
  642800    529.53009   -4895.7436    96.784251   -4798.9593 
  643000    513.12078   -4893.8749    93.785057   -4800.0899 
  643200    538.52834     -4897.11    98.428896   -4798.6811 
  643400    543.88895   -4898.8453    99.408675   -4799.4366 
  643600    521.12186   -4897.8855    95.247446   -4802.6381 
  643800    520.02779   -4894.4859    95.047478   -4799.4384 
  644000    538.34802   -4891.7528    98.395938   -4793.3568 
  644200    499.60183   -4896.5301    91.314148    -4805.216 
  644400    524.58747   -4900.1218    95.880868    -4804.241 
  644600    542.82459   -4892.7951    99.214137    -4793.581 
  644800    507.46433   -4893.2046    92.751207   -4800.4533 
  645000    516.79683   -4895.7946    94.456943   -4801.3377 
  645200    515.92516   -4891.6336    94.297626    -4797.336 
  645400    512.04545   -4895.1981    93.588516   -4801.6096 
  645600    520.28239   -4894.9891    95.094013   -4799.8951 
  645800    528.72832   -4894.6679    96.637708   -4798.0302 
  646000    516.60382   -4897.6369    94.421667   -4803.2153 
  646200    521.24763   -4893.8594    95.270434    -4798.589 
  646400    527.36218   -4893.2754    96.388014   -4796.8874 
  646600    501.15901   -4894.6901    91.598758   -4803.0914 
  646800     522.7319   -4894.3206     95.54172   -4798.7789 
  647000    521.20644   -4895.8471    95.262904   -4800.5842 
  647200    509.16898   -4896.8464    93.062773   -4803.7836 
  647400    539.53689   -4891.9324    98.613232   -4793.3192 
  647600     526.7928   -4897.6448    96.283945   -4801.3609 
  647800    516.60192   -4898.5866     94.42132   -4804.1653 
  648000    539.50762   -4894.4944    98.607883   -4795.8865 
  648200    516.40693   -4894.5215    94.385679   -4800.1359 
  648400    518.77232    -4895.446    94.818012    -4800.628 
  648600    531.03908    -4895.723    97.060054   -4798.6629 
  648800    519.51356   -4898.1291    94.953492   -4803.1756 
  649000    526.41465   -4893.0749     96.21483   -4796.8601 
  649200    538.35955   -4894.5853    98.398044   -4796.1873 
  649400    509.89758   -4897.7266    93.195941   -4804.5306 
  649600    535.56919   -4894.6391    97.888041    -4796.751 
  649800    550.19226   -4895.6527    100.56075   -4795.0919 
  650000    502.72514    -4896.271    91.885007    -4804.386 
  650200    532.06467   -4892.5611    97.247506   -4795.3136 
  650400    524.98423   -4895.2109    95.953386   -4799.2575 
  650600     503.9403   -4895.9609    92.107105   -4803.8538 
  650800    539.21794   -4890.2974    98.554935   -4791.7425 
  651000    531.25685   -4893.9978    97.099857   -4796.8979 
  651200    494.87854    -4896.745    90.450854   -4806.2941 
  651400    542.10896   -4894.3225     99.08334   -4795.2392 
  651600    523.58152   -4892.0401    95.697008   -4796.3431 
  651800    538.75136   -4897.0949    98.469658   -4798.6252 
  652000    511.70597   -4894.2653    93.526468   -4800.7388 
  652200    518.65077   -4893.2456    94.795796   -4798.4498 
  652400    534.16849   -4892.7346    97.632029   -4795.1025 
  652600    533.46009   -4897.3982    97.502552   -4799.8956 
  652800    528.95122   -4900.3078    96.678449   -4803.6293 
  653000    527.48131   -4890.8607    96.409788    -4794.451 
  653200    518.78336   -4888.7041    94.820029   -4793.8841 
  653400    518.74236    -4899.781    94.812535   -4804.9684 
  653600    535.07875   -4897.1561    97.798401   -4799.3577 
  653800    543.64545   -4892.6453     99.36417   -4793.2811 
  654000    532.59737   -4894.6482    97.344869   -4797.3034 
  654200    523.49037   -4896.0597    95.680348   -4800.3794 
  654400    527.34921   -4895.5812    96.385643   -4799.1955 
  654600    548.44499   -4893.7713     100.2414   -4793.5299 
  654800    522.78579   -4896.0078    95.551568   -4800.4562 
  655000    516.40591    -4896.297    94.385494   -4801.9115 
  655200    521.06959   -4890.5457    95.237892   -4795.3078 
  655400    531.21909   -4892.1618    97.092955   -4795.0689 
  655600    526.87478    -4895.775     96.29893   -4799.4761 
  655800    527.48821   -4898.0232    96.411048   -4801.6121 
  656000    530.65829   -4894.9943    96.990457   -4798.0039 
  656200    529.85567   -4893.3751    96.843757   -4796.5313 
  656400    518.86252   -4892.8699    94.834497   -4798.0354 
  656600     529.7272    -4896.031    96.820277   -4799.2108 
  656800    522.76765    -4892.945    95.548253   -4797.3967 
  657000    536.56105   -4891.2493    98.069326   -4793.1799 
  657200    520.97344   -4895.0623    95.220319    -4799.842 
  657400    536.56727   -4898.8598    98.070463   -4800.7894 
  657600    534.52508   -4893.4569    97.697204   -4795.7597 
  657800    535.69737   -4895.0642    97.911469   -4797.1527 
  658000    523.57121   -4895.8001    95.695124    -4800.105 
  658200    549.12379   -4895.5763    100.36547   -4795.2108 
  658400    526.14381   -4890.4619    96.165327   -4794.2965 
  658600    516.99592    -4893.514    94.493332   -4799.0207 
  658800    529.26851   -4896.7602     96.73644   -4800.0237 
  659000    525.51616   -4896.0193     96.05061   -4799.9687 
  659200    528.40748   -4893.6965    96.579066   -4797.1174 
  659400    522.57574   -4892.4614    95.513178   -4796.9482 
  659600    528.74278   -4900.0236    96.640352   -4803.3832 
  659800    533.94097    -4891.324    97.590443   -4793.7335 
  660000    533.03214   -4893.1495    97.424334   -4795.7252 
  660200      499.044   -4896.3093    91.212191   -4805.0971 
  660400    525.36953   -4891.5015    96.023809   -4795.4777 
  660600    541.13295   -4889.3246    98.904951   -4790.4196 
  660800    499.57048   -4892.8621    91.308418   -4801.5536 
  661000    528.76513   -4891.9293    96.644435   -4795.2849 
  661200    536.56853   -4892.7861    98.070694   -4794.7154 
  661400    534.79558   -4898.3661    97.746645   -4800.6195 
  661600    547.83887   -4897.8887    100.13062   -4797.7581 
  661800    533.11104   -4893.0014    97.438755   -4795.5627 
  662000     532.5826   -4894.8987    97.342169   -4797.5566 
  662200    512.06021   -4890.5494    93.591214   -4796.9582 
  662400    551.02215   -4894.5484    100.71244    -4793.836 
  662600    521.55265   -4897.0241    95.326183    -4801.698 
  662800    521.17998    -4898.044    95.258069   -4802.7859 
  663000    547.80114   -4891.1334    100.12372   -4791.0097 
  663200    522.54068   -4892.2067    95.506769   -4796.6999 
  663400    533.48153   -4897.4995    97.506471   -4799.9931 
  663600    556.34267   -4896.7531    101.68489   -4795.0682 
  663800     523.2236   -4891.2661    95.631588   -4795.6345 
  664000    516.59391   -4891.0127    94.419855   -4796.5928 
  664200    543.70571   -4894.6204    99.375184   -4795.2452 
  664400    530.90418   -4896.5671    97.035399   -4799.5317 
  664600    522.15654   -4889.6062    95.436559   -4794.1696 
  664800    540.60593   -4891.7642    98.808624   -4792.9555 
  665000    535.88634   -4897.7091    97.946008    -4799.763 
  665200    531.18809   -4895.2692     97.08729   -4798.1819 
  665400    541.97849   -4888.6866    99.059492   -4789.6271 
  665600    531.22997     -4897.01    97.094944   -4799.9151 
  665800    537.65206   -4898.5483    98.268733   -4800.2795 
  666000    552.29218   -4895.6784    100.94456   -4794.7338 
  666200    515.21176   -4893.4495    94.167235   -4799.2822 
  666400    521.01715   -4892.8032    95.228309   -4797.5749 
  666600    540.27217   -4890.0756    98.747622    -4791.328 
  666800    524.23195   -4891.2392    95.815889   -4795.4233 
  667000    532.93603   -4893.4314    97.406768   -4796.0246 
  667200    522.50929   -4891.1574    95.501032   -4795.6564 
  667400     520.6973   -4894.7273    95.169848   -4799.5574 
  667600    543.23934   -4893.2466    99.289943   -4793.9567 
  667800    553.13838   -4894.4292    101.09923   -4793.3299 
  668000    516.55702   -4895.9924    94.413112   -4801.5793 
  668200    549.63405   -4890.9267    100.45873    -4790.468 
  668400    537.04786   -4891.7366    98.158303   -4793.5783 
  668600    511.74165   -4893.6585    93.532988   -4800.1255 
  668800    541.03718    -4890.383    98.887446   -4791.4956 
  669000    530.93558   -4893.4788    97.041138   -4796.4377 
  669200    529.24816   -4896.7682    96.732721   -4800.0355 
  669400    555.98156   -4894.7598    101.61889   -4793.1409 
  669600    536.49186   -4890.3102     98.05668   -4792.2535 
  669800    517.91737   -4892.9161    94.661748   -4798.2544 
  670000    516.03421   -4892.9715    94.317556   -4798.6539 
  670200     539.5418   -4892.1074    98.614129   -4793.4932 
  670400     527.8393   -4893.1397    96.475218   -4796.6645 
  670600    534.28263   -4894.2303    97.652891   -4796.5774 
  670800    538.47997   -4894.0698    98.420055   -4795.6497 
  671000    528.21229   -4893.5071    96.543391   -4796.9637 
  671200    567.40736   -4895.6246    103.70723   -4791.9174 
  671400    528.19263   -4893.9894    96.539798   -4797.4496 
  671600    538.80388   -4893.5337    98.479258   -4795.0545 
  671800    553.03048   -4891.6655    101.07951    -4790.586 
  672000    517.95609   -4895.8259    94.668826   -4801.1571 
  672200    534.63109    -4893.456    97.716579   -4795.7394 
  672400    541.32989   -4887.8272    98.940946   -4788.8863 
  672600    515.53322   -4892.2076    94.225989   -4797.9816 
  672800    537.11664   -4894.6728    98.170873   -4796.5019 
  673000    544.04165   -4889.9085    99.436584   -4790.4719 
  673200    525.20169   -4889.9042    95.993133   -4793.9111 
  673400    532.30779   -4893.6533    97.291942   -4796.3613 
  673600    542.99655   -4894.1043    99.245566   -4794.8588 
  673800    537.14045   -4891.1389    98.175225   -4792.9637 
  674000    544.42698   -4892.6553    99.507013   -4793.1483 
  674200     529.4392   -4896.7208    96.767638   -4799.9531 
  674400    539.72203   -4894.2257    98.647071   -4795.5786 
  674600    542.40282   -4892.2996     99.13705   -4793.1626 
  674800     554.1096   -4894.9839    101.27674   -4793.7071 
  675000    533.42659   -4893.8665    97.496429     -4796.37 
  675200    537.78716   -4893.4801    98.293427   -4795.1866 
  675400    530.18219   -4888.1389    96.903437   -4791.2355 
  675600    529.47939   -4891.6956    96.774985   -4794.9206 
  675800    520.20222   -4891.8041    95.079359   -4796.7248 
  676000    539.56872   -4889.1067     98.61905   -4790.4877 
  676200    560.86701   -4894.6668    102.51182   -4792.1549 
  676400    524.91718   -4893.2382    95.941132   -4797.2971 
  676600    543.39684   -4891.9616     99.31873   -4792.6429 
  676800    530.78058   -4887.5755    97.012807   -4790.5627 
  677000    533.08819   -4894.6828    97.434579   -4797.2483 
  677200    538.72757   -4893.2355     98.46531   -4794.7702 
  677400    553.48467   -4894.1566    101.16252   -4792.9941 
  677600    522.78537   -4894.8497    95.551491   -4799.2982 
  677800    539.93429    -4889.812    98.685865   -4791.1261 
  678000    531.83327   -4891.4128    97.205211   -4794.2076 
  678200    531.56186   -4897.1214    97.155606   -4799.9658 
  678400    549.55462   -4892.8098    100.44421   -4792.3656 
  678600    546.13467   -4889.6142    99.819134   -4789.7951 
  678800    535.24311   -4894.7235    97.828442    -4796.895 
  679000     525.1863   -4893.5906    95.990319   -4797.6003 
  679200     547.4289   -4886.3308    100.05568   -4786.2751 
  679400    540.36648   -4892.7581    98.764859   -4793.9932 
  679600    523.36728   -4894.3638     95.65785    -4798.706 
  679800    541.85625   -4887.9043     99.03715   -4788.8672 
  680000     525.8083   -4887.6701    96.104005   -4791.5661 
  680200    529.46615   -4893.0972    96.772565   -4796.3246 
  680400    548.96899   -4892.9731    100.33717   -4792.6359 
  680600    530.51728   -4892.3717    96.964682    -4795.407 
  680800    547.08565   -4892.2531    99.992947   -4792.2602 
  681000    552.83557   -4893.7228    101.04388    -4792.679 
  681200    515.87198   -4895.5351    94.287905   -4801.2472 
  681400    532.97183   -4890.9251     97.41331   -4793.5118 
  681600    559.12728   -4889.6595    102.19384   -4787.4656 
  681800    539.05088   -4895.9649    98.524403   -4797.4405 
  682000    539.94589   -4895.3291    98.687986   -4796.6411 
  682200    560.88702   -4895.0661    102.51548   -4792.5506 
  682400    531.91968   -4886.9416    97.221006   -4789.7206 
  682600    538.72355   -4889.4416    98.464576   -4790.9771 
  682800    533.97259   -4896.5986    97.596223   -4799.0023 
  683000    549.62745    -4894.007    100.45752   -4793.5494 
  683200     558.0481   -4889.0037     101.9966   -4787.0071 
  683400    537.13931   -4894.7296    98.175018   -4796.5545 
  683600     526.9208   -4896.2397    96.307341   -4799.9323 
  683800    572.25028   -4892.1508    104.59238   -4787.5585 
  684000    528.89766   -4891.4838    96.668658   -4794.8151 
  684200    524.39491   -4894.6529    95.845675   -4798.8072 
  684400    561.48303    -4891.236    102.62441   -4788.6116 
  684600    559.88217   -4893.5172    102.33182   -4791.1854 
  684800    551.38569   -4895.7863    100.77888   -4795.0074 
  685000    558.24983   -4894.3312    102.03347   -4792.2977 
  685200    523.10561   -4892.5614    95.610024   -4796.9514 
  685400    568.17066   -4892.6982    103.84674   -4788.8514 
  685600     530.4026   -4892.1198    96.943722   -4795.1761 
  685800    545.57519   -4895.8632    99.716876   -4796.1463 
  686000    552.83278   -4892.9362    101.04337   -4791.8928 
  686200    542.82601   -4892.2683    99.214398   -4793.0539 
  686400     528.2697   -4888.7093    96.553885   -4792.1554 
  686600    549.88024   -4891.8637    100.50373   -4791.3599 
  686800    522.78231   -4890.9719    95.550933   -4795.4209 
  687000    529.13507   -4889.5321     96.71205     -4792.82 
  687200    545.36878   -4892.2361    99.679149    -4792.557 
  687400    542.65002   -4894.0864    99.182231   -4794.9041 
  687600     531.0824   -4890.0458    97.067972   -4792.9778 
  687800      538.161   -4890.7474    98.361754   -4792.3857 
  688000    521.35524   -4892.3345    95.290103   -4797.0444 
  688200     538.9086   -4892.1812    98.498397   -4793.6828 
  688400    555.40752   -4892.5368    101.51397   -4791.0228 
  688600    525.32531    -4892.261    96.015728   -4796.2453 
  688800    562.16835   -4894.7163    102.74967   -4791.9666 
  689000    549.67843   -4892.8044    100.46684   -4792.3375 
  689200    536.54375   -4894.6206    98.066164   -4796.5544 
  689400      558.021     -4893.33    101.99164   -4791.3384 
  689600    536.88057   -4889.8564    98.127727   -4791.7287 
  689800    540.33739   -4892.3891    98.759542   -4793.6295 
  690000    541.16682   -4892.2127    98.911141   -4793.3016 
  690200    545.04046   -4894.6145     99.61914   -4794.9954 
  690400    534.21901   -4887.8418    97.641263   -4790.2005 
  690600    529.71905   -4886.3092    96.818788   -4789.4905 
  690800    529.59555   -4892.8853    96.796215   -4796.0891 
  691000    542.69253   -4892.2794    99.190001   -4793.0894 
  691200    537.51614   -4891.8538    98.243892   -4793.6099 
  691400    547.72297   -4894.6321    100.10943   -4794.5226 
  691600    546.63373   -4892.6078    99.910349   -4792.6975 
  691800    531.51109   -4892.8959    97.146326   -4795.7495 
  692000    570.83043   -4891.4104    104.33287   -4787.0776 
  692200    534.75956   -4892.2666     97.74006   -4794.5266 
  692400     532.2149   -4894.0618    97.274963   -4796.7868 
  692600    577.70938   -4892.8773    105.59017   -4787.2871 
  692800    511.98929    -4890.325    93.578251   -4796.7468 
  693000    542.95337   -4894.3107    99.237674    -4795.073 
  693200    556.69579   -4889.8483    101.74943   -4788.0988 
  693400    536.53412   -4892.5553    98.064403   -4794.4909 
  693600    523.24605    -4890.891    95.635693   -4795.2553 
  693800    553.50554   -4891.7756    101.16634   -4790.6093 
  694000    544.59852   -4893.5625    99.538366   -4794.0241 
  694200    541.68721   -4895.5397    99.006254   -4796.5335 
  694400    544.04749   -4892.2915    99.437652   -4792.8538 
  694600    549.67931   -4891.5612      100.467   -4791.0942 
  694800      555.876    -4893.983    101.59959   -4792.3835 
  695000     538.5019   -4894.4159    98.424063   -4795.9918 
  695200    538.06463    -4892.725    98.344141   -4794.3809 
  695400    569.63603   -4891.0406    104.11457   -4786.9261 
  695600    529.54484   -4890.2883    96.786946   -4793.5014 
  695800    520.97174   -4895.3796    95.220009   -4800.1596 
  696000    564.10645   -4893.1621     103.1039   -4790.0582 
  696200    548.95421    -4890.953    100.33447   -4790.6186 
  696400    524.38461   -4891.1473    95.843792   -4795.3036 
  696600    536.00713   -4890.1984    97.968084   -4792.2303 
  696800     556.0472   -4894.1811    101.63088   -4792.5502 
  697000    524.35542   -4887.0254    95.838456    -4791.187 
  697200    530.99336   -4890.9053    97.051698   -4793.8536 
  697400    536.19377   -4889.4827    98.002197   -4791.4805 
  697600     544.9377   -4890.7864    99.600359   -4791.1861 
  697800     536.5967   -4891.4054    98.075843   -4793.3296 
  698000    530.93576   -4889.0871     97.04117   -4792.0459 
  698200     559.4474   -4893.1735    102.25235   -4790.9211 
  698400     543.4269   -4892.5864    99.324224   -4793.2622 
  698600     545.1934   -4892.2658    99.647094   -4792.6187 
  698800    546.86802   -4888.7813    99.953171   -4788.8281 
  699000    521.88346   -4888.7252    95.386646   -4793.3385 
  699200    535.89951   -4889.8039    97.948414   -4791.8555 
  699400    557.27262    -4888.388    101.85486   -4786.5331 
  699600    537.94807   -4892.3204    98.322837   -4793.9976 
  699800    544.83504   -4891.2888    99.581595   -4791.7073 
  700000    544.79174   -4892.6437    99.573681     -4793.07 
  700200    549.76356   -4897.6464     100.4824    -4797.164 
  700400    543.02843   -4889.7741    99.251394   -4790.5227 
  700600    551.01407   -4887.3429    100.71096    -4786.632 
  700800      547.801   -4893.3594     100.1237   -4793.2357 
  701000    545.60039   -4890.8949     99.72148   -4791.1734 
  701200    549.99898   -4890.7124    100.52543    -4790.187 
  701400    532.15018   -4891.0676    97.263134   -4793.8045 
  701600    540.94807   -4891.1382    98.871158    -4792.267 
  701800    543.53208   -4889.8746    99.343447   -4790.5311 
  702000    550.39937   -4891.4092    100.59861   -4790.8106 
  702200    545.75364   -4890.8375    99.749492    -4791.088 
  702400    534.63265   -4889.8117    97.716866   -4792.0948 
  702600    531.80184    -4890.617    97.199467   -4793.4176 
  702800    541.31502   -4889.6746    98.938228   -4790.7364 
  703000    552.02095   -4888.6377    100.89499   -4787.7427 
  703200    536.64723   -4894.7666    98.085078   -4796.6815 
  703400    534.63632   -4890.3926    97.717536    -4792.675 
  703600    572.57098   -4891.5192      104.651   -4786.8682 
  703800    534.04808   -4892.2393    97.610021   -4794.6293 
  704000    566.55521   -4893.8754    103.55147   -4790.3239 
  704200    545.71686   -4889.2631     99.74277   -4789.5204 
  704400    539.77414   -4891.4957    98.656594   -4792.8391 
  704600    549.80687   -4891.5818    100.49032   -4791.0915 
  704800     546.8171   -4894.2996    99.943864   -4794.3558 
  705000    546.61595   -4893.8214    99.907099   -4793.9143 
  705200    553.67727   -4892.0807    101.19772    -4790.883 
  705400    537.52948     -4890.88     98.24633   -4792.6337 
  705600    553.46206   -4890.8978    101.15839   -4789.7394 
  705800    558.20865   -4890.6252    102.02594   -4788.5993 
  706000    538.55445   -4892.9985    98.433667   -4794.5648 
  706200    545.30995   -4891.0987    99.668397   -4791.4303 
  706400    549.35539   -4889.2601     100.4078   -4788.8523 
  706600    551.93993   -4891.3746    100.88018   -4790.4944 
  706800    534.57711   -4889.9396    97.706713   -4792.2329 
  707000    530.42568   -4888.7861    96.947942   -4791.8381 
  707200    542.53528   -4891.8426    99.161259   -4792.6814 
  707400    542.43425   -4892.2597    99.142794   -4793.1169 
  707600    558.66921    -4892.032    102.11012   -4789.9218 
  707800    540.62824   -4893.9368    98.812702   -4795.1241 
  708000    543.44263   -4891.7356    99.327099   -4792.4085 
  708200    553.63834   -4892.6561    101.19061   -4791.4655 
  708400    539.43623   -4893.5789    98.594834   -4794.9841 
  708600    558.14737    -4891.374    102.01474   -4789.3593 
  708800    544.79074   -4889.0967    99.573499   -4789.5232 
  709000    551.18233   -4890.9543    100.74171   -4790.2125 
  709200    538.76108   -4888.8024    98.471433    -4790.331 
  709400    538.55683   -4890.9841    98.434102     -4792.55 
  709600    553.68565   -4892.7896    101.19926   -4791.5903 
  709800    557.93918   -4888.8901    101.97669   -4786.9134 
  710000    552.01252   -4891.3806    100.89345   -4790.4871 
  710200    543.56541   -4892.7884     99.34954   -4793.4389 
  710400    559.73085   -4889.4428    102.30416   -4787.1386 
  710600    565.45932   -4893.9008    103.35117   -4790.5496 
  710800    532.44134   -4893.3481    97.316351   -4796.0317 
  711000     546.7632   -4891.1679    99.934013   -4791.2339 
  711200    537.93471   -4886.8847    98.320395   -4788.5643 
  711400    559.63238   -4892.9114    102.28616   -4790.6253 
  711600    543.79787   -4892.2376    99.392027   -4792.8455 
  711800    553.34987   -4893.6821    101.13788   -4792.5443 
  712000    552.90536   -4889.4319    101.05664   -4788.3752 
  712200    553.11586   -4891.3978    101.09511   -4790.3027 
  712400    542.83558   -4894.3743    99.216147   -4795.1582 
  712600    545.18038   -4891.2172    99.644714   -4791.5725 
  712800    553.89108   -4890.8731     101.2368   -4789.6363 
  713000    551.97523   -4891.6655    100.88664   -4790.7789 
  713200    534.18782   -4893.8247    97.635562   -4796.1892 
  713400    563.18642   -4893.0224    102.93575   -4790.0867 
  713600    538.56878   -4887.6498    98.436287   -4789.2135 
  713800    538.25326   -4890.9605    98.378618   -4792.5819 
  714000    536.08013   -4891.6791    97.981426   -4793.6977 
  714200    545.55121    -4893.265    99.712493   -4793.5525 
  714400    545.80911   -4890.4604     99.75963   -4790.7007 
  714600    564.16849   -4892.6195    103.11524   -4789.5042 
  714800    555.11796    -4898.016    101.46104    -4796.555 
  715000    547.41885   -4893.8427    100.05385   -4793.7889 
  715200    549.27465   -4890.6093    100.39304   -4790.2162 
  715400    557.66835   -4894.9827    101.92719   -4793.0555 
  715600    563.49466   -4894.3188    102.99209   -4791.3267 
  715800    555.77582   -4888.7831    101.58128   -4787.2018 
  716000    534.22555   -4888.2163    97.642457   -4790.5738 
  716200    561.94569   -4895.3307    102.70897   -4792.6218 
  716400    545.47121    -4891.559    99.697871   -4791.8612 
  716600    541.01463   -4891.1172    98.883325   -4792.2339 
  716800    559.52962   -4892.0713    102.26738   -4789.8039 
  717000    537.79313   -4892.3644    98.294519   -4794.0699 
  717200    561.92285   -4892.7838     102.7048    -4790.079 
  717400    568.31719   -4893.4628    103.87352   -4789.5893 
  717600    524.85036   -4893.2385    95.928919   -4797.3096 
  717800    563.61493   -4891.7083    103.01407   -4788.6942 
  718000    557.61546    -4890.606    101.91752   -4788.6885 
  718200    552.94432   -4894.8135    101.06376   -4793.7497 
  718400    551.74483   -4892.8443    100.84452   -4791.9998 
  718600    547.39804   -4890.6373    100.05004   -4790.5873 
  718800    545.17742   -4889.2043    99.644173   -4789.5601 
  719000    555.01049   -4893.6763     101.4414   -4792.2349 
  719200    545.59071   -4892.0266    99.719711   -4792.3069 
  719400    558.91342   -4893.5664    102.15475   -4791.4117 
  719600    556.82519   -4891.7376    101.77308   -4789.9646 
  719800    558.08876   -4890.7552    102.00403   -4788.7512 
  720000    555.42777   -4886.5364    101.51767   -4785.0188 
  720200    532.95245   -4890.9902    97.409769   -4793.5804 
  720400    535.79799   -4892.2298    97.929859   -4794.2999 
  720600    562.49871   -4891.0804    102.81005   -4788.2704 
  720800     570.5342   -4893.9947    104.27873    -4789.716 
  721000     550.1103   -4890.7821    100.54577   -4790.2364 
  721200    554.35655   -4891.5785    101.32188   -4790.2566 
  721400    545.55574   -4889.9524    99.713321    -4790.239 
  721600    554.94175   -4887.4951    101.42884   -4786.0663 
  721800    533.61737   -4889.6774    97.531298   -4792.1462 
  722000    551.79958   -4893.0309    100.85453   -4792.1764 
  722200    552.41634   -4885.2974    100.96726   -4784.3301 
  722400    559.04743   -4888.9824    102.17925   -4786.8031 
  722600    545.55055   -4895.5373    99.712371   -4795.8249 
  722800    561.74307   -4892.4241    102.67194   -4789.7521 
  723000    562.18373     -4889.68    102.75248   -4786.9275 
  723200    545.22695   -4890.5736    99.653226   -4790.9203 
  723400    553.87171   -4891.1471    101.23326   -4789.9138 
  723600    559.00355   -4892.7597    102.17123   -4790.5884 
  723800    560.17938    -4889.958    102.38614   -4787.5719 
  724000    560.94199   -4886.5711    102.52552   -4784.0455 
  724200    555.08359   -4893.7693    101.45476   -4792.3145 
  724400    553.10571   -4892.3731    101.09326   -4791.2798 
  724600    566.55688   -4888.4787    103.55178   -4784.9269 
  724800    533.72155   -4890.2743    97.550339    -4792.724 
  725000    547.36837   -4889.1417    100.04462    -4789.097 
  725200    564.32041   -4885.2713    103.14301   -4782.1283 
  725400    551.26286   -4890.8834    100.75643    -4790.127 
  725600    557.98524   -4892.2934    101.98511   -4790.3083 
  725800    543.79461   -4888.3072    99.391432   -4788.9158 
  726000    564.27152   -4893.1098    103.13408   -4789.9757 
  726200    564.03634   -4890.3077    103.09109   -4787.2166 
  726400    537.63569    -4891.281    98.265742   -4793.0153 
  726600    555.58284   -4888.8286    101.54601   -4787.2826 
  726800    562.93687   -4887.3804    102.89014   -4784.4902 
  727000    535.89219   -4891.8631    97.947076    -4793.916 
  727200    561.66602   -4891.3232    102.65786   -4788.6653 
  727400    566.80988   -4888.5437    103.59802   -4784.9457 
  727600    537.35177   -4892.6241    98.213849   -4794.4103 
  727800    576.18688   -4892.1897    105.31189   -4786.8779 
  728000     573.6239   -4890.2006    104.84345   -4785.3572 
  728200    546.09406   -4890.4258    99.811711   -4790.6141 
  728400    558.30145   -4887.8427     102.0429   -4785.7997 
  728600    545.50156   -4891.4853    99.703417   -4791.7818 
  728800    549.48821   -4890.3089    100.43207   -4789.8769 
  729000    564.15853   -4886.4177    103.11342   -4783.3043 
  729200    555.09827    -4892.788    101.45744   -4791.3306 
  729400    557.19244   -4892.5622     101.8402    -4790.722 
  729600    579.39195   -4891.4004    105.89769   -4785.5027 
  729800    543.24986   -4890.7354    99.291865   -4791.4435 
  730000    550.83493   -4886.2751    100.67822   -4785.5969 
  730200    577.62087    -4888.882    105.57399    -4783.308 
  730400    540.86897   -4893.4619    98.856702   -4794.6052 
  730600    551.99877   -4887.8379    100.89094   -4786.9469 
  730800    546.23116    -4884.716    99.836769   -4784.8792 
  731000    545.82208   -4891.7449       99.762   -4791.9829 
  731200    551.57376   -4889.3432    100.81326     -4788.53 
  731400    567.75111   -4886.0655    103.77005   -4782.2954 
  731600    561.31799   -4891.3273    102.59425   -4788.7331 
  731800    572.77878   -4894.7535    104.68898   -4790.0645 
  732000     567.7659   -4889.8698    103.77276   -4786.0971 
  732200    556.55573   -4888.6928    101.72383    -4786.969 
  732400    566.16182   -4889.7082    103.47957   -4786.2286 
  732600    548.06999   -4891.0934    100.17286   -4790.9206 
  732800    545.44776   -4885.9148    99.693585   -4786.2212 
  733000    563.97878   -4885.3729    103.08057   -4782.2924 
  733200    546.53641   -4887.3493    99.892561   -4787.4567 
  733400    567.11034    -4892.518    103.65294   -4788.8651 
  733600    548.10753   -4889.7081    100.17972   -4789.5283 
  733800    538.14143   -4886.7951    98.358179   -4788.4369 
  734000    574.40917   -4889.2255    104.98697   -4784.2385 
  734200    538.56888   -4890.6048    98.436305   -4792.1685 
  734400    547.74288   -4889.9849    100.11307   -4789.8719 
  734600    582.21706   -4888.4183    106.41405   -4782.0043 
  734800    557.08485   -4890.2193    101.82054   -4788.3987 
  735000    555.99317   -4894.3701    101.62101   -4792.7491 
  735200    587.56945   -4895.9794    107.39233   -4788.5871 
  735400    549.25505   -4889.9933    100.38946   -4789.6038 
  735600    556.46818    -4889.799    101.70783   -4788.0912 
  735800    552.69122   -4887.9504     101.0175   -4786.9329 
  736000    541.66564   -4890.7137    99.002312   -4791.7114 
  736200    566.36768   -4891.6283     103.5172   -4788.1111 
  736400     575.4841   -4889.0983    105.18344   -4783.9148 
  736600    559.24817   -4892.6417    102.21594   -4790.4257 
  736800    548.30502   -4891.8723    100.21582   -4791.6564 
  737000     568.8977   -4888.4933    103.97962   -4784.5137 
  737200    560.31671   -4890.2224    102.41124   -4787.8112 
  737400    544.04658   -4889.9683    99.437485   -4790.5308 
  737600    571.10334   -4890.8407    104.38275   -4786.4579 
  737800    540.89485   -4890.0965    98.861431    -4791.235 
  738000    571.19505   -4891.1624    104.39951   -4786.7629 
  738200      566.494   -4888.5313    103.54029    -4784.991 
  738400    557.20058   -4893.5104    101.84169   -4791.6687 
  738600     554.0843   -4892.4776    101.27212   -4791.2055 
  738800    569.45996   -4892.6315    104.08239   -4788.5491 
  739000    549.55062    -4889.817    100.44348   -4789.3735 
  739200    562.71966   -4887.7814    102.85044    -4784.931 
  739400    567.41371   -4889.3037    103.70839   -4785.5953 
  739600    541.90224   -4891.6155    99.045556     -4792.57 
  739800     573.2832   -4891.5804    104.78118   -4786.7992 
  740000    553.38563   -4888.7014    101.14442    -4787.557 
  740200    567.09181   -4890.7752    103.64955   -4787.1257 
  740400    562.79084   -4889.9938    102.86345   -4787.1303 
  740600    561.12832   -4890.3472    102.55958   -4787.7876 
  740800    545.96123   -4889.8001    99.787432   -4790.0127 
  741000    555.26337   -4888.3605    101.48762   -4786.8729 
  741200    563.47067   -4889.4162     102.9877   -4786.4285 
  741400    568.51035   -4889.4647    103.90882   -4785.5559 
  741600    552.37432   -4890.0715    100.95958    -4789.112 
  741800    539.70649   -4891.7234     98.64423   -4793.0792 
  742000    572.41337   -4889.8072    104.62219    -4785.185 
  742200    561.03538   -4888.8688    102.54259   -4786.3262 
  742400     552.5323   -4891.5684    100.98845     -4790.58 
  742600    565.07467   -4890.8625    103.28087   -4787.5816 
  742800    573.65483   -4891.6962     104.8491   -4786.8471 
  743000    548.57132   -4887.8867    100.26449   -4787.6222 
  743200    572.48612   -4890.1955    104.63549     -4785.56 
  743400    568.21197   -4895.5924    103.85429   -4791.7381 
  743600    545.00832   -4887.4457    99.613265   -4787.8325 
  743800    590.02638   -4887.8546    107.84139   -4780.0133 
  744000    560.89482   -4893.8874     102.5169   -4791.3705 
  744200    557.08261   -4894.5205    101.82013   -4792.7004 
  744400    583.77761   -4889.7845    106.69928   -4783.0852 
  744600    551.14811   -4886.3443    100.73546   -4785.6088 
  744800    552.68483   -4889.3543    101.01633    -4788.338 
  745000    556.73396    -4889.295    101.75641   -4787.5386 
  745200    555.58785   -4888.5102    101.54693   -4786.9633 
  745400     549.6371   -4887.6725    100.45929   -4787.2132 
  745600    538.77829   -4885.0011    98.474579   -4786.5265 
  745800    546.64267   -4889.0646    99.911982   -4789.1527 
  746000    563.41676   -4888.3147    102.97785   -4785.3368 
  746200     571.4848   -4888.0049    104.45247   -4783.5524 
  746400    562.57668   -4894.3856     102.8243   -4791.5613 
  746600    561.15487   -4891.6183    102.56443   -4789.0539 
  746800     577.5911   -4887.7616    105.56855    -4782.193 
  747000    546.24167   -4890.5439     99.83869   -4790.7052 
  747200    543.99481   -4888.6837    99.428024   -4789.2557 
  747400    555.41949    -4885.764    101.51616   -4784.2479 
  747600    573.68056   -4888.6158     104.8538    -4783.762 
  747800    566.83195   -4890.7045    103.60206   -4787.1024 
  748000    565.67227    -4890.402     103.3901    -4787.012 
  748200    574.03548   -4892.1254    104.91867   -4787.2067 
  748400    549.03124   -4884.3272    100.34855   -4783.9787 
  748600    579.01428   -4887.1137    105.82867    -4781.285 
  748800    555.76229   -4889.4597    101.57881   -4787.8809 
  749000    578.08154   -4892.3643    105.65818   -4786.7061 
  749200    568.32544   -4887.2031    103.87503   -4783.3281 
  749400    585.79807   -4892.0558    107.06856   -4784.9872 
  749600    557.06808   -4891.6037    101.81748   -4789.7862 
  749800    549.67993   -4885.2063    100.46711   -4784.7392 
  750000    590.70532   -4890.8095    107.96548    -4782.844 
  750200    552.77882   -4889.5325    101.03351    -4788.499 
  750400    575.35252   -4892.8709    105.15939   -4787.7115 
  750600    561.33561    -4889.081    102.59747   -4786.4836 
  750800    557.50752   -4888.1161    101.89779   -4786.2183 
  751000    572.29955   -4888.2855    104.60139   -4783.6841 
  751200    542.99976    -4886.652    99.246155   -4787.4058 
  751400    558.69191   -4885.6467    102.11427   -4783.5324 
  751600    562.70654   -4887.8977    102.84804   -4785.0497 
  751800    546.17492    -4889.091    99.826491   -4789.2645 
  752000    572.62977   -4888.5268    104.66174   -4783.8651 
  752200    573.26581   -4892.6807      104.778   -4787.9027 
  752400    558.93941   -4889.6055    102.15951    -4787.446 
  752600    571.60862   -4885.7254    104.47511   -4781.2503 
  752800    576.11751   -4891.2476    105.29921   -4785.9484 
  753000    562.58551   -4893.1658    102.82592   -4790.3399 
  753200    556.68934   -4886.7938    101.74825   -4785.0456 
  753400    571.06768   -4887.3304    104.37623   -4782.9541 
  753600    564.81525   -4890.1895    103.23345   -4786.9561 
  753800    553.95017   -4888.6219     101.2476   -4787.3743 
  754000    552.00739   -4887.1093    100.89251   -4786.2167 
  754200    562.17824   -4886.2351    102.75148   -4783.4836 
  754400     563.1471   -4886.7953    102.92856   -4783.8667 
  754600    545.94482   -4888.3828    99.784433   -4788.5984 
  754800    562.78693   -4886.5126    102.86273   -4783.6498 
  755000    565.83455   -4888.4952    103.41976   -4785.0754 
  755200    556.78757   -4890.8495    101.76621   -4789.0833 
  755400    569.62879   -4887.3042    104.11324    -4783.191 
  755600    550.92617   -4888.9636    100.69489   -4788.2687 
  755800    565.02994   -4890.9508     103.2727   -4787.6781 
  756000    591.36934   -4885.2354    108.08685   -4777.1485 
  756200    532.93374   -4888.4034    97.406349    -4790.997 
  756400    576.50367   -4893.3366    105.36979   -4787.9668 
  756600    588.51955    -4886.366    107.56598      -4778.8 
  756800    569.00474   -4889.9959    103.99918   -4785.9967 
  757000    545.97754   -4889.0847    99.790414   -4789.2943 
  757200    557.58035   -4884.6348     101.9111   -4782.7237 
  757400     564.5058   -4885.8399     103.1769    -4782.663 
  757600    558.38274   -4885.2187    102.05776   -4783.1609 
  757800     582.8001   -4889.6427    106.52061   -4783.1221 
  758000    555.31322   -4888.6895    101.49673   -4787.1928 
  758200    568.95468   -4885.8142    103.99003   -4781.8241 
  758400     573.4484   -4888.0024    104.81137    -4783.191 
  758600    554.76944   -4888.8915    101.39734   -4787.4942 
  758800    559.69439   -4886.3658     102.2975   -4784.0683 
  759000    579.29435   -4887.9311    105.87986   -4782.0512 
  759200    559.47576   -4890.9628    102.25754   -4788.7053 
  759400     564.8858   -4891.3446    103.24635   -4788.0982 
  759600    563.66538   -4885.9833    103.02329     -4782.96 
  759800    561.68288   -4885.1291    102.66094   -4782.4682 
  760000    572.05497   -4890.8381    104.55669   -4786.2814 
  760200    556.18836   -4889.6496    101.65668   -4787.9929 
  760400    574.66559   -4889.0404    105.03384   -4784.0066 
  760600    568.83683   -4887.1489    103.96849   -4783.1804 
  760800    555.89192   -4888.7266     101.6025   -4787.1241 
  761000    573.10494   -4889.3889    104.74859   -4784.6403 
  761200    568.91689   -4885.7393    103.98313   -4781.7562 
  761400    570.36911   -4889.8189    104.24855   -4785.5703 
  761600    565.25265   -4886.4537     103.3134   -4783.1403 
  761800     562.7822   -4888.0919    102.86187   -4785.2301 
  762000    557.30616   -4887.5143    101.86099   -4785.6533 
  762200    575.60048   -4884.7219    105.20471   -4779.5172 
  762400    574.25659   -4892.5513    104.95909   -4787.5922 
  762600    553.94089   -4889.1549    101.24591    -4787.909 
  762800     576.8612   -4881.7477    105.43514   -4776.3125 
  763000    559.99152   -4889.1909     102.3518   -4786.8391 
  763200    565.78668   -4892.6329    103.41101   -4789.2218 
  763400    581.88612   -4887.2504    106.35356   -4780.8969 
  763600    563.13299   -4889.0006    102.92598   -4786.0746 
  763800    575.14826   -4887.0938    105.12206   -4781.9717 
  764000    576.40356   -4886.3482     105.3515   -4780.9967 
  764200    554.34412   -4888.9327    101.31961   -4787.6131 
  764400    564.56425   -4887.0246    103.18758   -4783.8371 
  764600     568.4871   -4886.2434    103.90457   -4782.3388 
  764800    543.88435   -4888.9836    99.407834   -4789.5757 
  765000    577.34454   -4886.0325    105.52348   -4780.5091 
  765200    568.12017   -4885.6649    103.83751   -4781.8274 
  765400    562.81395    -4890.882    102.86767   -4788.0143 
  765600    573.64672   -4887.9916    104.84762    -4783.144 
  765800    567.61052   -4886.6718    103.74436   -4782.9275 
  766000    569.18836   -4888.8771    104.03275   -4784.8444 
  766200    577.81561    -4892.986    105.60958   -4787.3764 
  766400    553.63526   -4889.4955    101.19005   -4788.3055 
  766600    577.30504   -4885.9198    105.51626   -4780.4035 
  766800     579.8998   -4887.5428    105.99052   -4781.5523 
  767000    552.33093   -4894.3306    100.95165    -4793.379 
  767200    576.70903    -4889.865    105.40733   -4784.4577 
  767400    584.60674   -4884.4501    106.85082   -4777.5993 
  767600    548.68403   -4886.7799    100.28509   -4786.4948 
  767800    572.48414   -4890.4906    104.63513   -4785.8554 
  768000    570.39299   -4886.3698    104.25292   -4782.1169 
  768200    574.72293   -4888.6161    105.04432   -4783.5718 
  768400    560.67611   -4889.4169    102.47693     -4786.94 
  768600    567.84567   -4887.5745    103.78734   -4783.7872 
  768800    574.31452   -4887.9705    104.96967   -4783.0008 
  769000    565.07533   -4886.7571    103.28099   -4783.4761 
  769200    568.10971   -4888.6841     103.8356   -4784.8485 
  769400    564.59316   -4890.4213    103.19286   -4787.2284 
  769600    574.94246   -4886.8429    105.08444   -4781.7584 
  769800    541.68656   -4882.4049    99.006135   -4783.3988 
  770000    567.94405   -4887.7549    103.80532   -4783.9496 
  770200    580.59343   -4889.9933    106.11729    -4783.876 
  770400    571.96065   -4889.5549    104.53945   -4785.0155 
  770600    566.79885   -4888.5729      103.596   -4784.9769 
  770800    573.82672   -4888.8499    104.88052   -4783.9693 
  771000    559.04544   -4887.1269    102.17888    -4784.948 
  771200    566.94352   -4890.2452    103.62245   -4786.6228 
  771400    585.00412   -4892.0354    106.92345    -4785.112 
  771600    567.23843   -4890.2937    103.67635   -4786.6173 
  771800    573.23794   -4888.4657     104.7729   -4783.6928 
  772000    568.58219   -4890.2594    103.92195   -4786.3374 
  772200    578.35482   -4891.1291    105.70813    -4785.421 
  772400    579.93104   -4887.0456    105.99623   -4781.0494 
  772600    563.30318   -4889.8387    102.95709   -4786.8816 
  772800    572.45091   -4892.0958    104.62905   -4787.4667 
  773000    580.61681   -4889.7969    106.12157   -4783.6753 
  773200    570.54099   -4889.7928    104.27997   -4785.5128 
  773400    572.91337   -4890.4159    104.71358   -4785.7023 
  773600    568.95773   -4891.9062    103.99059   -4787.9156 
  773800    559.10398   -4888.3646    102.18958    -4786.175 
  774000    590.92453   -4889.5873    108.00555   -4781.5818 
  774200     561.1439   -4889.7095    102.56243   -4787.1471 
  774400    563.32945   -4891.8093    102.96189   -4788.8474 
  774600    575.02415    -4888.612    105.09938   -4783.5126 
  774800    582.95656   -4887.7991    106.54921   -4781.2499 
  775000    554.82446   -4888.2993     101.4074   -4786.8919 
  775200    559.18654   -4887.5049    102.20467   -4785.3002 
  775400    597.28065   -4891.1972    109.16728   -4782.0299 
  775600    566.68141   -4888.0108    103.57454   -4784.4362 
  775800    558.84553   -4890.0168    102.14235   -4787.8744 
  776000    574.96591   -4889.6059    105.08873   -4784.5171 
  776200    581.05547   -4888.7457    106.20174   -4782.5439 
  776400    562.44075   -4887.2297    102.79946   -4784.4302 
  776600    556.18394   -4889.2938    101.65588   -4787.6379 
  776800    593.61547    -4888.894    108.49738   -4780.3966 
  777000    580.70222   -4887.3638    106.13718   -4781.2267 
  777200    568.07877   -4892.6828    103.82994   -4788.8529 
  777400    576.52114   -4890.7678    105.37298   -4785.3948 
  777600    585.46672   -4889.8812      107.008   -4782.8732 
  777800    567.46312   -4889.9125    103.71742   -4786.1951 
  778000    587.22161   -4890.6386    107.32875   -4783.3098 
  778200    551.12458   -4886.6827    100.73116   -4785.9515 
  778400    556.21698    -4889.288    101.66192   -4787.6261 
  778600     583.5411   -4886.8358    106.65605   -4780.1797 
  778800    575.50045    -4890.085    105.18643   -4784.8986 
  779000    562.19833   -4888.4961    102.75515   -4785.7409 
  779200    560.20478    -4884.011    102.39078   -4781.6202 
  779400    569.65562   -4885.5534    104.11815   -4781.4352 
  779600    566.23068   -4888.1386    103.49216   -4784.6464 
  779800    568.69813    -4890.019    103.94314   -4786.0759 
  780000    581.34751   -4888.4932    106.25512   -4782.2381 
  780200    579.57673    -4883.746    105.93147   -4777.8145 
  780400    572.46387   -4891.6132    104.63142   -4786.9818 
  780600     565.7368   -4887.7741    103.40189   -4784.3722 
  780800    585.38197    -4884.281    106.99251   -4777.2885 
  781000    557.80062   -4888.3943    101.95136   -4786.4429 
  781200    568.09825    -4888.919     103.8335   -4785.0855 
  781400    582.97449   -4885.8255    106.55249   -4779.2731 
  781600    567.96118   -4887.8539    103.80845   -4784.0455 
  781800    585.56582   -4888.8628    107.02612   -4781.8367 
  782000    575.60083   -4891.2492    105.20478   -4786.0445 
  782200    564.68431   -4891.8566    103.20952   -4788.6471 
  782400     598.2697   -4887.1715    109.34805   -4777.8234 
  782600    566.82976   -4887.1594    103.60166   -4783.5578 
  782800    554.11338   -4890.5903    101.27743   -4789.3128 
  783000    589.21755   -4886.7823    107.69356   -4779.0888 
  783200    579.61745   -4887.4577    105.93891   -4781.5188 
  783400    561.51019   -4892.2079    102.62938   -4789.5785 
  783600    575.53305   -4890.4413    105.19239   -4785.2489 
  783800    583.66938    -4887.244     106.6795   -4780.5645 
  784000    561.08819   -4884.3977    102.55225   -4781.8455 
  784200    574.35576   -4888.8319    104.97721   -4783.8547 
  784400    566.52321    -4890.188    103.54562   -4786.6424 
  784600    582.74928   -4888.7563    106.51133    -4782.245 
  784800    593.86957   -4885.9436    108.54383   -4777.3998 
  785000    547.61467   -4887.3772    100.08964   -4787.2875 
  785200    581.84742   -4892.2094    106.34649   -4785.8629 
  785400    586.24807   -4887.2552    107.15081   -4780.1044 
  785600    568.28214    -4890.278    103.86711   -4786.4108 
  785800    574.90144   -4885.8041    105.07695   -4780.7272 
  786000    562.57586    -4883.083    102.82415   -4780.2588 
  786200    571.84829   -4887.6469    104.51891    -4783.128 
  786400    577.82638   -4885.9525    105.61155   -4780.3409 
  786600    571.10191    -4885.927    104.38249   -4781.5445 
  786800    558.60928    -4889.251    102.09917   -4787.1518 
  787000    571.23609   -4884.7946    104.40702   -4780.3876 
  787200    565.53634   -4884.6264    103.36525   -4781.2611 
  787400    579.74675   -4888.0671    105.96254   -4782.1046 
  787600    584.28731   -4889.9025    106.79244   -4783.1101 
  787800    569.80527   -4887.7434     104.1455   -4783.5979 
  788000    579.56586   -4885.1073    105.92948   -4779.1778 
  788200    600.52342   -4890.4334    109.75997   -4780.6735 
  788400    562.87847    -4889.974    102.87946   -4787.0945 
  788600    586.66916    -4889.354    107.22778   -4782.1262 
  788800    590.18108   -4885.9408    107.86967   -4778.0712 
  789000    582.39465    -4888.193    106.44651   -4781.7464 
  789200    578.92692   -4892.6383     105.8127   -4786.8256 
  789400    575.02759   -4887.4161        105.1   -4782.3161 
  789600    582.47672    -4884.964    106.46151   -4778.5025 
  789800    565.95296   -4885.8176     103.4414   -4782.3762 
  790000     572.4402   -4888.4172     104.6271   -4783.7901 
  790200    584.41435   -4888.5849    106.81566   -4781.7693 
  790400    573.95739   -4887.0509     104.9044   -4782.1465 
  790600    568.69395   -4889.0078    103.94238   -4785.0654 
  790800    585.69435   -4886.7408    107.04961   -4779.6912 
  791000    567.39956   -4884.7281     103.7058   -4781.0223 
  791200    569.95483    -4885.951    104.17284   -4781.7781 
  791400     583.8195   -4888.5497    106.70694   -4781.8427 
  791600     565.5479   -4886.9643    103.36736   -4783.5969 
  791800    571.09945   -4885.2412    104.38204   -4780.8591 
  792000    591.79788   -4886.2455    108.16517   -4778.0804 
  792200    563.86411   -4887.2744    103.05961   -4784.2148 
  792400    571.02081   -4888.4518    104.36767   -4784.0841 
  792600    578.80487   -4883.2035    105.79039   -4777.4131 
  792800    564.83455   -4886.5229    103.23698   -4783.2859 
  793000    566.65551   -4885.7554    103.56981   -4782.1856 
  793200    584.75858   -4881.8533    106.87857   -4774.9747 
  793400    558.07315   -4887.9788    102.00118   -4785.9777 
  793600    584.31323   -4886.2689    106.79717   -4779.4717 
  793800    591.84945   -4884.9824     108.1746   -4776.8078 
  794000    546.09556    -4890.695    99.811985    -4790.883 
  794200    569.47812   -4885.3358    104.08571   -4781.2501 
  794400     592.6286     -4884.52    108.31701    -4776.203 
  794600    555.41906   -4887.8418    101.51608   -4786.3257 
  794800    579.84058   -4888.5634    105.97969   -4782.5837 
  795000    592.57298   -4886.8686    108.30684   -4778.5617 
  795200    569.72044   -4889.2435       104.13   -4785.1135 
  795400    583.22538   -4884.4643    106.59835    -4777.866 
  795600    594.37901   -4888.9167    108.63694   -4780.2797 
  795800    565.55783   -4892.2976    103.36918   -4788.9284 
  796000    583.28973   -4883.3366    106.61011   -4776.7265 
  796200    594.81886   -4884.9178    108.71733   -4776.2005 
  796400    564.51504   -4892.4793    103.17858   -4789.3007 
  796600    599.39188   -4889.7023    109.55316   -4780.1491 
  796800    574.71711   -4879.8346    105.04326   -4774.7913 
  797000    571.90891   -4888.1631    104.52999   -4783.6331 
  797200    577.37845   -4890.4194    105.52968   -4784.8898 
  797400     592.0533     -4889.29    108.21186   -4781.0781 
  797600    583.99583   -4886.1892    106.73916   -4779.4501 
  797800    596.56623   -4889.8623     109.0367   -4780.8256 
  798000    585.85832   -4892.2962    107.07958   -4785.2166 
  798200    567.71704   -4888.9764    103.76383   -4785.2126 
  798400     576.4462   -4883.7486    105.35929   -4778.3893 
  798600    594.34009   -4885.2561    108.62982   -4776.6263 
  798800    578.76632   -4890.9153    105.78335   -4785.1319 
  799000    579.22892   -4890.3504     105.8679   -4784.4825 
  799200    599.05714   -4883.6376    109.49198   -4774.1456 
  799400    568.73776   -4885.2823    103.95039   -4781.3319 
  799600    570.56429   -4887.0572    104.28423    -4782.773 
  799800    584.49918   -4883.5202    106.83116    -4776.689 
  800000    577.08186   -4884.5799    105.47547   -4779.1044 
  800200    575.25262     -4887.62    105.14113   -4782.4788 
  800400    580.69752   -4884.8666    106.13632   -4778.7303 
  800600    567.95947   -4882.0385    103.80814   -4778.2304 
  800800    584.68054   -4885.4766    106.86431   -4778.6123 
  801000    583.73193   -4885.1109    106.69093     -4778.42 
  801200    579.12167   -4883.7884    105.84829   -4777.9401 
  801400    575.49842   -4884.8946    105.18606   -4779.7086 
  801600    594.31165   -4886.5749    108.62462   -4777.9503 
  801800    574.51978   -4888.2608    105.00719   -4783.2536 
  802000    576.80524   -4883.2934    105.42491   -4777.8685 
  802200    582.67969   -4882.1478    106.49861   -4775.6492 
  802400    554.44267   -4883.5517    101.33762   -4782.2141 
  802600    582.42016   -4886.5854    106.45117   -4780.1342 
  802800    585.03208   -4886.3948    106.92856   -4779.4662 
  803000    594.89337   -4887.6218    108.73095   -4778.8909 
  803200    603.94858   -4886.3307      110.386   -4775.9447 
  803400     567.6892   -4886.9945    103.75874   -4783.2357 
  803600    578.98537     -4886.96    105.82338   -4781.1366 
  803800    587.79908   -4883.0876     107.4343   -4775.6533 
  804000    573.95085   -4883.5628     104.9032   -4778.6596 
  804200    579.36486   -4885.7403    105.89274   -4779.8475 
  804400    597.09865   -4889.5027    109.13402   -4780.3686 
  804600    593.59863   -4888.6631     108.4943   -4780.1688 
  804800    583.06033   -4885.1736    106.56818   -4778.6054 
  805000    595.53022   -4884.0277    108.84735   -4775.1804 
  805200    580.63837   -4884.1559    106.12551   -4778.0304 
  805400    573.72109   -4886.0447    104.86121   -4781.1835 
  805600    588.77904   -4888.5203    107.61341   -4780.9069 
  805800    601.08176   -4888.5711    109.86202   -4778.7091 
  806000      578.599   -4883.1167    105.75276   -4777.3639 
  806200    576.71474   -4886.0139    105.40837   -4780.6055 
  806400    571.53152   -4888.7492    104.46101   -4784.2882 
  806600    571.94731   -4881.4979    104.53701   -4776.9609 
  806800    592.02697   -4881.9639    108.20705   -4773.7569 
  807000    582.19621   -4888.5606    106.41024   -4782.1503 
  807200    581.83026   -4888.8947    106.34335   -4782.5514 
  807400     587.2489   -4884.0457    107.33374   -4776.7119 
  807600    568.71384   -4883.3165    103.94602   -4779.3704 
  807800    590.82558   -4885.8928    107.98746   -4777.9054 
  808000    584.13661    -4888.416    106.76489   -4781.6511 
  808200    582.01164   -4886.7425     106.3765    -4780.366 
  808400    587.77403   -4880.4637    107.42972    -4773.034 
  808600    572.43431   -4885.5995    104.62602   -4780.9735 
  808800    564.78796   -4888.0064    103.22847   -4784.7779 
  809000     590.6448   -4884.8314    107.95442   -4776.8769 
  809200    586.78198   -4884.2643     107.2484   -4777.0159 
  809400    577.70306   -4889.0132    105.58901   -4783.4242 
  809600    585.45584    -4885.731    107.00602    -4778.725 
  809800    599.90852   -4886.5704    109.64759   -4776.9228 
  810000     558.1334   -4883.2646    102.01219   -4781.2525 
  810200     589.6118    -4884.702    107.76562   -4776.9364 
  810400    582.08774   -4886.7587    106.39041   -4780.3683 
  810600    578.34076   -4886.0956    105.70557   -4780.3901 
  810800    588.13134   -4883.2858    107.49503   -4775.7908 
  811000     573.6579   -4888.7981    104.84966   -4783.9484 
  811200    599.71223   -4891.4371    109.61171   -4781.8254 
  811400    584.02827   -4882.1001    106.74509    -4775.355 
  811600    584.43741   -4887.2995    106.81987   -4780.4796 
  811800    564.94454   -4888.2691    103.25709   -4785.0121 
  812000    589.43784   -4886.1313    107.73382   -4778.3974 
  812200    586.76787   -4885.7888    107.24582    -4778.543 
  812400    594.98529   -4885.2067    108.74775   -4776.4589 
  812600    572.49358   -4880.1573    104.63685   -4775.5204 
  812800    585.05305   -4888.7328     106.9324   -4781.8004 
  813000    587.20375   -4885.9831    107.32549   -4778.6577 
  813200    596.16512   -4884.7773    108.96339   -4775.8139 
  813400    585.36553   -4886.1046    106.98951   -4779.1151 
  813600    587.40495   -4883.9022    107.36226     -4776.54 
  813800    567.61707   -4881.8433    103.74555   -4778.0978 
  814000    569.59767   -4886.7126    104.10756    -4782.605 
  814200    570.00783   -4881.4708    104.18252   -4777.2883 
  814400    596.76799   -4882.6931    109.07358   -4773.6195 
  814600    575.94997   -4888.1652    105.26859   -4782.8966 
  814800     576.7088   -4886.2819    105.40728   -4780.8746 
  815000    604.56925   -4885.6279    110.49945   -4775.1285 
  815200    556.74023   -4884.0811    101.75755   -4782.3236 
  815400     604.0728   -4887.5152    110.40871   -4777.1065 
  815600    582.29701   -4889.2033    106.42866   -4782.7746 
  815800    573.10207   -4889.5216    104.74807   -4784.7735 
  816000    581.68831   -4884.0555    106.31741   -4777.7381 
  816200    580.66074   -4882.7046     106.1296    -4776.575 
  816400    593.66319   -4887.5116     108.5061   -4779.0055 
  816600    586.17626   -4888.2795    107.13769   -4781.1419 
  816800    577.29258   -4883.0837    105.51398   -4777.5697 
  817000    598.71771   -4883.0003    109.42994   -4773.5704 
  817200    572.08802   -4882.0486    104.56273   -4777.4859 
  817400    595.49663   -4887.9706    108.84121   -4779.1294 
  817600    589.11469   -4886.7488    107.67476   -4779.0741 
  817800    577.64372   -4884.6387    105.57816   -4779.0606 
  818000    580.81792   -4885.1076    106.15832   -4778.9493 
  818200     584.0874    -4885.136     106.7559   -4778.3801 
  818400    583.72021   -4884.7153    106.68879   -4778.0265 
  818600    564.69508   -4884.8576    103.21149   -4781.6461 
  818800    576.16722   -4882.6276     105.3083   -4777.3193 
  819000    587.07529   -4883.7316    107.30201   -4776.4296 
  819200     581.4696    -4889.781    106.27743   -4783.5036 
  819400    576.33592   -4883.1259    105.33913   -4777.7867 
  819600    595.71754   -4880.2444    108.88159   -4771.3628 
  819800    583.11215   -4886.7314    106.57765   -4780.1537 
  820000    590.22429   -4886.6059    107.87756   -4778.7283 
  820200    579.42873   -4880.7915    105.90442   -4774.8871 
  820400    591.54128   -4888.7114    108.11827   -4780.5932 
  820600    598.04409   -4888.0126    109.30682   -4778.7058 
  820800      594.216   -4887.6894    108.60714   -4779.0822 
  821000    589.76886   -4888.0812    107.79432   -4780.2869 
  821200    596.87154   -4885.7505    109.09251    -4776.658 
  821400     573.0972   -4885.7469    104.74718   -4780.9998 
  821600    583.14678   -4887.4373    106.58398   -4780.8534 
  821800    607.07324   -4886.1935    110.95711   -4775.2364 
  822000    576.65443   -4885.1065    105.39735   -4779.7092 
  822200     570.0028   -4888.6659     104.1816   -4784.4843 
  822400    596.07153   -4883.2226    108.94629   -4774.2763 
  822600     592.0932   -4885.5521    108.21915    -4777.333 
  822800    561.74931   -4880.5547    102.67308   -4777.8816 
  823000    578.74998   -4881.3549    105.78036   -4775.5746 
  823200    585.63445   -4885.1328    107.03866   -4778.0941 
  823400    591.44751   -4886.0931    108.10114   -4777.9919 
  823600    572.21254   -4882.1053    104.58549   -4777.5198 
  823800    581.19903   -4884.6858    106.22798   -4778.4578 
  824000    589.77758   -4885.9127    107.79592   -4778.1168 
  824200    587.35355   -4885.1169    107.35287    -4777.764 
  824400    580.84352   -4882.3812      106.163   -4776.2182 
  824600    587.56602   -4885.6183     107.3917   -4778.2266 
  824800    591.65818   -4889.0648    108.13964   -4780.9251 
  825000    562.72437   -4882.1435     102.8513   -4779.2922 
  825200    591.59131   -4877.4319    108.12742   -4769.3045 
  825400    601.42644   -4885.4407    109.92502   -4775.5156 
  825600    552.79407   -4884.6987     101.0363   -4783.6624 
  825800      595.307   -4880.8831    108.80655   -4772.0766 
  826000    590.07809   -4883.1139    107.85084   -4775.2631 
  826200    573.01972   -4887.3247    104.73302   -4782.5916 
  826400     587.4863   -4882.4961    107.37713   -4775.1189 
  826600    599.52466   -4885.9803    109.57743   -4776.4028 
  826800    580.20452    -4884.787    106.04621   -4778.7408 
  827000    592.38563   -4881.3557     108.2726   -4773.0831 
  827200    571.72432    -4886.387    104.49625   -4781.8908 
  827400    580.55298   -4886.5179     106.1099    -4780.408 
  827600    602.41556   -4881.4701    110.10581   -4771.3643 
  827800    565.55151   -4883.9153    103.36802   -4780.5473 
  828000    602.18683   -4885.6897      110.064   -4775.6256 
  828200    585.10705   -4879.5526    106.94226   -4772.6104 
  828400    600.23182   -4887.9079    109.70668   -4778.2012 
  828600    570.49088   -4884.1367    104.27081   -4779.8658 
  828800    583.97959   -4880.7742    106.73619    -4774.038 
  829000    584.01945   -4881.2685    106.74348   -4774.5251 
  829200     579.3809   -4884.4445    105.89567   -4778.5488 
  829400    592.28262   -4885.0234    108.25377   -4776.7697 
  829600    615.51575   -4887.3407    112.50018   -4774.8405 
  829800    594.56288   -4885.8477    108.67054   -4777.1771 
  830000    581.38529   -4883.4382    106.26202   -4777.1761 
  830200    602.38335   -4885.7788    110.09992   -4775.6788 
  830400    596.28374   -4887.1565    108.98507   -4778.1714 
  830600    605.60793   -4886.6602    110.68929   -4775.9709 
  830800    581.49268   -4885.0815    106.28165   -4778.7998 
  831000    603.98698   -4884.7609    110.39302   -4774.3679 
  831200    602.66278   -4886.1442    110.15099   -4775.9932 
  831400     592.2386   -4886.5601    108.24573   -4778.3144 
  831600    601.85931   -4884.3146    110.00414   -4774.3104 
  831800    579.99345   -4886.2207    106.00763   -4780.2131 
  832000    616.45112   -4887.7669    112.67114   -4775.0958 
  832200    612.46102   -4880.5676    111.94186   -4768.6258 
  832400    595.37124   -4886.8318    108.81829   -4778.0135 
  832600    576.38886   -4888.6398    105.34881    -4783.291 
  832800    611.04343   -4883.8041    111.68276   -4772.1214 
  833000    602.18937   -4885.5009    110.06447   -4775.4364 
  833200      568.081   -4885.0433    103.83035    -4781.213 
  833400    585.30953   -4881.1616    106.97927   -4774.1823 
  833600    579.50737   -4879.0086    105.91879   -4773.0898 
  833800    592.79763   -4885.1376     108.3479   -4776.7897 
  834000    579.86717    -4882.963    105.98455   -4776.9784 
  834200    582.41173   -4885.1737    106.44963    -4778.724 
  834400     618.5911   -4884.7491    113.06227   -4771.6869 
  834600     602.9228    -4883.953    110.19852   -4773.7544 
  834800    577.39823   -4887.4345    105.53329   -4781.9012 
  835000    605.90332   -4886.2546    110.74328   -4775.5113 
  835200    593.95031   -4883.6878    108.55858   -4775.1292 
  835400    567.57746   -4883.1406    103.73831   -4779.4023 
  835600    597.82631   -4885.1782    109.26701   -4775.9112 
  835800    597.92512   -4887.0785    109.28507   -4777.7934 
  836000     577.6354   -4886.9692    105.57664   -4781.3925 
  836200    599.10962   -4883.2183    109.50157   -4773.7167 
  836400    595.22088     -4882.96    108.79081   -4774.1692 
  836600     573.4729   -4886.8045    104.81585   -4781.9886 
  836800    604.53883    -4883.625    110.49389   -4773.1311 
  837000    600.03227   -4884.3238    109.67021   -4774.6536 
  837200    585.52482   -4890.3021    107.01862   -4783.2835 
  837400    597.28391   -4885.1826    109.16788   -4776.0148 
  837600    589.32441   -4881.5333    107.71309   -4773.8202 
  837800    595.30396   -4888.0641    108.80599   -4779.2581 
  838000    597.60467   -4885.3425     109.2265    -4776.116 
  838200    587.39369   -4884.0292     107.3602    -4776.669 
  838400    588.24513   -4885.4797    107.51582   -4777.9639 
  838600    623.27826   -4884.9396    113.91896   -4771.0206 
  838800    587.94851   -4888.2137    107.46161   -4780.7521 
  839000    584.93287   -4887.4995    106.91043    -4780.589 
  839200    618.48039   -4883.3089    113.04204   -4770.2669 
  839400    590.46969   -4887.3941    107.92242   -4779.4717 
  839600    583.40044    -4886.242    106.63034   -4779.6116 
  839800    594.20465    -4884.459    108.60507   -4775.8539 
  840000    576.24047   -4883.0116    105.32169   -4777.6899 
  840200    595.57673   -4880.8487    108.85585   -4771.9929 
  840400    611.34118   -4885.5402    111.73718    -4773.803 
  840600    582.46606    -4891.301    106.45956   -4784.8414 
  840800    585.99211   -4883.8217    107.10403   -4776.7177 
  841000    604.05423   -4881.6519    110.40531   -4771.2466 
  841200    589.11352   -4884.3681    107.67454   -4776.6936 
  841400     603.9365   -4883.8988     110.3838    -4773.515 
  841600    590.54567   -4883.8435     107.9363   -4775.9072 
  841800    589.20408   -4886.5391     107.6911    -4778.848 
  842000    596.96371   -4886.2075    109.10935   -4777.0982 
  842200    610.62628   -4890.2543    111.60651   -4778.6478 
  842400    593.05049   -4883.1426    108.39412   -4774.7485 
  842600    610.21626   -4885.4346    111.53157    -4773.903 
  842800    578.79593   -4889.2243    105.78876   -4783.4356 
  843000    620.68069   -4885.9417     113.4442   -4772.4975 
  843200    617.40074   -4884.9417    112.84471    -4772.097 
  843400    582.79424   -4890.4096    106.51954   -4783.8901 
  843600    603.65298   -4886.8384    110.33198   -4776.5064 
  843800    615.58849   -4885.3509    112.51348   -4772.8374 
  844000    570.28901   -4888.4288    104.23392   -4784.1949 
  844200    614.07719   -4885.9156    112.23725   -4773.6783 
  844400     624.6338   -4885.7774    114.16672   -4771.6106 
  844600    566.37344   -4886.9654    103.51825   -4783.4472 
  844800    628.89156   -4887.0652    114.94493   -4772.1203 
  845000    600.54201    -4885.033    109.76337   -4775.2697 
  845200    595.15809   -4889.4905    108.77933   -4780.7112 
  845400    623.69057   -4885.7114    113.99432   -4771.7171 
  845600     576.4941   -4886.2284    105.36804   -4780.8603 
  845800    587.81765   -4886.5909    107.43769   -4779.1533 
  846000    618.80892   -4880.0574    113.10209   -4766.9553 
  846200    595.39142   -4888.7181    108.82198   -4779.8961 
  846400    563.55835   -4886.3155    103.00373   -4783.3118 
  846600    626.01035   -4883.2842    114.41832   -4768.8659 
  846800    584.13831   -4884.3923     106.7652   -4777.6271 
  847000    578.74019   -4885.7863    105.77857   -4780.0078 
  847200    602.84677   -4883.3889    110.18462   -4773.2042 
  847400    594.10497   -4886.0015    108.58685   -4777.4146 
  847600    596.78277   -4883.3406    109.07628   -4774.2644 
  847800    603.26604    -4884.431    110.26125   -4774.1698 
  848000    576.98527   -4884.1489    105.45782    -4778.691 
  848200    596.04002   -4880.6017    108.94053   -4771.6612 
  848400    593.05004   -4887.1444    108.39404   -4778.7504 
  848600    598.54187   -4890.4013     109.3978   -4781.0035 
  848800    616.42195   -4884.9215    112.66581   -4772.2557 
  849000    611.84917   -4888.1298    111.83003   -4776.2998 
  849200    586.38266   -4885.6195    107.17541   -4778.4441 
  849400    606.86912   -4886.7903     110.9198   -4775.8705 
  849600    592.66575   -4881.6592     108.3238   -4773.3354 
  849800    607.31199   -4886.0828    111.00075    -4775.082 
  850000    591.77049   -4887.4366    108.16017   -4779.2764 
  850200    609.60546   -4890.1206    111.41993   -4778.7007 
  850400    598.55591   -4883.0406    109.40036   -4773.6402 
  850600    604.24945   -4884.2822      110.441   -4773.8412 
  850800    596.30856   -4886.9525    108.98961   -4777.9629 
  851000    618.18886   -4890.0713    112.98875   -4777.0825 
  851200    586.08132   -4885.6107    107.12034   -4778.4904 
  851400    585.93182   -4880.8356    107.09301   -4773.7426 
  851600    597.62393   -4883.0459    109.23002   -4773.8159 
  851800    577.79219   -4884.6186     105.6053   -4779.0133 
  852000    615.80766   -4885.5751    112.55353   -4773.0216 
  852200    595.34981   -4886.3201    108.81437   -4777.5057 
  852400    596.30614   -4889.4232    108.98917   -4780.4341 
  852600    601.33724   -4883.3501    109.90872   -4773.4413 
  852800    587.26907   -4882.7345    107.33743   -4775.3971 
  853000    583.42308   -4886.2597    106.63448   -4779.6252 
  853200    610.49496   -4884.7813    111.58251   -4773.1988 
  853400    585.71385   -4881.4809    107.05317   -4774.4277 
  853600    582.08454   -4886.0861    106.38983   -4779.6963 
  853800    608.99599   -4885.8068    111.30854   -4774.4982 
  854000    602.63167   -4885.4993    110.14531    -4775.354 
  854200     589.1416   -4885.2706    107.67968   -4777.5909 
  854400    609.62458    -4882.595    111.42343   -4771.1716 
  854600      612.023    -4887.818     111.8618   -4775.9562 
  854800    592.93662   -4885.6734    108.37331   -4777.3001 
  855000    608.03642   -4885.0437    111.13315   -4773.9106 
  855200    587.77998   -4885.3258    107.43081    -4777.895 
  855400     596.5513   -4883.0975    109.03397   -4774.0635 
  855600    596.39305   -4886.1208    109.00505   -4777.1157 
  855800    593.15108   -4885.0011     108.4125   -4776.5886 
  856000    609.69484   -4882.0122    111.43627    -4770.576 
  856200     596.4356   -4885.7926    109.01283   -4776.7798 
  856400    590.90021   -4882.5448     108.0011   -4774.5437 
  856600    613.91462   -4882.4539    112.20754   -4770.2463 
  856800    592.79171   -4886.6752    108.34682   -4778.3284 
  857000    600.77518    -4885.299    109.80599    -4775.493 
  857200    605.87706    -4883.352    110.73848   -4772.6136 
  857400    596.63678    -4887.737     109.0496   -4778.6874 
  857600    612.77356   -4883.7984    111.99898   -4771.7995 
  857800    608.03346   -4888.3619    111.13261   -4777.2293 
  858000    581.01116   -4891.1381    106.19364   -4784.9444 
  858200    631.34971   -4882.9011    115.39421   -4767.5069 
  858400    605.33877   -4884.4251    110.64009    -4773.785 
  858600     573.9059   -4889.2972    104.89499   -4784.4022 
  858800    633.01092   -4883.5484    115.69784   -4767.8505 
  859000    594.88411   -4880.9794    108.72926   -4772.2501 
  859200    568.02911   -4886.3173    103.82086   -4782.4965 
  859400    598.48988   -4882.3634     109.3883   -4772.9751 
  859600    594.90721   -4884.6797    108.73348   -4775.9463 
  859800    603.87598   -4886.5345    110.37273   -4776.1617 
  860000     603.3111   -4882.5677    110.26949   -4772.2982 
  860200    587.50478   -4891.5327    107.38051   -4784.1522 
  860400    607.02059    -4886.002    110.94749   -4775.0545 
  860600    612.77964   -4877.2197    112.00009   -4765.2196 
  860800    576.97371   -4884.9962     105.4557   -4779.5405 
  861000    604.00371   -4889.8243    110.39608   -4779.4282 
  861200     602.7769   -4883.9752    110.17185   -4773.8034 
  861400    602.25488   -4887.3336    110.07644   -4777.2571 
  861600    605.10916   -4885.0791    110.59813   -4774.4809 
  861800    607.93521   -4885.9073    111.11466   -4774.7927 
  862000    596.28469   -4885.8719    108.98525   -4776.8866 
  862200    590.57661   -4882.8408    107.94196   -4774.8988 
  862400     606.8167   -4886.9134    110.91022   -4776.0032 
  862600    580.79028   -4884.5003    106.15327    -4778.347 
  862800     618.4361   -4884.8098    113.03394   -4771.7759 
  863000    613.77668   -4885.3483    112.18232    -4773.166 
  863200    573.73705   -4882.5311    104.86413    -4777.667 
  863400    621.93542   -4883.8705    113.67353   -4770.1969 
  863600    600.23082   -4883.1261     109.7065   -4773.4196 
  863800    586.91702   -4883.0373    107.27308   -4775.7642 
  864000    609.92632   -4886.8747    111.47858   -4775.3961 
  864200    598.79743   -4885.9734    109.44451   -4776.5289 
  864400    607.67018   -4884.6379    111.06622   -4773.5717 
  864600    601.35235   -4882.7909    109.91148   -4772.8795 
  864800    596.91123    -4887.804    109.09976   -4778.7042 
  865000    599.01362   -4887.7425    109.48402   -4778.2585 
  865200    615.21668   -4884.9868    112.44552   -4772.5412 
  865400     605.5664   -4885.3447     110.6817    -4774.663 
  865600     606.9839   -4887.8316    110.94078   -4776.8908 
  865800    600.16009   -4885.5883    109.69357   -4775.8948 
  866000    597.65183   -4882.0408    109.23512   -4772.8057 
  866200    599.92059   -4881.1627    109.64979    -4771.513 
  866400    583.58276   -4884.8356    106.66367    -4778.172 
  866600    588.69983    -4887.207    107.59893   -4779.6081 
  866800    605.91449   -4881.6527    110.74532   -4770.9073 
  867000    604.95865   -4889.7415    110.57062   -4779.1709 
  867200    599.38577   -4889.4657    109.55204   -4779.9137 
  867400    617.69084   -4884.0659    112.89773   -4771.1682 
  867600    581.17432   -4884.0743    106.22347   -4777.8508 
  867800    611.50396   -4887.1065    111.76693   -4775.3395 
  868000    612.97513   -4889.8729    112.03582   -4777.8371 
  868200    604.82893   -4889.5656    110.54691   -4779.0187 
  868400    600.38421   -4884.6507    109.73453   -4774.9162 
  868600    591.51822   -4887.3723    108.11406   -4779.2583 
  868800     594.6109   -4887.4361    108.67932   -4778.7568 
  869000    592.39579   -4883.6847    108.27446   -4775.4102 
  869200    594.84701   -4883.3332    108.72248   -4774.6107 
  869400    603.08223   -4884.1564    110.22766   -4773.9287 
  869600    576.91214   -4883.4842    105.44445   -4778.0398 
  869800    613.52953   -4890.2102    112.13715   -4778.0731 
  870000    609.71298   -4885.8878    111.43959   -4774.4482 
  870200    591.43161   -4882.9796    108.09823   -4774.8814 
  870400    602.61493   -4888.2976    110.14225   -4778.1553 
  870600    611.91282   -4889.3891    111.84166   -4777.5475 
  870800     589.5869   -4881.7195    107.76107   -4773.9585 
  871000    602.26209   -4886.6793    110.07776   -4776.6015 
  871200    605.29069   -4889.8102    110.63131   -4779.1789 
  871400    605.80864   -4887.5641    110.72598   -4776.8381 
  871600    615.35621   -4888.1383    112.47102   -4775.6673 
  871800    605.01472   -4888.8885    110.58087   -4778.3076 
  872000    591.31099   -4886.7901    108.07618   -4778.7139 
  872200    605.32256   -4888.2975    110.63713   -4777.6604 
  872400    605.80846   -4885.9088    110.72594   -4775.1829 
  872600    616.76031   -4888.3187    112.72765   -4775.5911 
  872800     596.8651   -4888.4775    109.09133   -4779.3861 
  873000    601.48957   -4888.9342    109.93656   -4778.9977 
  873200    603.81326   -4888.4474    110.36127   -4778.0861 
  873400    617.60562   -4886.5567    112.88215   -4773.6745 
  873600    605.04342   -4885.7919    110.58611   -4775.2058 
  873800    581.10101   -4891.3041    106.21007   -4785.0941 
  874000    611.03465   -4886.6879    111.68115   -4775.0068 
  874200    625.60951   -4883.9089    114.34506   -4769.5638 
  874400    580.05035   -4887.6288    106.01803   -4781.6107 
  874600    607.71599   -4888.8611    111.07459   -4777.7865 
  874800    615.63653   -4883.9057    112.52226   -4771.3835 
  875000    586.64868   -4885.9714    107.22403   -4778.7473 
  875200    618.26615   -4886.5034    113.00288   -4773.5006 
  875400    604.87658   -4889.4664    110.55562   -4778.9108 
  875600    578.08838   -4886.4222    105.65944   -4780.7628 
  875800    634.45591   -4881.1615    115.96195   -4765.1996 
  876000    597.57286    -4890.243    109.22069   -4781.0223 
  876200    596.27264   -4891.6433    108.98304   -4782.6602 
  876400    613.26916   -4881.3538    112.08956   -4769.2643 
  876600      597.992   -4888.6557     109.2973   -4779.3584 
  876800    601.68609   -4891.9421    109.97248   -4781.9697 
  877000    610.98239   -4882.6439     111.6716   -4770.9723 
  877200    591.92425   -4884.5127    108.18827   -4776.3244 
  877400    592.49665   -4887.9237    108.29289   -4779.6308 
  877600    619.46147   -4884.4259    113.22136   -4771.2045 
  877800    612.61091   -4884.7649    111.96925   -4772.7956 
  878000    593.66331   -4886.5195    108.50613   -4778.0134 
  878200    599.99747   -4887.2212    109.66385   -4777.5573 
  878400    613.34418   -4886.8753    112.10327   -4774.7721 
  878600    605.43453   -4884.5027     110.6576   -4773.8451 
  878800     606.3505   -4886.2889    110.82501   -4775.4639 
  879000    583.06908   -4884.9011    106.56978   -4778.3313 
  879200    611.33863   -4886.0418    111.73671   -4774.3051 
  879400    616.79967   -4885.3166    112.73485   -4772.5817 
  879600    613.55523   -4888.2965    112.14185   -4776.1546 
  879800    594.07384    -4885.209    108.58116   -4776.6278 
  880000    624.69332    -4884.749     114.1776   -4770.5714 
  880200    595.45312   -4887.4622    108.83326    -4778.629 
  880400     589.2555   -4887.6466    107.70049   -4779.9461 
  880600    618.67228   -4885.7807    113.07711   -4772.7036 
  880800    606.29645    -4887.811    110.81513   -4776.9959 
  881000    620.93273   -4888.1336    113.49026   -4774.6433 
  881200    629.38044   -4889.5324    115.03428   -4774.4981 
  881400    583.54239   -4885.3404    106.65629   -4778.6841 
  881600    608.50079   -4880.4302    111.21803   -4769.2122 
  881800    631.42227   -4888.4652    115.40748   -4773.0578 
  882000    585.09649   -4887.1484    106.94033    -4780.208 
  882200    610.63119   -4884.4409    111.60741   -4772.8335 
  882400    607.90473   -4884.4653    111.10908   -4773.3562 
  882600    613.29289   -4887.7835     112.0939   -4775.6896 
  882800    614.50973   -4885.6394    112.31631    -4773.323 
  883000    599.85459    -4885.241    109.63773   -4775.6033 
  883200    609.89892   -4887.8735    111.47357   -4776.3999 
  883400    615.34647   -4885.5688    112.46924   -4773.0995 
  883600    608.55944   -4888.5631    111.22875   -4777.3343 
  883800    609.88493   -4890.6184    111.47101   -4779.1474 
  884000    631.68406   -4887.9753    115.45533     -4772.52 
  884200     590.6825   -4883.2565    107.96131   -4775.2952 
  884400    599.00531   -4886.3896     109.4825   -4776.9071 
  884600    602.57283   -4884.7414    110.13455   -4774.6069 
  884800    604.87306   -4889.5139    110.55497   -4778.9589 
  885000    615.96669    -4888.334     112.5826   -4775.7514 
  885200    621.95875   -4884.6615    113.67779   -4770.9837 
  885400      605.893   -4888.6685    110.74139   -4777.9271 
  885600    603.48439   -4886.6021    110.30116   -4776.3009 
  885800    603.47251   -4882.5152    110.29899   -4772.2162 
  886000    619.19515   -4891.1323    113.17268   -4777.9596 
  886200    597.57934   -4889.7429    109.22187    -4780.521 
  886400    625.52657   -4887.1974     114.3299   -4772.8675 
  886600    601.92712    -4885.871    110.01653   -4775.8544 
  886800     600.5698   -4890.8709    109.76845   -4781.1024 
  887000    620.46483   -4887.6389    113.40474   -4774.2342 
  887200     628.5534   -4886.4997    114.88312   -4771.6166 
  887400    594.56947   -4892.8704    108.67175   -4784.1986 
  887600    617.45076   -4893.6167    112.85385   -4780.7629 
  887800    614.55012   -4889.2339    112.32369   -4776.9102 
  888000    614.32944   -4890.5825    112.28335   -4778.2991 
  888200    634.54957   -4891.6078    115.97906   -4775.6288 
  888400    586.16498   -4889.6269    107.13563   -4782.4913 
  888600    614.32405   -4891.9062    112.28237   -4779.6238 
  888800    620.85554   -4887.1949    113.47615   -4773.7187 
  889000    606.65243   -4888.3602     110.8802     -4777.48 
  889200    611.73289   -4891.5012    111.80877   -4779.6925 
  889400    611.25618   -4889.6135    111.72164   -4777.8918 
  889600    608.73397   -4888.8943    111.26065   -4777.6337 
  889800     613.2092   -4892.7106     112.0786    -4780.632 
  890000    621.69317   -4890.9737    113.62925   -4777.3444 
  890200    623.71698   -4887.5373    113.99915   -4773.5381 
  890400    606.02188   -4888.0243    110.76495   -4777.2594 
  890600    606.40539   -4891.9423    110.83505   -4781.1073 
  890800    613.81551   -4886.1062    112.18942   -4773.9168 
  891000    626.24172   -4890.5298    114.46061   -4776.0692 
  891200    627.74328    -4894.784    114.73505   -4780.0489 
  891400    631.20803   -4891.8033    115.36832    -4776.435 
  891600    623.80245   -4889.8777    114.01477   -4775.8629 
  891800    599.43785   -4889.1527    109.56156   -4779.5911 
  892000     638.1186   -4892.9884    116.63139    -4776.357 
  892200     590.0213   -4886.7522    107.84046   -4778.9117 
  892400    628.49339   -4887.0232    114.87215    -4772.151 
  892600    613.20566   -4889.0488    112.07796   -4776.9709 
  892800    612.18521   -4896.4128    111.89145   -4784.5214 
  893000    630.31265   -4888.1828    115.20467   -4772.9782 
  893200    614.37912   -4885.9946    112.29243   -4773.7022 
  893400    590.99377   -4891.5988     108.0182   -4783.5806 
  893600    611.78494   -4891.6458    111.81829   -4779.8275 
  893800     608.9061   -4885.4601    111.29211    -4774.168 
  894000    615.08903   -4888.0168    112.42219   -4775.5946 
  894200    618.70083   -4888.9401    113.08233   -4775.8578 
  894400    610.99225   -4889.1366     111.6734   -4777.4632 
  894600    609.23075   -4889.0497    111.35145   -4777.6983 
  894800    634.47731   -4891.3486    115.96586   -4775.3828 
  895000    611.56488   -4885.8217    111.77806   -4774.0436 
  895200     619.0524   -4892.8839    113.14659   -4779.7373 
  895400    594.30901    -4888.871    108.62414   -4780.2468 
  895600    625.94463   -4885.1964    114.40631   -4770.7901 
  895800    619.38343   -4889.9686    113.20709   -4776.7615 
  896000    597.95416   -4891.5346    109.29038   -4782.2442 
  896200    634.15964   -4885.3832     115.9078   -4769.4754 
  896400    611.90755   -4888.4588     111.8407   -4776.6181 
  896600    602.63867   -4892.2761    110.14659   -4782.1295 
  896800    650.13009   -4888.9521    118.82678   -4770.1253 
  897000    617.58633   -4892.8245    112.87863   -4779.9459 
  897200    610.53648   -4893.9619     111.5901   -4782.3718 
  897400    651.48428     -4886.95    119.07429   -4767.8757 
  897600    595.69053   -4889.4508    108.87665   -4780.5741 
  897800    591.21123   -4891.6571    108.05795   -4783.5991 
  898000    646.23227   -4885.5866    118.11436   -4767.4722 
  898200    609.26256   -4891.5775    111.35726   -4780.2203 
  898400    602.91097   -4892.5966    110.19636   -4782.4002 
  898600    623.25254   -4882.0735    113.91426   -4768.1592 
  898800    598.80594   -4888.0054    109.44606   -4778.5593 
  899000    609.19426   -4893.1844    111.34478   -4781.8397 
  899200    653.90159    -4890.484    119.51611   -4770.9679 
  899400      594.141   -4891.0282    108.59344   -4782.4347 
  899600    616.01003   -4892.2982    112.59052   -4779.7077 
  899800    634.88588   -4885.5335    116.04053   -4769.4929 
  900000    603.59991   -4893.5365    110.32228   -4783.2142 
  900200    599.66854   -4889.4136    109.60372   -4779.8099 
  900400    661.00562   -4883.6437    120.81454   -4762.8292 
  900600    603.38133   -4888.7848    110.28233   -4778.5024 
  900800    597.23547   -4889.6795    109.15902   -4780.5205 
  901000    634.44716   -4886.2678    115.96035   -4770.3074 
  901200    621.18623   -4887.4763     113.5366   -4773.9397 
  901400    596.93753    -4885.724    109.10457   -4776.6195 
  901600     622.4399   -4887.3816    113.76573   -4773.6159 
  901800    619.27484   -4886.5718    113.18724   -4773.3845 
  902000    615.11943   -4888.4735    112.42774   -4776.0457 
  902200    617.90341   -4889.5245    112.93658   -4776.5879 
  902400    622.30355    -4889.708    113.74081   -4775.9672 
  902600    622.69445   -4884.0661    113.81226   -4770.2538 
  902800    607.06401   -4888.6108    110.95542   -4777.6554 
  903000    596.22678   -4888.7492    108.97466   -4779.7745 
  903200    633.31349   -4889.0872    115.75314   -4773.3341 
  903400    613.35367    -4889.289    112.10501    -4777.184 
  903600    624.08032   -4889.3384    114.06556   -4775.2728 
  903800    628.97288   -4886.2164    114.95979   -4771.2567 
  904000    603.94365   -4888.6165     110.3851   -4778.2314 
  904200    608.93931   -4887.4168    111.29818   -4776.1186 
  904400    615.62141   -4885.7319    112.51949   -4773.2124 
  904600    607.35923   -4890.5305    111.00938   -4779.5211 
  904800    621.44613   -4889.5712     113.5841   -4775.9871 
  905000    632.06553   -4884.9043    115.52505   -4769.3793 
  905200    606.84356    -4887.443    110.91513   -4776.5279 
  905400    609.98059   -4889.5054     111.4885   -4778.0169 
  905600    601.01995   -4886.4584    109.85073   -4776.6077 
  905800    623.33515   -4887.0513    113.92936    -4773.122 
  906000    633.34642   -4888.8232    115.75916    -4773.064 
  906200    611.84503   -4887.1352    111.82927   -4775.3059 
  906400    619.42759   -4886.3304    113.21516   -4773.1153 
  906600    610.98601   -4885.9805    111.67226   -4774.3083 
  906800    613.88932   -4888.6545    112.20291   -4776.4516 
  907000    620.85936   -4888.6547    113.47685   -4775.1778 
  907200    616.51602    -4885.445      112.683    -4772.762 
  907400    609.52571   -4886.5422    111.40536   -4775.1368 
  907600    606.68998   -4889.6361    110.88706   -4778.7491 
  907800    633.99492   -4890.0276    115.87769   -4774.1499 
  908000    611.09937    -4884.097    111.69298    -4772.404 
  908200    632.72527   -4892.2161    115.64563   -4776.5705 
  908400    607.73829   -4892.4845    111.07866   -4781.4058 
  908600    612.44934   -4888.4034    111.93972   -4776.4637 
  908800    628.42426   -4885.7057    114.85952   -4770.8462 
  909000    617.93072   -4889.3931    112.94157   -4776.4516 
  909200    598.86751    -4888.339    109.45732   -4778.8817 
  909400    610.40783   -4886.7628    111.56659   -4775.1962 
  909600    613.41206   -4886.1435    112.11568   -4774.0278 
  909800    611.12477   -4884.4528    111.69762   -4772.7552 
  910000    635.82643   -4888.4936    116.21244   -4772.2812 
  910200    621.79493   -4893.2375    113.64785   -4779.5896 
  910400    631.26649   -4891.0236      115.379   -4775.6446 
  910600    623.76955   -4881.8983    114.00876   -4767.8896 
  910800    625.75865   -4887.8127    114.37232   -4773.4404 
  911000    608.78287    -4890.885    111.26959   -4779.6154 
  911200    621.86978   -4887.7903    113.66153   -4774.1288 
  911400    628.64309   -4886.5029    114.89951   -4771.6034 
  911600     611.3368   -4888.8684    111.73638    -4777.132 
  911800    649.51127    -4889.957    118.71367   -4771.2433 
  912000    610.76779    -4887.189    111.63238   -4775.5566 
  912200    607.46394   -4890.2707    111.02852   -4779.2422 
  912400    650.32258   -4886.7601    118.86196   -4767.8981 
  912600    603.66899   -4886.4902     110.3349   -4776.1553 
  912800    615.18367   -4890.3594    112.43948   -4777.9199 
  913000    642.40464    -4885.193    117.41477   -4767.7782 
  913200    633.90807   -4887.1272    115.86182   -4771.2654 
  913400    601.76429   -4889.8074    109.98677   -4779.8206 
  913600    635.85165   -4888.8294    116.21705   -4772.6124 
  913800    623.27274      -4885.7    113.91796    -4771.782 
  914000      616.584   -4890.0939    112.69543   -4777.3985 
  914200    629.17256    -4886.048    114.99629   -4771.0517 
  914400    633.07383   -4889.8075    115.70934   -4774.0981 
  914600    614.21626   -4887.1268    112.26267   -4774.8641 
  914800    639.90196   -4885.7594    116.95734    -4768.802 
  915000     606.4895   -4886.8597    110.85042   -4776.0093 
  915200    598.92303   -4889.0662    109.46747   -4779.5988 
  915400    640.94609   -4886.0138    117.14818   -4768.8656 
  915600    617.12999   -4883.8595    112.79522   -4771.0643 
  915800    601.05277   -4888.9275    109.85673   -4779.0707 
  916000    617.78441   -4886.3316    112.91483   -4773.4168 
  916200    625.13424   -4885.7969    114.25819   -4771.5387 
  916400    632.48808   -4888.3491    115.60228   -4772.7468 
  916600    614.15482   -4888.6987    112.25144   -4776.4472 
  916800    623.31697   -4888.8151    113.92604   -4774.8891 
  917000    630.40611   -4887.1864    115.22175   -4771.9647 
  917200    620.29318   -4886.0846    113.37337   -4772.7112 
  917400    627.77384   -4888.0224    114.74064   -4773.2817 
  917600    616.54005    -4889.581     112.6874   -4776.8936 
  917800    617.90495   -4888.8463    112.93686   -4775.9094 
  918000    625.31392   -4884.7747    114.29103   -4770.4837 
  918200    625.05094   -4889.1913    114.24296   -4774.9484 
  918400    614.02659   -4888.3871      112.228   -4776.1591 
  918600    632.22175   -4883.4722     115.5536   -4767.9186 
  918800    616.44679   -4884.7186    112.67035   -4772.0482 
  919000    618.38449   -4889.7042    113.02451   -4776.6797 
  919200    622.83821   -4886.9345    113.83853    -4773.096 
  919400    614.52915   -4886.8813    112.31986   -4774.5615 
  919600    611.16702   -4886.6939    111.70535   -4774.9886 
  919800    641.25208   -4884.5851    117.20411    -4767.381 
  920000    607.93323   -4886.0437    111.11429   -4774.9294 
  920200    635.39864   -4890.6164    116.13425   -4774.4822 
  920400    627.35043   -4883.0329    114.66325   -4768.3696 
  920600    624.21223   -4884.1173    114.08967   -4770.0276 
  920800    613.50375   -4887.0586    112.13244   -4774.9262 
  921000    606.92755   -4882.1701    110.93048   -4771.2396 
  921200    627.21303   -4880.7878    114.63814   -4766.1497 
  921400    613.21554   -4885.4011    112.07976   -4773.3214 
  921600    614.02743   -4885.4118    112.22815   -4773.1836 
  921800    628.09303   -4879.8247    114.79898   -4765.0257 
  922000    638.46097   -4886.3678    116.69397   -4769.6738 
  922200    610.08166   -4886.8203    111.50697   -4775.3134 
  922400    629.63108   -4885.0593    115.08009   -4769.9792 
  922600    625.76882   -4885.6901    114.37417    -4771.316 
  922800    633.29713   -4888.4552    115.75015   -4772.7051 
  923000    626.31562   -4885.5134    114.47411   -4771.0393 
  923200    628.70015   -4886.2991    114.90994   -4771.3892 
  923400    624.28348   -4888.4024    114.10269   -4774.2997 
  923600    653.95664    -4890.385    119.52617   -4770.8588 
  923800    623.42609   -4886.2435    113.94598   -4772.2975 
  924000    619.34341    -4885.024    113.19978   -4771.8242 
  924200    621.45576   -4885.7398    113.58586    -4772.154 
  924400    616.05333   -4886.9572    112.59844   -4774.3588 
  924600    626.50966   -4888.6391    114.50958   -4774.1295 
  924800    637.13257   -4890.0831    116.45117    -4773.632 
  925000    619.56842   -4884.0064     113.2409   -4770.7655 
  925200    640.36476   -4889.7337    117.04193   -4772.6918 
  925400    609.80843   -4888.1156    111.45703   -4776.6586 
  925600    626.09692    -4889.067    114.43414   -4774.6329 
  925800    631.11236    -4881.371    115.35083   -4766.0202 
  926000    610.80362   -4887.6374    111.63893   -4775.9985 
  926200    616.98052   -4892.4757     112.7679   -4779.7078 
  926400    644.40179   -4890.2074    117.77979   -4772.4276 
  926600      623.541    -4887.828    113.96699    -4773.861 
  926800    640.17091   -4887.8048     117.0065   -4770.7983 
  927000    642.64874   -4892.0225    117.45938   -4774.5631 
  927200    624.41143   -4891.3691    114.12608    -4777.243 
  927400    655.68471   -4887.2533    119.84202   -4767.4113 
  927600    629.32731   -4887.7618    115.02457   -4772.7372 
  927800     617.0681    -4888.844    112.78391   -4776.0601 
  928000    645.98239   -4890.3826    118.06868    -4772.314 
  928200    624.69378    -4888.188    114.17768   -4774.0103 
  928400    620.11542   -4886.2929    113.34088    -4772.952 
  928600    620.29448   -4885.9264    113.37361   -4772.5528 
  928800    611.74625   -4888.5983    111.81122   -4776.7871 
  929000    635.19103   -4891.7822    116.09631   -4775.6859 
  929200    637.20391   -4889.0334    116.46421   -4772.5692 
  929400    625.84847   -4885.9796    114.38873   -4771.5908 
  929600    604.70177    -4884.155    110.52367   -4773.6313 
  929800    627.32451   -4888.6377    114.65851   -4773.9792 
  930000    638.52709   -4887.2695    116.70605   -4770.5634 
  930200    625.19584   -4886.7419    114.26945   -4772.4724 
  930400    599.23934   -4889.2441    109.52528   -4779.7188 
  930600    629.49763   -4885.2898     115.0557   -4770.2341 
  930800    640.44623   -4884.3191    117.05682   -4767.2623 
  931000    622.50835   -4894.0639    113.77824   -4780.2856 
  931200    643.17925   -4891.5689    117.55635   -4774.0126 
  931400    632.39976   -4887.4664    115.58613   -4771.8803 
  931600    604.26012   -4884.4902    110.44295   -4774.0472 
  931800    628.79475   -4886.1177    114.92723   -4771.1905 
  932000    607.17894   -4887.0599    110.97643   -4776.0835 
  932200     630.7577   -4883.3174    115.28601   -4768.0314 
  932400    631.34026   -4884.3448    115.39249   -4768.9523 
  932600    619.00843   -4891.3022    113.13855   -4778.1637 
  932800    662.25296   -4894.2441    121.04252   -4773.2015 
  933000    621.02687   -4888.3308    113.50747   -4774.8233 
  933200    658.91453   -4888.6712    120.43234   -4768.2388 
  933400    646.21071   -4889.5989    118.11042   -4771.4885 
  933600    605.04072   -4891.8884    110.58562   -4781.3027 
  933800    633.68964   -4888.4298    115.82189   -4772.6079 
  934000    606.41185    -4881.797    110.83622   -4770.9608 
  934200    646.65075   -4891.6573    118.19084   -4773.4664 
  934400     635.8703   -4890.2961    116.22046   -4774.0756 
  934600    623.03877   -4887.2822    113.87519    -4773.407 
  934800     629.9185   -4887.3575    115.13263   -4772.2249 
  935000    625.85741   -4888.5856    114.39036   -4774.1952 
  935200    622.37446    -4885.841    113.75377   -4772.0872 
  935400    618.50895   -4887.4747    113.04726   -4774.4275 
  935600    650.01711   -4887.8747    118.80613   -4769.0685 
  935800    629.27297   -4886.6771    115.01464   -4771.6624 
  936000    628.93587    -4890.164    114.95303    -4775.211 
  936200     627.0447   -4884.4225    114.60737   -4769.8151 
  936400     626.1044   -4886.3071    114.43551   -4771.8716 
  936600     614.3591   -4886.2121    112.28878   -4773.9233 
  936800    619.98525    -4884.783    113.31709   -4771.4659 
  937000    608.52873   -4886.4112    111.22314    -4775.188 
  937200    638.76375   -4887.6724    116.74931   -4770.9231 
  937400    627.71724    -4885.938    114.73029   -4771.2077 
  937600    632.71151   -4891.4849    115.64312   -4775.8417 
  937800    622.84802   -4887.0076    113.84033   -4773.1673 
  938000    620.60221   -4885.6503    113.42985   -4772.2204 
  938200    640.87612   -4886.6871    117.13539   -4769.5517 
  938400    622.73829   -4888.6257    113.82027   -4774.8054 
  938600    619.97915   -4892.0228    113.31597   -4778.7068 
  938800    644.45991   -4886.6931    117.79042   -4768.9026 
  939000     641.4434   -4887.7444    117.23908   -4770.5053 
  939200     613.9683   -4889.5068    112.21735   -4777.2894 
  939400    628.68415   -4885.3436    114.90702   -4770.4365 
  939600    612.79164   -4884.9416    112.00228   -4772.9394 
  939800    637.23632   -4887.9221    116.47013    -4771.452 
  940000    623.30776   -4892.1485    113.92436   -4778.2242 
  940200    619.10434   -4889.4745    113.15608   -4776.3184 
  940400    648.65513   -4885.2846    118.55719   -4766.7274 
  940600    619.00743   -4886.1344    113.13837    -4772.996 
  940800    632.01113   -4892.3894     115.5151   -4776.8743 
  941000    637.68691   -4886.0109    116.55249   -4769.4584 
  941200     616.7535   -4885.6339    112.72641   -4772.9075 
  941400    630.58786   -4889.1717    115.25497   -4773.9167 
  941600    629.49237   -4886.7187    115.05474    -4771.664 
  941800    625.91009   -4890.4726    114.39999   -4776.0726 
  942000    618.54109   -4888.3153    113.05313   -4775.2621 
  942200    637.32783   -4883.0921    116.48686   -4766.6052 
  942400    604.36034   -4884.6625    110.46126   -4774.2013 
  942600    640.61078   -4887.2606    117.08689   -4770.1737 
  942800    639.42682   -4886.2465     116.8705    -4769.376 
  943000    609.10581   -4887.6094    111.32861   -4776.2807 
  943200    616.58448   -4883.8871    112.69552   -4771.1916 
  943400    624.20576   -4880.9516    114.08849   -4766.8631 
  943600    594.95247   -4885.5265    108.74175   -4776.7847 
  943800    625.39831   -4886.8695    114.30645    -4772.563 
  944000    657.06915   -4885.2359    120.09505   -4765.1408 
  944200     622.9262   -4887.2965    113.85462   -4773.4419 
  944400    618.63822   -4889.2689    113.07089    -4776.198 
  944600    630.70575   -4885.1448    115.27652   -4769.8683 
  944800    620.76936   -4886.2581     113.4604   -4772.7977 
  945000    632.46301   -4886.8503     115.5977   -4771.2526 
  945200    627.58153   -4885.7936    114.70549   -4771.0881 
  945400    635.91531    -4886.945    116.22869   -4770.7163 
  945600    625.48364   -4886.6947    114.32205   -4772.3726 
  945800    647.07827   -4890.2821    118.26898   -4772.0131 
  946000    624.37451   -4890.0922    114.11933   -4775.9729 
  946200    625.62871   -4885.3763    114.34856   -4771.0277 
  946400    642.71364   -4884.5333    117.47124   -4767.0621 
  946600    607.11286   -4888.8005    110.96435   -4777.8362 
  946800    632.29095   -4891.1921    115.56625   -4775.6259 
  947000    635.73596    -4886.848    116.19591   -4770.6521 
  947200    645.76184   -4886.8219    118.02837   -4768.7935 
  947400     635.0593   -4888.8921    116.07223   -4772.8198 
  947600    623.55861   -4890.2466     113.9702   -4776.2764 
  947800    644.84265   -4888.4451    117.86037   -4770.5847 
  948000     643.5292   -4886.5512    117.62031   -4768.9309 
  948200    609.63805   -4886.3561    111.42589   -4774.9302 
  948400    615.63896   -4885.6854     112.5227   -4773.1627 
  948600    648.70257   -4885.2459    118.56586     -4766.68 
  948800     622.2215   -4889.3209    113.72582    -4775.595 
  949000    637.26871   -4888.8738    116.47605   -4772.3977 
  949200    628.21175   -4886.1239    114.82068   -4771.3032 
  949400    629.26139    -4885.596    115.01252   -4770.5834 
  949600    632.36855   -4884.8725    115.58043   -4769.2921 
  949800     626.0761   -4889.0901    114.43034   -4774.6598 
  950000     636.6988   -4889.6317    116.37189   -4773.2598 
  950200    626.29541   -4883.1206    114.47042   -4768.6501 
  950400    639.74039   -4884.4525    116.92781   -4767.5247 
  950600    641.13333   -4891.5825     117.1824   -4774.4001 
  950800    607.98488   -4890.7177    111.12373   -4779.5939 
  951000    652.06941   -4884.6527    119.18123   -4765.4715 
  951200    628.99635   -4883.0026    114.96408   -4768.0385 
  951400    612.62758    -4887.208     111.9723   -4775.2357 
  951600    621.93522    -4884.418    113.67349   -4770.7445 
  951800    641.87129   -4885.8714    117.31728   -4768.5541 
  952000    618.80806    -4887.951    113.10193   -4774.8491 
  952200    632.26376   -4883.3967    115.56128   -4767.8354 
  952400     637.6226     -4884.34    116.54073   -4767.7992 
  952600    618.11232   -4887.1774    112.97477   -4774.2026 
  952800     645.4807   -4886.9964    117.97699   -4769.0194 
  953000     639.5235   -4885.8487    116.88817   -4768.9605 
  953200    614.27614   -4887.2113    112.27361   -4774.9377 
  953400    654.08292   -4887.2762    119.54925    -4767.727 
  953600     624.5993   -4888.0937    114.16042   -4773.9333 
  953800    635.50085   -4892.6904    116.15293   -4776.5375 
  954000    659.90134   -4885.1682    120.61271   -4764.5555 
  954200    621.41826   -4884.2876      113.579   -4770.7086 
  954400     614.1908   -4888.8564    112.25801   -4776.5984 
  954600    656.19731   -4885.9375    119.93571   -4766.0018 
  954800    632.56468    -4884.653    115.61628   -4769.0367 
  955000    652.55409   -4891.8243    119.26982   -4772.5545 
  955200    640.00885   -4888.1736    116.97688   -4771.1967 
  955400    635.64902   -4886.9577    116.18002   -4770.7777 
  955600    621.77479    -4888.371    113.64417   -4774.7268 
  955800    645.39881   -4887.4508    117.96202   -4769.4888 
  956000    638.00807   -4889.2224    116.61119   -4772.6112 
  956200    632.48806    -4886.873    115.60227   -4771.2707 
  956400    657.41758   -4887.6455    120.15874   -4767.4868 
  956600     635.8727   -4885.7484     116.2209   -4769.5275 
  956800    634.65985   -4887.8874    115.99922   -4771.8882 
  957000    625.85231   -4887.9375    114.38943   -4773.5481 
  957200    632.18071   -4883.3577     115.5461   -4767.8116 
  957400    639.97587   -4886.8322    116.97085   -4769.8613 
  957600    625.72377   -4886.1622    114.36594   -4771.7963 
  957800    645.57008   -4886.7438    117.99333   -4768.7505 
  958000    615.66777   -4883.9407    112.52797   -4771.4128 
  958200    652.78627   -4888.2724    119.31226   -4768.9602 
  958400    634.68322   -4886.3871    116.00349   -4770.3836 
  958600    623.80539   -4887.3659    114.01531   -4773.3506 
  958800    647.59711   -4886.5602    118.36381   -4768.1964 
  959000    632.31857   -4885.0326     115.5713   -4769.4613 
  959200     639.0701   -4888.1865     116.8053   -4771.3812 
  959400    618.55727   -4882.5364    113.05609   -4769.4803 
  959600     643.0571   -4885.4146    117.53402   -4767.8806 
  959800    625.96583   -4888.0026    114.41018   -4773.5924 
  960000    623.19259    -4886.699    113.90331   -4772.7957 
  960200    644.92187   -4883.5498    117.87485    -4765.675 
  960400     633.3243   -4884.4161    115.75512    -4768.661 
  960600    629.63998   -4883.4292    115.08172   -4768.3474 
  960800    621.76828   -4884.7474    113.64298   -4771.1044 
  961000    628.64092   -4884.6319    114.89912   -4769.7328 
  961200    648.84736   -4883.2093    118.59233   -4764.6169 
  961400    637.17292   -4884.4677    116.45854   -4768.0092 
  961600    638.37892   -4888.2809    116.67897    -4771.602 
  961800    634.88165   -4885.1219    116.03976   -4769.0822 
  962000     637.4003   -4885.3264     116.5001   -4768.8263 
  962200    637.49588   -4883.2489    116.51757   -4766.7313 
  962400    641.81073   -4890.5069    117.30621   -4773.2007 
  962600    622.64482   -4885.9126    113.80319   -4772.1094 
  962800    639.06865   -4881.2281    116.80503   -4764.4231 
  963000      641.302   -4888.1355    117.21323   -4770.9223 
  963200    643.49093   -4889.8378    117.61331   -4772.2245 
  963400    647.90052   -4883.5114    118.41927   -4765.0921 
  963600    630.14039   -4886.8573    115.17318   -4771.6841 
  963800    643.43636   -4888.0703    117.60334   -4770.4669 
  964000    641.38247    -4884.024    117.22794   -4766.7961 
  964200    650.34623   -4885.8319    118.86628   -4766.9656 
  964400     645.2486   -4885.7515    117.93457   -4767.8169 
  964600    634.25368   -4887.3404    115.92498   -4771.4154 
  964800    629.79192   -4888.4336    115.10949   -4773.3241 
  965000    660.35527    -4885.381    120.69567   -4764.6853 
  965200     660.2576   -4886.5123    120.67782   -4765.8345 
  965400    629.67353    -4886.855    115.08785   -4771.7672 
  965600    628.15676    -4887.903    114.81063   -4773.0924 
  965800    649.18443   -4883.1982    118.65394   -4764.5442 
  966000    625.45331   -4886.2392    114.31651   -4771.9227 
  966200    630.30206   -4887.2427    115.20273     -4772.04 
  966400    648.31491   -4878.8137    118.49501   -4760.3187 
  966600    638.67471   -4885.3239    116.73303   -4768.5908 
  966800    626.11528   -4888.5449     114.4375   -4774.1074 
  967000    641.24187   -4881.2482    117.20224    -4764.046 
  967200    628.68804   -4885.2007    114.90773    -4770.293 
  967400    661.99647   -4890.6597    120.99564   -4769.6641 
  967600    647.40952   -4882.7749    118.32953   -4764.4454 
  967800    616.09704    -4881.154    112.60642   -4768.5476 
  968000    649.25156   -4884.8299     118.6662   -4766.1637 
  968200    643.96829   -4886.3706    117.70056     -4768.67 
  968400    651.22039     -4888.97    119.02605    -4769.944 
  968600    636.44257   -4884.2188    116.32506   -4767.8938 
  968800    622.96893   -4880.0528    113.86243   -4766.1904 
  969000     657.4462    -4885.692    120.16397   -4765.5281 
  969200    650.86804   -4889.3833    118.96165   -4770.4216 
  969400    622.56143   -4886.6781    113.78795   -4772.8901 
  969600    631.41259   -4881.1003    115.40571   -4765.6946 
  969800    649.21778   -4886.4586    118.66003   -4767.7986 
  970000    628.46948   -4885.5098    114.86778    -4770.642 
  970200    645.79198   -4881.0109    118.03388    -4762.977 
  970400    642.83001   -4884.4957    117.49251   -4767.0032 
  970600    629.26524   -4887.8327    115.01323   -4772.8195 
  970800    632.34135   -4885.2583    115.57546   -4769.6828 
  971000    638.65214    -4883.613    116.72891   -4766.8841 
  971200    654.35218   -4887.5505    119.59846    -4767.952 
  971400    637.44589   -4885.4171    116.50844   -4768.9087 
  971600    626.19143     -4884.11    114.45141   -4769.6586 
  971800    639.40425   -4884.7847    116.86637   -4767.9183 
  972000    633.20569   -4883.1976    115.73344   -4767.4642 
  972200    623.06194   -4881.8976    113.87943   -4768.0181 
  972400    624.70309   -4883.4844    114.17939    -4769.305 
  972600    632.14372   -4884.1375    115.53934   -4768.5981 
  972800    650.14211   -4885.1226    118.82897   -4766.2936 
  973000    639.88708   -4884.7916    116.95462    -4767.837 
  973200    631.95626   -4885.2806    115.50508   -4769.7755 
  973400    645.50227   -4883.7233    117.98093   -4765.7424 
  973600    661.27906   -4884.5044    120.86452   -4763.6399 
  973800    642.58608   -4885.8938    117.44793   -4768.4459 
  974000     652.3276    -4887.016    119.22842   -4767.7875 
  974200    652.51408   -4884.6975    119.26251    -4765.435 
  974400    652.52817   -4886.5837    119.26508   -4767.3186 
  974600    636.60284   -4889.6003    116.35435    -4773.246 
  974800    637.86716    -4882.805    116.58543   -4766.2195 
  975000     649.7541   -4881.4504    118.75805   -4762.6924 
  975200     634.0849   -4888.4318    115.89414   -4772.5377 
  975400    660.37391   -4890.0952    120.69908   -4769.3961 
  975600    639.91586   -4887.4364    116.95988   -4770.4765 
  975800    645.73855   -4887.3392    118.02412   -4769.3151 
  976000    639.52446   -4885.4489    116.88834   -4768.5606 
  976200     635.0489   -4884.8938    116.07033   -4768.8235 
  976400    640.03499   -4884.3271    116.98166   -4767.3455 
  976600    633.49878   -4883.8824    115.78701   -4768.0954 
  976800    647.71301   -4885.4748      118.385   -4767.0898 
  977000    631.40982      -4886.1     115.4052   -4770.6948 
  977200    643.46851   -4887.6714    117.60921   -4770.0622 
  977400     666.9407   -4890.8354    121.89932   -4768.9361 
  977600    628.79284   -4888.3332    114.92688   -4773.4063 
  977800    654.87197   -4887.1875    119.69347    -4767.494 
  978000    647.13833   -4886.4166    118.27996   -4768.1366 
  978200     633.0201   -4886.9989    115.69952   -4771.2994 
  978400    647.20112   -4883.6668    118.29144   -4765.3754 
  978600    648.28004   -4883.4798    118.48864   -4764.9912 
  978800    634.61232   -4889.5556    115.99053    -4773.565 
  979000    658.30061    -4887.849    120.32013   -4767.5289 
  979200    656.69272   -4886.3071    120.02625   -4766.2808 
  979400    610.44503   -4885.9412    111.57338   -4774.3678 
  979600    663.06041   -4886.4236     121.1901   -4765.2335 
  979800     656.3375   -4883.5757    119.96133   -4763.6144 
  980000    632.70746   -4889.1428    115.64237   -4773.5004 
  980200    658.96928   -4888.8837    120.44235   -4768.4414 
  980400    663.77916   -4887.3189    121.32147   -4765.9974 
  980600    629.80428   -4885.5926    115.11175   -4770.4809 
  980800     648.7582   -4888.1002    118.57603   -4769.5242 
  981000    654.15207   -4887.0617    119.56189   -4767.4998 
  981200     627.0204   -4884.8446    114.60293   -4770.2417 
  981400    638.38167   -4887.9158    116.67947   -4771.2363 
  981600    661.63828   -4887.4184    120.93017   -4766.4882 
  981800    616.93399   -4884.0974     112.7594    -4771.338 
  982000    661.86996   -4886.8986    120.97252   -4765.9261 
  982200    659.73935   -4887.4244     120.5831   -4766.8413 
  982400     633.4082   -4885.2646    115.77045   -4769.4942 
  982600    651.55545   -4883.0619    119.08729   -4763.9746 
  982800    662.17229   -4885.8081    121.02778   -4764.7803 
  983000     622.7317   -4886.9709    113.81907   -4773.1519 
  983200    648.37942   -4883.5122     118.5068   -4765.0054 
  983400    652.95253   -4878.3484    119.34264   -4759.0057 
  983600    625.90063   -4887.3621    114.39826   -4772.9639 
  983800    647.89004   -4884.5358    118.41735   -4766.1184 
  984000    654.46312     -4881.34    119.61874   -4761.7213 
  984200    635.76951   -4890.8464    116.20204   -4774.6443 
  984400    651.44756   -4885.8132    119.06757   -4766.7457 
  984600    656.27404   -4884.9845    119.94973   -4765.0348 
  984800    632.03727   -4888.4696    115.51988   -4772.9497 
  985000    678.40223   -4886.5709    123.99418   -4762.5767 
  985200    653.19459   -4889.9516    119.38689   -4770.5647 
  985400     631.6002   -4887.1854       115.44   -4771.7454 
  985600    660.63109   -4881.6986    120.74608   -4760.9525 
  985800    645.29683   -4892.4313    117.94338   -4774.4879 
  986000    631.01049   -4889.1305    115.33221   -4773.7983 
  986200    671.13448   -4882.7037    122.66583   -4760.0378 
  986400    635.70253   -4884.5905     116.1898   -4768.4007 
  986600    635.52545   -4888.4334    116.15743   -4772.2759 
  986800    642.87406   -4881.4093    117.50056   -4763.9087 
  987000     638.8655   -4885.4026     116.7679   -4768.6347 
  987200    643.57318   -4888.0796    117.62834   -4770.4513 
  987400     651.1413   -4881.0291     119.0116   -4762.0175 
  987600    642.68897    -4882.132    117.46673   -4764.6652 
  987800    651.30087   -4886.1375    119.04077   -4767.0967 
  988000     641.0106   -4883.3084    117.15997   -4766.1484 
  988200    639.52368   -4886.7828     116.8882   -4769.8946 
  988400    646.29637    -4887.914    118.12607   -4769.7879 
  988600    667.77353   -4884.8485    122.05154   -4762.7969 
  988800    654.43936   -4886.7098     119.6144   -4767.0954 
  989000    619.83912   -4885.5014    113.29038    -4772.211 
  989200    667.24683   -4881.8702    121.95527   -4759.9149 
  989400    615.97654   -4881.3752     112.5844   -4768.7908 
  989600    626.83146    -4886.713     114.5684   -4772.1446 
  989800    664.92938   -4884.6214     121.5317   -4763.0897 
  990000    636.11312   -4883.6229    116.26484   -4767.3581 
  990200    635.13579   -4883.9403    116.08621    -4767.854 
  990400    664.68788   -4887.7743    121.48756   -4766.2867 
  990600    633.23762   -4887.1771    115.73927   -4771.4378 
  990800    672.46919   -4883.7416    122.90978   -4760.8318 
  991000    651.80342   -4883.8851    119.13262   -4764.7525 
  991200    638.54845   -4889.9494    116.70996   -4773.2394 
  991400    659.37583   -4885.8158    120.51666   -4765.2991 
  991600    655.71749   -4881.5123    119.84801   -4761.6643 
  991800    640.65394   -4887.5837    117.09478   -4770.4889 
  992000     676.6893   -4887.0656     123.6811   -4763.3845 
  992200    646.95137   -4883.7373    118.24579   -4765.4915 
  992400    628.89364   -4887.6141    114.94531   -4772.6688 
  992600    676.14273   -4883.8456    123.58121   -4760.2644 
  992800    662.64131   -4885.1557     121.1135   -4764.0422 
  993000    628.96026   -4887.6831    114.95749   -4772.7256 
  993200    667.55011   -4881.7946     122.0107   -4759.7839 
  993400    638.24867   -4884.4917    116.65516   -4767.8366 
  993600    606.71086   -4884.1961    110.89088   -4773.3052 
  993800    679.51851   -4881.3534    124.19821   -4757.1552 
  994000     633.5803   -4881.8471    115.80191   -4766.0452 
  994200    651.89861   -4888.8475    119.15002   -4769.6975 
  994400    666.03713   -4883.7398    121.73417   -4762.0056 
  994600    645.51674   -4888.6346    117.98358   -4770.6511 
  994800    647.08751   -4886.7083    118.27067   -4768.4376 
  995000    643.30612   -4876.6249    117.57953   -4759.0454 
  995200    653.00745    -4883.706    119.35268   -4764.3534 
  995400    657.56845    -4888.726    120.18631   -4768.5397 
  995600    647.57016   -4885.8873    118.35889   -4767.5284 
  995800    652.41446   -4886.2363     119.2443    -4766.992 
  996000    647.96022   -4880.1088    118.43018   -4761.6786 
  996200    654.87397   -4882.6213    119.69383   -4762.9274 
  996400    626.93361   -4884.6301    114.58707    -4770.043 
  996600    653.32207   -4883.2259    119.41019   -4763.8158 
  996800    662.25979   -4885.5724    121.04377   -4764.5286 
  997000     648.5346    -4883.955    118.53516   -4765.4199 
  997200    660.31092    -4886.238    120.68757   -4765.5504 
  997400    644.24613   -4887.2709    117.75134   -4769.5195 
  997600    655.87686   -4885.5064    119.87714   -4765.6293 
  997800       637.65   -4880.6125    116.54574   -4764.0668 
  998000    633.35779   -4882.9645    115.76124   -4767.2033 
  998200    660.32816    -4886.454    120.69072   -4765.7633 
  998400    646.92837   -4883.0198    118.24159   -4764.7782 
  998600    641.51005   -4884.3918    117.25126   -4767.1406 
  998800    628.52918   -4881.8569     114.8787   -4766.9782 
  999000    656.11691   -4881.7361    119.92101   -4761.8151 
  999200    629.72466   -4882.7278     115.0972   -4767.6306 
  999400    657.07187   -4886.7786    120.09555    -4766.683 
  999600    662.80002   -4882.3329    121.14251   -4761.1904 
  999800    656.99917   -4888.6183    120.08226   -4768.5361 
 1000000    650.36707   -4890.0718    118.87009   -4771.2017 
 1000200    654.77174   -4880.7919    119.67515   -4761.1167 
 1000400     649.1562   -4883.4368    118.64877   -4764.7881 
 1000600    630.72096   -4885.9184    115.27929   -4770.6391 
 1000800    642.92152   -4881.8973    117.50924   -4764.3881 
 1001000    628.23904   -4878.5266    114.82566   -4763.7009 
 1001200    638.53863     -4886.07    116.70816   -4769.3618 
 1001400    654.07319   -4882.2441    119.54747   -4762.6966 
 1001600    641.27412   -4885.7345    117.20814   -4768.5264 
 1001800    633.27358   -4882.8961    115.74585   -4767.1502 
 1002000    686.73509   -4886.4587    125.51721   -4760.9415 
 1002200    622.79371    -4889.593     113.8304   -4775.7626 
 1002400    632.59636   -4882.6782    115.62207   -4767.0561 
 1002600    666.88912   -4882.6012    121.88989   -4760.7113 
 1002800    658.49684    -4889.844      120.356    -4769.488 
 1003000    647.90655   -4884.9945    118.42037   -4766.5741 
 1003200     665.4116   -4891.0782    121.61984   -4769.4584 
 1003400    653.95556    -4886.967    119.52597    -4767.441 
 1003600    665.65171   -4882.0357    121.66372    -4760.372 
 1003800    626.51295   -4888.9205    114.51018   -4774.4103 
 1004000    643.33433   -4885.8343    117.58469   -4768.2496 
 1004200    683.92986   -4881.3244    125.00449     -4756.32 
 1004400    641.10609   -4886.7774    117.17742      -4769.6 
 1004600    638.98184   -4887.9255    116.78917   -4771.1363 
 1004800    658.25271   -4882.9145    120.31138   -4762.6031 
 1005000     628.4395   -4882.7479     114.8623   -4767.8856 
 1005200    648.91237   -4884.2532    118.60421    -4765.649 
 1005400    662.24827   -4887.6022    121.04166   -4766.5605 
 1005600    654.77973   -4889.8989    119.67661   -4770.2223 
 1005800    651.85886   -4880.0098    119.14275   -4760.8671 
 1006000    658.31576   -4882.0407     120.3229   -4761.7178 
 1006200    618.94865   -4882.7647    113.12762    -4769.637 
 1006400    653.32695   -4886.8653    119.41108   -4767.4543 
 1006600    682.22267   -4887.2218    124.69246   -4762.5293 
 1006800    632.89855   -4884.6763     115.6773    -4768.999 
 1007000     646.7506   -4882.0853    118.20909   -4763.8762 
 1007200     648.6633   -4876.8531    118.55869   -4758.2944 
 1007400    636.64564   -4884.7854    116.36217   -4768.4233 
 1007600    644.10944   -4884.5755    117.72636   -4766.8491 
 1007800    667.15488   -4882.7422    121.93846   -4760.8037 
 1008000    643.65515   -4884.7978    117.64333   -4767.1545 
 1008200    664.67992   -4882.4392     121.4861   -4760.9531 
 1008400    671.26024   -4880.8388    122.68882     -4758.15 
 1008600    650.49682    -4884.778    118.89381   -4765.8842 
 1008800    644.94018   -4882.6421     117.8782   -4764.7639 
 1009000    660.09899   -4883.9218    120.64883   -4763.2729 
 1009200    651.27153   -4887.8375     119.0354   -4768.8021 
 1009400    640.11627   -4884.2458    116.99651   -4767.2493 
 1009600    648.62851    -4877.624    118.55233   -4759.0716 
 1009800    659.95023   -4883.0152    120.62164   -4762.3935 
 1010000    619.22404   -4883.1962    113.17796   -4770.0182 
 1010200    664.75301    -4881.664    121.49946   -4760.1645 
 1010400     655.2319    -4888.367    119.75925   -4768.6077 
 1010600    643.78199   -4885.4774    117.66651   -4767.8109 
 1010800     677.6882    -4879.746    123.86368   -4755.8823 
 1011000    625.66501   -4884.3311     114.3552   -4769.9758 
 1011200    678.46216   -4892.7639    124.00514   -4768.7588 
 1011400    685.54557    -4884.624     125.2998   -4759.3242 
 1011600    638.04779     -4885.97    116.61845   -4769.3516 
 1011800    653.88581   -4884.4423    119.51322   -4764.9291 
 1012000    671.47722   -4885.8074    122.72847   -4763.0789 
 1012200    663.18233   -4886.1434    121.21238    -4764.931 
 1012400    647.26918   -4883.2748    118.30388   -4764.9709 
 1012600    657.28814   -4886.5067    120.13508   -4766.3716 
 1012800    647.10555   -4888.2343    118.27397   -4769.9604 
 1013000    669.21134   -4883.0012    122.31433   -4760.6869 
 1013200    676.50138   -4883.1483    123.64676   -4759.5015 
 1013400    630.20773    -4887.568    115.18549   -4772.3825 
 1013600    661.40543   -4887.3335    120.88761   -4766.4459 
 1013800     686.4027   -4884.3677    125.45646   -4758.9113 
 1014000    644.00742   -4886.9108    117.70771   -4769.2031 
 1014200      659.462   -4885.8653    120.53241   -4765.3329 
 1014400    676.20572   -4884.3981    123.59272   -4760.8054 
 1014600    645.61012   -4883.1647    118.00064    -4765.164 
 1014800    658.36997    -4886.711    120.33281   -4766.3782 
 1015000    665.45769    -4888.789    121.62826   -4767.1607 
 1015200    642.02988   -4889.2584    117.34627   -4771.9122 
 1015400     664.2019   -4885.9753    121.39873   -4764.5766 
 1015600     665.2069   -4881.4664    121.58242    -4759.884 
 1015800    635.29697   -4886.7964    116.11567   -4770.6808 
 1016000    659.79497    -4886.064    120.59326   -4765.4707 
 1016200    669.93691     -4882.24    122.44694    -4759.793 
 1016400    646.35632   -4888.9437    118.13703   -4770.8067 
 1016600    658.94329   -4886.8591     120.4376   -4766.4215 
 1016800    650.20113   -4882.4575    118.83976   -4763.6178 
 1017000    647.94843   -4887.3431    118.42803    -4768.915 
 1017200    662.91799    -4884.269    121.16407    -4763.105 
 1017400    646.50273   -4885.6471    118.16379   -4767.4833 
 1017600    677.11516     -4894.13    123.75894    -4770.371 
 1017800    655.04024   -4882.4506    119.72422   -4762.7264 
 1018000    654.42348     -4884.67     119.6115   -4765.0585 
 1018200    629.42619   -4884.8585    115.04265   -4769.8158 
 1018400     656.8049   -4883.6503    120.04676   -4763.6035 
 1018600    678.96426   -4885.6835    124.09691   -4761.5866 
 1018800     638.5869   -4883.6784    116.71698   -4766.9614 
 1019000     688.6592   -4887.5324    125.86889   -4761.6635 
 1019200    640.81159   -4884.4113     117.1236   -4767.2877 
 1019400     659.4789   -4883.8647    120.53549   -4763.3292 
 1019600    646.49778   -4879.4424    118.16289   -4761.2795 
 1019800    655.58639   -4886.4308    119.82404   -4766.6067 
 1020000    665.41038   -4889.4527    121.61961   -4767.8331 
 1020200    637.44739   -4885.1294    116.50871   -4768.6207 
 1020400    655.36616   -4883.9383    119.78379   -4764.1545 
 1020600    655.77452   -4885.5144    119.85843    -4765.656 
 1020800    647.10774   -4884.4415    118.27437   -4766.1671 
 1021000    637.57449   -4881.6622    116.53194   -4765.1303 
 1021200    640.44174   -4882.7193      117.056   -4765.6633 
 1021400    657.13329    -4879.126    120.10678   -4759.0193 
 1021600     647.3353   -4881.7091    118.31596   -4763.3931 
 1021800     633.4391   -4887.2361     115.7761     -4771.46 
 1022000    671.90661   -4884.1519    122.80695   -4761.3449 
 1022200    667.81589   -4884.5072    122.05928   -4762.4479 
 1022400    648.03779   -4886.6802    118.44436   -4768.2359 
 1022600    645.47837   -4879.5636    117.97656   -4761.5871 
 1022800    669.94446   -4881.0441    122.44833   -4758.5957 
 1023000    642.23631   -4884.9706      117.384   -4767.5866 
 1023200     646.3118   -4885.8033    118.12889   -4767.6744 
 1023400    644.58306   -4879.1869    117.81293    -4761.374 
 1023600    664.04354   -4885.1911    121.36979   -4763.8213 
 1023800    678.65674   -4887.6156     124.0407   -4763.5749 
 1024000     682.7149   -4887.6017    124.78243   -4762.8192 
 1024200    644.20062   -4884.3038    117.74302   -4766.5608 
 1024400    662.58489   -4886.5881    121.10319   -4765.4849 
 1024600    674.41324    -4889.453     123.2651   -4766.1879 
 1024800    643.99349   -4885.1504    117.70517   -4767.4452 
 1025000    682.09542   -4885.8847     124.6692   -4761.2155 
 1025200    642.48205   -4884.9941    117.42891   -4767.5651 
 1025400    674.81872   -4889.2549    123.33921   -4765.9157 
 1025600     677.1998   -4886.7415    123.77441   -4762.9671 
 1025800    627.71827   -4883.5676    114.73048   -4768.8371 
 1026000    684.92678   -4887.9812     125.1867   -4762.7945 
 1026200    659.09284   -4881.1545    120.46493   -4760.6895 
 1026400    647.21941      -4887.9    118.29478   -4769.6052 
 1026600    658.56505   -4885.9209    120.36847   -4765.5524 
 1026800    653.98973   -4882.5636    119.53222   -4763.0314 
 1027000    659.47499   -4886.4685    120.53478   -4765.9338 
 1027200    659.30831    -4884.502    120.50431   -4763.9977 
 1027400    685.63781   -4892.5211    125.31666   -4767.2044 
 1027600    667.95543   -4891.1187    122.08478   -4769.0339 
 1027800     668.3055   -4881.6482    122.14877   -4759.4995 
 1028000    660.45758   -4885.3609    120.71437   -4764.6465 
 1028200    647.65167   -4889.9363    118.37379   -4771.5625 
 1028400    659.61584   -4885.1696    120.56052   -4764.6091 
 1028600    669.52101   -4882.1218    122.37093   -4759.7509 
 1028800    661.30651   -4886.8357    120.86953   -4765.9662 
 1029000    650.88152   -4887.6936    118.96412   -4768.7294 
 1029200    657.32581   -4885.9759    120.14197   -4765.8339 
 1029400    654.43526   -4883.9316    119.61365    -4764.318 
 1029600    679.51768   -4885.9455    124.19806   -4761.7475 
 1029800    669.22829   -4888.3988    122.31743   -4766.0814 
 1030000    663.51453   -4889.3253     121.2731   -4768.0522 
 1030200    653.88647    -4880.638    119.51334   -4761.1247 
 1030400    664.91236   -4883.7752    121.52859   -4762.2466 
 1030600    655.64369   -4890.4502    119.83452   -4770.6157 
 1030800    672.13957   -4887.6926    122.84953   -4764.8431 
 1031000    665.20112   -4880.2093    121.58137   -4758.6279 
 1031200     667.2966   -4885.6069    121.96437   -4763.6425 
 1031400    646.99904    -4885.201     118.2545   -4766.9465 
 1031600    676.65634   -4889.4965    123.67508   -4765.8214 
 1031800     633.4994   -4881.5231    115.78712    -4765.736 
 1032000    678.63373   -4883.2246     124.0365   -4759.1881 
 1032200    664.77832   -4885.1963    121.50409   -4763.6923 
 1032400    652.88491   -4885.6696    119.33029   -4766.3394 
 1032600    672.72876   -4881.1791    122.95722   -4758.2219 
 1032800    646.11163   -4881.4224    118.09231   -4763.3301 
 1033000     646.0562   -4884.9751    118.08218    -4766.893 
 1033200    662.61841   -4882.5262    121.10931   -4761.4169 
 1033400    656.25917   -4880.9904    119.94701   -4761.0434 
 1033600    668.23651   -4883.2326    122.13616   -4761.0965 
 1033800     652.5897   -4882.0996    119.27633   -4762.8233 
 1034000    684.73945   -4887.5626    125.15246   -4762.4102 
 1034200    674.08668   -4884.1827    123.20541   -4760.9772 
 1034400    662.58336   -4884.3085    121.10291   -4763.2056 
 1034600    647.91155   -4882.4617    118.42129   -4764.0405 
 1034800    671.83334   -4884.2186    122.79356    -4761.425 
 1035000    656.85925    -4880.393    120.05669   -4760.3363 
 1035200    670.60395   -4885.9741    122.56886   -4763.4052 
 1035400    677.40435   -4888.7324     123.8118   -4764.9206 
 1035600    664.36004   -4883.2865    121.42764   -4761.8588 
 1035800    660.14731   -4883.3103    120.65766   -4762.6526 
 1036000    655.77467   -4884.3841    119.85846   -4764.5257 
 1036200    668.71352   -4884.4244    122.22334   -4762.2011 
 1036400    668.78422   -4885.4889    122.23626   -4763.2526 
 1036600    653.46786   -4885.1615    119.43683   -4765.7246 
 1036800    671.22569   -4880.4906     122.6825   -4757.8081 
 1037000    643.42138   -4882.0865     117.6006   -4764.4859 
 1037200    656.28268   -4889.2885    119.95131   -4769.3372 
 1037400     671.9287   -4885.4387    122.81099   -4762.6277 
 1037600    674.30423   -4884.5753    123.24518   -4761.3302 
 1037800    671.26324   -4888.9929    122.68936   -4766.3035 
 1038000    670.60149   -4894.8109    122.56841   -4772.2425 
 1038200    664.10437   -4886.1349    121.38091    -4764.754 
 1038400    687.49402   -4882.4894    125.65593   -4756.8334 
 1038600    647.49081   -4882.8022    118.34438   -4764.4578 
 1038800    641.27843   -4881.7037    117.20892   -4764.4948 
 1039000    665.97022   -4884.5738    121.72194   -4762.8519 
 1039200    658.57166   -4882.7426    120.36967   -4762.3729 
 1039400    654.93574   -4878.0467    119.70512   -4758.3416 
 1039600    670.86771   -4889.5386    122.61707   -4766.9215 
 1039800    644.30746   -4886.4488    117.76255   -4768.6862 
 1040000    674.66059    -4877.954    123.31031   -4754.6437 
 1040200     653.6947   -4880.6348    119.47829   -4761.1565 
 1040400    644.06664   -4884.3301    117.71854   -4766.6115 
 1040600    700.88526   -4886.5515    128.10349    -4758.448 
 1040800    667.71305   -4887.2459    122.04048   -4765.2054 
 1041000    641.45139   -4883.8115    117.24054    -4766.571 
 1041200    679.79345   -4880.9485    124.24846      -4756.7 
 1041400    668.60694   -4887.8671    122.20386   -4765.6632 
 1041600    667.55029   -4889.9894    122.01073   -4767.9787 
 1041800    677.90478    -4881.656    123.90326   -4757.7528 
 1042000    665.51713   -4885.8675    121.63912   -4764.2284 
 1042200    669.07726   -4890.4869    122.28982   -4768.1971 
 1042400    679.92794   -4887.7849    124.27304   -4763.5119 
 1042600    677.95647   -4883.5043    123.91271   -4759.5916 
 1042800    649.85312   -4882.7101    118.77615   -4763.9339 
 1043000    663.86846   -4885.3786    121.33779   -4764.0408 
 1043200    667.96124    -4878.969    122.08584   -4756.8831 
 1043400    657.71299   -4880.6381    120.21273   -4760.4254 
 1043600    666.26298   -4884.0591    121.77545   -4762.2837 
 1043800     655.1696   -4881.5169    119.74787   -4761.7691 
 1044000     660.0668   -4883.5224    120.64295   -4762.8795 
 1044200      674.373   -4883.1516    123.25775   -4759.8939 
 1044400    656.61252   -4881.4422    120.01159   -4761.4306 
 1044600    662.28571   -4883.5204    121.04851   -4762.4719 
 1044800     650.2077   -4883.4714    118.84096   -4764.6304 
 1045000    656.00779   -4883.2069    119.90107   -4763.3059 
 1045200    675.40618   -4883.2806    123.44659    -4759.834 
 1045400     670.0399    -4884.123    122.46577   -4761.6573 
 1045600     675.7852   -4889.3489    123.51586    -4765.833 
 1045800    681.13281    -4887.924    124.49326   -4763.4308 
 1046000    690.95936   -4883.6532     126.2893   -4757.3639 
 1046200     660.1233   -4883.5287    120.65327   -4762.8754 
 1046400    686.86259   -4886.6722    125.54052   -4761.1317 
 1046600    661.51481   -4884.4209    120.90761   -4763.5133 
 1046800    646.43778   -4884.8197    118.15192   -4766.6677 
 1047000    687.50078   -4879.0731    125.65716    -4753.416 
 1047200    656.21818   -4877.6246    119.93952   -4757.6851 
 1047400    664.03878   -4887.7868    121.36892   -4766.4179 
 1047600    672.90811   -4883.6072       122.99   -4760.6172 
 1047800    663.18335   -4882.8428    121.21257   -4761.6302 
 1048000    662.56259   -4881.6023    121.09911   -4760.5032 
 1048200    686.80551   -4883.1602    125.53008   -4757.6301 
 1048400     655.4731   -4882.8936    119.80334   -4763.0902 
 1048600    654.87422   -4885.8578    119.69388    -4766.164 
 1048800    671.78528   -4879.0485    122.78478   -4756.2637 
 1049000    678.68543   -4882.9341    124.04595   -4758.8881 
 1049200     660.9898   -4887.3427    120.81165    -4766.531 
 1049400    696.62899   -4883.5108    127.32556   -4756.1853 
 1049600    664.47419   -4883.0488     121.4485   -4761.6003 
 1049800    666.17807   -4888.0719    121.75993   -4766.3119 
 1050000    695.66157   -4883.6528    127.14874   -4756.5041 
 1050200    663.17657   -4887.6095    121.21133   -4766.3982 
 1050400    668.70448   -4887.9415    122.22169   -4765.7198 
 1050600    678.16425   -4883.4159    123.95069   -4759.4652 
 1050800    653.53123   -4882.0901    119.44842   -4762.6417 
 1051000    663.26696   -4884.9743    121.22785   -4763.7465 
 1051200    685.17183    -4883.023    125.23149   -4757.7916 
 1051400    659.27082   -4884.1252    120.49746   -4763.6278 
 1051600    685.69783   -4884.3516    125.32763    -4759.024 
 1051800    672.92835   -4879.5179     122.9937   -4756.5242 
 1052000    671.90245   -4889.3593    122.80619   -4766.5531 
 1052200     653.7763   -4883.6854    119.49321   -4764.1921 
 1052400    681.38707   -4876.3865    124.53973   -4751.8467 
 1052600    648.79452   -4881.9176    118.58267   -4763.3349 
 1052800    662.95031   -4883.4345    121.16998   -4762.2645 
 1053000    683.89276    -4879.605    124.99771   -4754.6073 
 1053200    663.59666   -4880.8964    121.28811   -4759.6083 
 1053400      664.201   -4883.9619    121.39857   -4762.5633 
 1053600    670.18142   -4882.8776    122.49164   -4760.3859 
 1053800    656.43414   -4878.0007    119.97899   -4758.0217 
 1054000    673.08612   -4878.3185    123.02254    -4755.296 
 1054200    664.73968   -4882.1366    121.49703   -4760.6396 
 1054400    673.91322    -4884.918    123.17371   -4761.7443 
 1054600    687.25556   -4881.7859    125.61234   -4756.1735 
 1054800    682.60279   -4884.3484    124.76194   -4759.5864 
 1055000    663.69634   -4886.4335    121.30633   -4765.1271 
 1055200    660.29428   -4885.5278    120.68453   -4764.8433 
 1055400     675.4004   -4880.2503    123.44553   -4756.8047 
 1055600     684.0943   -4884.0884    125.03455   -4759.0539 
 1055800    672.73704   -4885.0299    122.95874   -4762.0711 
 1056000    682.38142   -4882.3432    124.72148   -4757.6218 
 1056200    655.34484   -4884.0934     119.7799   -4764.3135 
 1056400     668.1249   -4880.0087    122.11576   -4757.8929 
 1056600    674.58547   -4877.2784    123.29658   -4753.9818 
 1056800    667.07196   -4884.1402    121.92331   -4762.2169 
 1057000    674.13797   -4883.9879    123.21479   -4760.7731 
 1057200    682.85049   -4878.8407    124.80721   -4754.0335 
 1057400    678.13323   -4884.8915    123.94502   -4760.9465 
 1057600     684.5325   -4888.7935    125.11464   -4763.6788 
 1057800    681.41208   -4884.6186    124.54431   -4760.0743 
 1058000    662.92361   -4882.2773     121.1651   -4761.1122 
 1058200    685.79087   -4882.1813    125.34463   -4756.8367 
 1058400    676.45993   -4876.8464    123.63918   -4753.2073 
 1058600     652.3664   -4884.4462    119.23552   -4765.2106 
 1058800    653.72407   -4884.0435    119.48366   -4764.5599 
 1059000    697.90576   -4879.7029    127.55892   -4752.1439 
 1059200    650.60064   -4880.9966    118.91278   -4762.0839 
 1059400    668.61784   -4882.1577    122.20585   -4759.9518 
 1059600    678.48275   -4878.3144     124.0089   -4754.3055 
 1059800    649.78939   -4880.3317    118.76451   -4761.5672 
 1060000     670.4817   -4882.6355    122.54652    -4760.089 
 1060200    700.37805   -4884.7836    128.01079   -4756.7728 
 1060400    663.51529   -4884.5237    121.27324   -4763.2505 
 1060600    674.58936   -4881.9426    123.29729   -4758.6453 
 1060800    678.81263   -4881.2994    124.06919   -4757.2302 
 1061000    659.84991   -4882.0681     120.6033   -4761.4648 
 1061200    684.12562   -4883.3487    125.04027   -4758.3084 
 1061400    667.02918    -4881.396    121.91549   -4759.4805 
 1061600    649.40726   -4883.6464    118.69466   -4764.9517 
 1061800    683.60458   -4879.2051    124.94504     -4754.26 
 1062000    682.30528   -4881.2603    124.70756   -4756.5527 
 1062200    662.34369   -4883.1047     121.0591   -4762.0456 
 1062400    679.90423   -4879.5776    124.26871   -4755.3089 
 1062600    641.32187   -4878.3705    117.21686   -4761.1536 
 1062800    641.75331   -4878.8354    117.29572   -4761.5397 
 1063000    663.29065   -4881.3379    121.23218   -4760.1057 
 1063200    673.05658   -4883.9429    123.01714   -4760.9258 
 1063400    670.22214   -4877.8782    122.49908   -4755.3791 
 1063600    670.45532   -4887.4398     122.5417   -4764.8981 
 1063800     674.3012   -4886.1327    123.24462   -4762.8881 
 1064000    683.28116   -4877.6719    124.88592    -4752.786 
 1064200    667.54691   -4878.8645    122.01012   -4756.8544 
 1064400     668.7613   -4881.3753    122.23207   -4759.1432 
 1064600    658.02111   -4881.4391    120.26905   -4761.1701 
 1064800    675.29984   -4886.2024    123.42715   -4762.7753 
 1065000    684.20579   -4880.7096    125.05492   -4755.6547 
 1065200    683.69365   -4884.2242    124.96132   -4759.2629 
 1065400    654.77286   -4885.3123    119.67535   -4765.6369 
 1065600    685.37231   -4881.8732    125.26813   -4756.6051 
 1065800       684.12   -4883.3387    125.03924   -4758.2995 
 1066000    646.21117   -4887.8278     118.1105   -4769.7173 
 1066200    674.03485   -4887.2066    123.19594   -4764.0106 
 1066400     691.1296   -4880.8636    126.32041   -4754.5432 
 1066600     660.7275   -4880.3678    120.76371   -4759.6041 
 1066800    653.92818   -4880.8516    119.52097   -4761.3306 
 1067000    661.42544   -4882.7337    120.89127   -4761.8425 
 1067200    660.16294   -4881.2254    120.66052   -4760.5649 
 1067400    671.11425   -4881.0513    122.66213   -4758.3891 
 1067600    665.23174   -4882.3849    121.58696   -4760.7979 
 1067800    690.94946    -4887.265    126.28749   -4760.9775 
 1068000    672.35808    -4886.423    122.88947   -4763.5335 
 1068200    683.25749   -4882.8974     124.8816   -4758.0158 
 1068400    683.13602   -4882.9387     124.8594   -4758.0793 
 1068600    676.65546    -4885.528    123.67492   -4761.8531 
 1068800    668.40775   -4884.6428    122.16746   -4762.4753 
 1069000       688.35   -4887.7798    125.81238   -4761.9674 
 1069200    673.94433   -4885.8194     123.1794     -4762.64 
 1069400    674.02297   -4880.8047    123.19377   -4757.6109 
 1069600    681.22841   -4883.3457    124.51074    -4758.835 
 1069800    656.87251   -4881.5392    120.05911     -4761.48 
 1070000    683.80725   -4883.5644    124.98208   -4758.5823 
 1070200     667.9881   -4884.4002    122.09075   -4762.3094 
 1070400    663.66512    -4883.047    121.30063   -4761.7464 
 1070600    681.45869   -4880.8605    124.55283   -4756.3077 
 1070800    661.09808   -4882.9878    120.83144   -4762.1564 
 1071000    669.49614   -4885.2113    122.36638   -4762.8449 
 1071200    696.99414   -4882.1545     127.3923   -4754.7622 
 1071400     661.8595   -4879.2868    120.97061   -4758.3162 
 1071600    666.58953   -4884.1745    121.83513   -4762.3394 
 1071800    697.02939   -4882.8743    127.39874   -4755.4756 
 1072000    667.87181   -4886.0467     122.0695   -4763.9772 
 1072200    672.12838   -4883.8518    122.84749   -4761.0043 
 1072400    701.83117   -4881.9284    128.27638    -4753.652 
 1072600     680.7644   -4885.2605    124.42593   -4760.8346 
 1072800    690.84144   -4887.6463    126.26775   -4761.3785 
 1073000    687.81151   -4884.1102    125.71395   -4758.3963 
 1073200    666.17245   -4880.9159     121.7589    -4759.157 
 1073400    676.98855   -4881.3336     123.7358   -4757.5978 
 1073600    687.28811   -4888.0637    125.61829   -4762.4455 
 1073800    692.91324   -4889.1519    126.64642   -4762.5055 
 1074000    678.10563   -4882.9341    123.93997   -4758.9942 
 1074200    695.68079   -4883.5201    127.15225   -4756.3678 
 1074400    672.47453   -4884.0391    122.91076   -4761.1284 
 1074600    683.64926   -4889.1435     124.9532   -4764.1903 
 1074800    678.12406    -4882.718    123.94334   -4758.7747 
 1075000    681.90766   -4880.0694    124.63488   -4755.4345 
 1075200    679.15708   -4886.8832    124.13215   -4762.7511 
 1075400    675.68593   -4886.5356    123.49772   -4763.0379 
 1075600    673.56248   -4881.4312     123.1096   -4758.3216 
 1075800    669.56879   -4881.1092    122.37966   -4758.7295 
 1076000    677.61914    -4882.571    123.85106   -4758.7199 
 1076200    685.60568   -4886.7083    125.31079   -4761.3975 
 1076400    653.13353   -4884.8697    119.37573    -4765.494 
 1076600    679.60238   -4878.1086    124.21354    -4753.895 
 1076800    701.65095   -4878.9152    128.24344   -4750.6718 
 1077000    639.34834   -4886.9639    116.85615   -4770.1077 
 1077200    684.34494   -4888.9025    125.08036   -4763.8221 
 1077400    703.43149   -4881.0465    128.56888   -4752.4776 
 1077600    668.13233   -4882.3507    122.11711   -4760.2336 
 1077800    683.60875   -4888.9191     124.9458   -4763.9733 
 1078000    685.66254   -4886.5431    125.32118   -4761.2219 
 1078200    669.06207   -4879.7917    122.28705   -4757.5047 
 1078400    695.32881   -4882.2255    127.08792   -4755.1376 
 1078600    669.56399   -4886.6942    122.37879   -4764.3154 
 1078800    691.14864   -4889.6864    126.32389   -4763.3625 
 1079000    683.64306   -4880.4435    124.95207   -4755.4914 
 1079200    683.70393   -4880.6596     124.9632   -4755.6964 
 1079400    664.72166   -4879.6871    121.49373   -4758.1934 
 1079600    674.79781   -4883.5519    123.33539   -4760.2165 
 1079800    684.75347   -4881.0365    125.15502   -4755.8815 
 1080000    702.83771   -4884.0237    128.46035   -4755.5634 
 1080200    652.59628   -4887.9923    119.27753   -4768.7148 
 1080400    688.55094   -4880.2949     125.8491   -4754.4458 
 1080600     678.9543    -4881.082    124.09509   -4756.9869 
 1080800    652.88514   -4884.6797    119.33033   -4765.3494 
 1081000    693.34135   -4881.7815    126.72466   -4755.0569 
 1081200    695.88656   -4885.2313    127.18986   -4758.0414 
 1081400    664.80462    -4886.327     121.5089   -4764.8181 
 1081600    701.45937   -4881.8831    128.20843   -4753.6747 
 1081800    669.48772   -4885.0992    122.36484   -4762.7344 
 1082000    669.90137   -4882.8503    122.44045   -4760.4098 
 1082200    709.21996   -4878.5542    129.62686   -4748.9274 
 1082400    654.51433   -4886.4381     119.6281     -4766.81 
 1082600     662.8476   -4882.9802     121.1512    -4761.829 
 1082800    695.23312   -4868.8692    127.07043   -4741.7988 
 1083000    665.73333   -4886.2232    121.67864   -4764.5446 
 1083200     663.3888   -4888.7038    121.25012   -4767.4537 
 1083400    696.14711   -4880.3696    127.23748   -4753.1321 
 1083600    663.25605   -4877.4874    121.22586   -4756.2615 
 1083800    671.24843   -4884.3306    122.68666    -4761.644 
 1084000    685.14318   -4884.9562    125.22625   -4759.7299 
 1084200    664.18075    -4882.403    121.39487   -4761.0081 
 1084400    680.29682   -4879.7605    124.34047   -4755.4201 
 1084600    674.53391   -4881.2869    123.28716   -4757.9997 
 1084800    664.12806   -4886.9547    121.38524   -4765.5694 
 1085000     674.8433   -4881.2234    123.34371   -4757.8797 
 1085200    685.19619   -4877.3109    125.23594    -4752.075 
 1085400    655.10224   -4883.9534    119.73556   -4764.2178 
 1085600    668.60214   -4883.1016    122.20298   -4760.8986 
 1085800    687.32839   -4883.8462    125.62565   -4758.2206 
 1086000    659.26363   -4881.0603    120.49615   -4760.5641 
 1086200    693.25954    -4881.703    126.70971   -4754.9933 
 1086400    682.25921   -4888.2264    124.69914   -4763.5273 
 1086600     656.3349   -4886.5511    119.96085   -4766.5903 
 1086800    711.84873   -4881.0037    130.10733   -4750.8964 
 1087000    669.53161   -4879.1374    122.37287   -4756.7645 
 1087200    672.79197   -4885.9533    122.96878   -4762.9845 
 1087400    678.28688    -4880.645     123.9731   -4756.6719 
 1087600    664.21895   -4881.1498    121.40185   -4759.7479 
 1087800    662.49689   -4879.8946     121.0871   -4758.8075 
 1088000     661.9951   -4875.9641    120.99539   -4754.9687 
 1088200    681.59974   -4881.2746     124.5786    -4756.696 
 1088400     675.1763   -4882.2206    123.40457   -4758.8161 
 1088600     694.9232   -4881.0815    127.01378   -4754.0678 
 1088800     701.0284   -4886.3407    128.12966    -4758.211 
 1089000    656.75615   -4883.3407    120.03785   -4763.3029 
 1089200    705.63471   -4882.2405    128.97157   -4753.2689 
 1089400    695.59583   -4884.6352    127.13672   -4757.4985 
 1089600     657.5783   -4881.0746    120.18811   -4760.8865 
 1089800    706.73777   -4880.5205    129.17318   -4751.3473 
 1090000    691.90936   -4883.8558    126.46293   -4757.3928 
 1090200     652.7623   -4882.8978    119.30788   -4763.5899 
 1090400    689.74197   -4882.7977    126.06679   -4756.7309 
 1090600    675.68216   -4881.4216    123.49703   -4757.9246 
 1090800    683.95912   -4881.6244    125.00984   -4756.6146 
 1091000     702.8907   -4885.1275    128.47003   -4756.6575 
 1091200     672.1097    -4883.596    122.84407   -4760.7519 
 1091400    697.07857   -4882.3418    127.40773   -4754.9341 
 1091600    688.51322   -4880.4085    125.84221   -4754.5663 
 1091800    670.29936   -4888.5979    122.51319   -4766.0847 
 1092000    695.03349    -4885.388    127.03394    -4758.354 
 1092200    713.88862   -4876.5686    130.48017   -4746.0884 
 1092400    662.92862   -4879.3491    121.16601    -4758.183 
 1092600    680.11589   -4883.0177     124.3074   -4758.7103 
 1092800    698.19922   -4882.3894    127.61256   -4754.7768 
 1093000    667.71928   -4886.8663    122.04162   -4764.8246 
 1093200    684.33001   -4884.2154    125.07763   -4759.1378 
 1093400    701.84067    -4879.011    128.27812   -4750.7329 
 1093600    676.22214   -4882.1902    123.59572   -4758.5945 
 1093800    676.00713   -4885.8314    123.55642    -4762.275 
 1094000    693.42093   -4884.6601    126.73921   -4757.9209 
 1094200    681.85239   -4879.7109    124.62478   -4755.0861 
 1094400    675.84891   -4882.1086     123.5275   -4758.5811 
 1094600    674.31993   -4884.9876    123.24805   -4761.7395 
 1094800    694.57464   -4883.3844    126.95008   -4756.4343 
 1095000    673.61828   -4879.3145     123.1198   -4756.1947 
 1095200    680.80395   -4886.0153    124.43316   -4761.5822 
 1095400    688.58801    -4883.843    125.85588   -4757.9872 
 1095600    693.96577   -4884.1095    126.83879   -4757.2708 
 1095800    662.42847   -4881.1383     121.0746   -4760.0637 
 1096000    690.57863   -4882.2914    126.21971   -4756.0717 
 1096200    683.71396   -4887.2016    124.96503   -4762.2365 
 1096400    672.29631   -4881.1137    122.87818   -4758.2355 
 1096600    701.24994   -4881.6178    128.17015   -4753.4476 
 1096800    673.31096   -4888.6889    123.06363   -4765.6253 
 1097000    679.20885   -4886.0291    124.14161   -4761.8875 
 1097200    688.00281   -4880.8104    125.74892   -4755.0615 
 1097400    668.68447   -4883.5224    122.21803   -4761.3043 
 1097600    686.72276   -4875.9037    125.51496   -4750.3888 
 1097800    683.82075   -4878.7731    124.98455   -4753.7885 
 1098000    656.56678   -4886.1192    120.00323    -4766.116 
 1098200    692.70195   -4878.8537     126.6078   -4752.2459 
 1098400    698.01211   -4879.7963    127.57836   -4752.2179 
 1098600    674.42607   -4888.7453    123.26745   -4765.4778 
 1098800    691.71871   -4883.0502    126.42809   -4756.6221 
 1099000    709.46325   -4882.0822    129.67133   -4752.4109 
 1099200     678.5886   -4881.0715    124.02825   -4757.0433 
 1099400    678.33131   -4883.7932    123.98122    -4759.812 
 1099600    676.37872   -4883.9092    123.62434   -4760.2848 
 1099800    684.57294   -4879.1715    125.12203   -4754.0495 
 1100000    698.54162   -4877.4105    127.67514   -4749.7354 
 1100200    656.66722   -4880.7211    120.02159   -4760.6995 
 1100400    673.83019   -4887.7356    123.15853   -4764.5771 
 1100600    705.98688   -4878.7657    129.03594   -4749.7298 
 1100800    687.58072   -4880.1052    125.67177   -4754.4335 
 1101000    648.25169   -4884.7021    118.48345   -4766.2187 
 1101200    693.36983   -4882.3677    126.72987   -4755.6378 
 1101400    683.28792   -4882.0639    124.88716   -4757.1768 
 1101600    672.28742   -4878.6918    122.87656   -4755.8153 
 1101800    704.25605   -4881.1035    128.71959   -4752.3839 
 1102000    679.52301   -4888.3403    124.19903   -4764.1413 
 1102200    692.93849   -4881.0462    126.65103   -4754.3952 
 1102400    681.37942   -4879.8106    124.53834   -4755.2723 
 1102600    635.55856   -4882.5572    116.16348   -4766.3937 
 1102800    719.45579   -4879.8587     131.4977    -4748.361 
 1103000    712.50609   -4879.4804    130.22748   -4749.2529 
 1103200    657.71381   -4886.7207    120.21288   -4766.5078 
 1103400    696.21833   -4885.1058     127.2505   -4757.8553 
 1103600    675.75392   -4877.7463    123.51014   -4754.2362 
 1103800    677.34004   -4882.3864    123.80004   -4758.5864 
 1104000    688.64647   -4883.1659    125.86656   -4757.2994 
 1104200    694.70826   -4886.0054     126.9745   -4759.0309 
 1104400    666.69338   -4878.3836    121.85411   -4756.5295 
 1104600    688.37668    -4880.102    125.81725   -4754.2847 
 1104800    705.86015   -4891.1711    129.01277   -4762.1583 
 1105000    696.83634   -4887.9193    127.36346   -4760.5559 
 1105200    699.08876   -4879.6721    127.77514   -4751.8969 
 1105400     694.1272   -4882.1452     126.8683   -4755.2769 
 1105600    690.31648   -4885.5339     126.1718   -4759.3621 
 1105800    684.85652   -4885.2039    125.17386     -4760.03 
 1106000    695.61891   -4882.9633    127.14094   -4755.8223 
 1106200    681.74096   -4877.3176    124.60442   -4752.7132 
 1106400     674.7782   -4885.0594    123.33181   -4761.7276 
 1106600    680.20443   -4884.5641    124.32358   -4760.2405 
 1106800    693.95809   -4875.1851    126.83739   -4748.3477 
 1107000    682.94389   -4880.3622    124.82428   -4755.5379 
 1107200    679.49828   -4885.0063    124.19451   -4760.8117 
 1107400    724.53422   -4886.7186     132.4259   -4754.2927 
 1107600    703.70438   -4883.4348    128.61875    -4754.816 
 1107800    698.40443   -4881.3496    127.65006   -4753.6996 
 1108000     672.6832   -4880.0114    122.94889   -4757.0625 
 1108200    661.89835   -4876.7198    120.97771   -4755.7421 
 1108400    680.34997   -4878.1917    124.35018   -4753.8415 
 1108600    703.44189   -4880.5991    128.57078   -4752.0283 
 1108800    670.73624   -4882.7493    122.59304   -4760.1562 
 1109000    710.14513   -4882.8398    129.79596   -4753.0439 
 1109200    690.11519   -4874.9677    126.13501   -4748.8327 
 1109400    666.35729   -4879.2922    121.79268   -4757.4995 
 1109600    664.65284   -4880.7847    121.48116   -4759.3036 
 1109800    694.55671    -4879.916     126.9468   -4752.9692 
 1110000    689.59145    -4879.128    126.03928   -4753.0887 
 1110200    679.22676   -4882.3999    124.14489    -4758.255 
 1110400    693.96199   -4881.3755     126.8381   -4754.5374 
 1110600    698.47171   -4882.3335    127.66236   -4754.6712 
 1110800    691.28255   -4883.5928    126.34837   -4757.2444 
 1111000    686.14037   -4876.9462    125.40851   -4751.5377 
 1111200    696.14594   -4882.8907    127.23727   -4755.6535 
 1111400    701.05871   -4883.2601     128.1352   -4755.1249 
 1111600    681.98271   -4880.8395     124.6486   -4756.1909 
 1111800    712.48341   -4883.7775    130.22333   -4753.5542 
 1112000    701.91592   -4882.4522    128.29187   -4754.1603 
 1112200    683.84521    -4883.506    124.98902    -4758.517 
 1112400    688.74006   -4877.1083    125.88367   -4751.2247 
 1112600    712.54601   -4880.9144    130.23477   -4750.6796 
 1112800     692.4714   -4887.2661    126.56566   -4760.7004 
 1113000    692.95028   -4884.7725    126.65319   -4758.1193 
 1113200    715.50497   -4882.3846    130.77559    -4751.609 
 1113400    687.59979   -4882.4556    125.67526   -4756.7803 
 1113600    683.37791   -4881.2771    124.90361   -4756.3735 
 1113800    683.87161   -4878.1141    124.99384   -4753.1203 
 1114000    679.78232    -4877.967    124.24643   -4753.7206 
 1114200    689.89476    -4877.755    126.09472   -4751.6603 
 1114400    677.78788   -4877.5801     123.8819   -4753.6982 
 1114600    702.15248   -4883.5428    128.33511   -4755.2077 
 1114800    679.81271   -4882.5485    124.25198   -4758.2965 
 1115000    692.75262   -4880.3466    126.61706   -4753.7295 
 1115200    698.75476   -4877.6354    127.71409   -4749.9213 
 1115400     675.0589   -4882.4486    123.38311   -4759.0655 
 1115600    678.95043   -4882.0793    124.09438   -4757.9849 
 1115800    723.24282   -4877.9288    132.18987    -4745.739 
 1116000    670.10059   -4880.6257    122.47686   -4758.1488 
 1116200    679.58948   -4887.4853    124.21118   -4763.2741 
 1116400    715.04583   -4881.0461    130.69167   -4750.3544 
 1116600     673.6914   -4880.3834    123.13317   -4757.2502 
 1116800    706.84984    -4880.544    129.19366   -4751.3503 
 1117000    682.12713   -4883.2872      124.675   -4758.6122 
 1117200    651.30563   -4882.1532    119.04163   -4763.1116 
 1117400     711.4909   -4879.2211    130.04193   -4749.1791 
 1117600    682.94712   -4880.8434    124.82487   -4756.0185 
 1117800    678.45654   -4884.5181    124.00411    -4760.514 
 1118000    702.23758   -4878.4578    128.35066   -4750.1071 
 1118200    672.47114   -4878.8341    122.91014    -4755.924 
 1118400    684.69202   -4884.7868    125.14379    -4759.643 
 1118600    715.17198   -4884.5927    130.71473    -4753.878 
 1118800    690.59635   -4880.6829    126.22295   -4754.4599 
 1119000    705.72393   -4884.3202    128.98788   -4755.3323 
 1119200    689.97672   -4882.6081     126.1097   -4756.4984 
 1119400     674.7282   -4880.7632    123.32267   -4757.4406 
 1119600    690.38582    -4882.085    126.18447   -4755.9006 
 1119800    701.53281   -4881.1861    128.22185   -4752.9643 
 1120000    673.43907   -4878.1014    123.08705   -4755.0144 
 1120200    685.68662   -4883.6521    125.32558   -4758.3265 
 1120400    689.64109   -4882.7704    126.04835   -4756.7221 
 1120600    692.18079   -4877.5834    126.51254   -4751.0709 
 1120800    680.54512   -4878.3619    124.38585    -4753.976 
 1121000    671.65481   -4885.8738    122.76093   -4763.1129 
 1121200     715.0174   -4882.8704    130.68648   -4752.1839 
 1121400     691.7469   -4877.5359    126.43324   -4751.1027 
 1121600    682.94353   -4882.0028    124.82422   -4757.1785 
 1121800    698.16216   -4881.7174    127.60578   -4754.1116 
 1122000    673.75606   -4881.7567    123.14499   -4758.6117 
 1122200     691.8833   -4880.6452    126.45817   -4754.1871 
 1122400    704.22666    -4879.312    128.71421   -4750.5978 
 1122600    690.24594   -4884.8869     126.1589    -4758.728 
 1122800    669.69646   -4883.6534      122.403   -4761.2504 
 1123000    706.55212   -4879.0812    129.13925   -4749.9419 
 1123200    672.59762   -4882.0625    122.93325   -4759.1293 
 1123400    669.86714   -4882.1947    122.43419   -4759.7605 
 1123600    713.13146   -4876.6053    130.34178   -4746.2635 
 1123800    675.87073   -4881.0057    123.53149   -4757.4742 
 1124000    692.12964   -4883.1754     126.5032   -4756.6722 
 1124200    728.30332   -4879.1431     133.1148   -4746.0283 
 1124400     662.1058    -4882.816    121.01562   -4761.8003 
 1124600    684.32607   -4884.0881    125.07691   -4759.0112 
 1124800    712.97224   -4877.6515    130.31268   -4747.3388 
 1125000    676.21061   -4882.7501    123.59361   -4759.1565 
 1125200     682.8709   -4882.9023    124.81094   -4758.0913 
 1125400    709.32712   -4880.8601    129.64645   -4751.2137 
 1125600    674.11739   -4886.2248    123.21103   -4763.0137 
 1125800    684.60781   -4882.3117     125.1284   -4757.1833 
 1126000    723.29234   -4876.2537    132.19892   -4744.0548 
 1126200    675.22316   -4884.4064    123.41313   -4760.9933 
 1126400    690.86698   -4887.1937    126.27241   -4760.9213 
 1126600    713.48839   -4878.0961    130.40702   -4747.6891 
 1126800    675.81128   -4885.7161    123.52063   -4762.1955 
 1127000     687.7388   -4886.6696    125.70066   -4760.9689 
 1127200    721.08862   -4877.8569    131.79614   -4746.0608 
 1127400    693.03344   -4884.5103    126.66839   -4757.8419 
 1127600    668.77372    -4880.948    122.23435   -4758.7136 
 1127800    713.26268   -4877.3921    130.36576   -4747.0264 
 1128000    671.95313    -4880.036    122.81546   -4757.2206 
 1128200    686.28457   -4880.2479    125.43487    -4754.813 
 1128400    715.78465   -4880.9559    130.82671   -4750.1291 
 1128600    686.21049   -4887.9249    125.42133   -4762.5036 
 1128800    700.37483   -4885.3278     128.0102   -4757.3176 
 1129000    719.61531   -4878.1556    131.52686   -4746.6288 
 1129200    690.82582   -4884.8374    126.26489   -4758.5725 
 1129400    679.38115   -4884.2517    124.17311   -4760.0786 
 1129600    697.66422   -4876.3565    127.51477   -4748.8417 
 1129800    687.60703   -4879.4632    125.67658   -4753.7867 
 1130000    682.52451   -4880.9908    124.74763   -4756.2432 
 1130200    683.78512   -4881.0549    124.97804   -4756.0769 
 1130400    686.59674   -4885.0365    125.49193   -4759.5446 
 1130600    723.16006   -4880.0963    132.17475   -4747.9215 
 1130800    700.74069   -4878.6925    128.07707   -4750.6155 
 1131000    657.34659     -4880.45    120.14576   -4760.3042 
 1131200    707.32672   -4880.1853    129.28082   -4750.9045 
 1131400    699.16773   -4875.1498    127.78957   -4747.3602 
 1131600    684.23845   -4879.0466    125.06089   -4753.9857 
 1131800    705.35546   -4883.3371    128.92053   -4754.4166 
 1132000    677.90491   -4878.0324    123.90329   -4754.1291 
 1132200     696.3975   -4875.4609    127.28325   -4748.1777 
 1132400     691.2072   -4884.2541     126.3346   -4757.9195 
 1132600    682.17161   -4889.4295    124.68313   -4764.7463 
 1132800    710.92615   -4874.7162    129.93871   -4744.7775 
 1133000    705.10785   -4880.2854    128.87527   -4751.4101 
 1133200    664.60544   -4885.8001    121.47249   -4764.3276 
 1133400    719.52667    -4879.585    131.51066   -4748.0744 
 1133600    702.59735   -4882.1557    128.41642   -4753.7393 
 1133800    683.48966   -4882.6831    124.92403   -4757.7591 
 1134000    716.70851   -4878.6977    130.99557   -4747.7021 
 1134200    684.70144   -4876.0315    125.14552   -4750.8859 
 1134400    695.56673   -4881.0359    127.13141   -4753.9045 
 1134600    677.92415   -4881.1626     123.9068   -4757.2558 
 1134800    696.16963   -4879.8799     127.2416   -4752.6383 
 1135000    706.89889   -4878.8205    129.20263   -4749.6178 
 1135200     694.7104   -4884.5657    126.97489   -4757.5908 
 1135400    698.59726   -4884.1968    127.68531   -4756.5115 
 1135600      713.056   -4879.1434    130.32799   -4748.8154 
 1135800    706.28345    -4879.044    129.09014   -4749.9539 
 1136000     687.8934   -4879.8862    125.72892   -4754.1572 
 1136200    669.11116   -4880.8901    122.29602    -4758.594 
 1136400     691.5918   -4877.7953    126.40489   -4751.3904 
 1136600    714.65673   -4881.2646    130.62056   -4750.6441 
 1136800    702.60298   -4885.8049    128.41745   -4757.3875 
 1137000    682.66257   -4880.8398    124.77286   -4756.0669 
 1137200    706.58966   -4878.3992    129.14611   -4749.2531 
 1137400    710.13594   -4882.7149    129.79428   -4752.9206 
 1137600    711.50615    -4888.078    130.04472   -4758.0333 
 1137800    703.60885    -4880.873     128.6013   -4752.2717 
 1138000    692.56368    -4880.609    126.58253   -4754.0265 
 1138200    704.59393   -4885.2813    128.78134   -4756.4999 
 1138400    703.44193   -4879.1019    128.57079   -4750.5311 
 1138600    683.58452   -4880.0924    124.94137    -4755.151 
 1138800    698.50463    -4880.958    127.66838   -4753.2896 
 1139000    694.11742   -4877.3276    126.86651   -4750.4611 
 1139200    699.81059   -4881.6847    127.90707   -4753.7776 
 1139400    711.17888   -4884.1882     129.9849   -4754.2033 
 1139600    696.90262   -4882.8139    127.37557   -4755.4383 
 1139800    695.26833   -4881.1902    127.07687   -4754.1134 
 1140000    717.69639   -4881.9659    131.17613   -4750.7897 
 1140200    680.76513   -4881.5091    124.42606    -4757.083 
 1140400    711.64577   -4881.5033    130.07023   -4751.4331 
 1140600    713.50389   -4882.0208    130.40985   -4751.6109 
 1140800    694.48255   -4882.0833    126.93325     -4755.15 
 1141000    712.04337   -4880.7226     130.1429   -4750.5797 
 1141200    710.08079   -4884.5383     129.7842   -4754.7541 
 1141400    706.13438   -4884.8739     129.0629    -4755.811 
 1141600    734.31312   -4882.2446    134.21323   -4748.0314 
 1141800    696.17733   -4878.9508    127.24301   -4751.7078 
 1142000     705.0288   -4882.2306    128.86082   -4753.3698 
 1142200    690.42846   -4882.0528    126.19226   -4755.8605 
 1142400    694.41607   -4879.4336     126.9211   -4752.5125 
 1142600    728.64271   -4882.2201    133.17683   -4749.0433 
 1142800    684.53866   -4885.1514    125.11576   -4760.0356 
 1143000    708.36011   -4883.0171     129.4697   -4753.5474 
 1143200    711.66632   -4877.0306    130.07399   -4746.9566 
 1143400    683.09807   -4880.1809    124.85246   -4755.3285 
 1143600    690.29087   -4881.9872    126.16712   -4755.8201 
 1143800    701.00895   -4881.3166     128.1261   -4753.1905 
 1144000     705.7173   -4879.8758    128.98666   -4750.8891 
 1144200    704.45778   -4875.8867    128.75646   -4747.1302 
 1144400    711.45983   -4880.0433    130.03625    -4750.007 
 1144600    681.18459   -4887.6977    124.50273    -4763.195 
 1144800    690.80884   -4879.9378    126.26179    -4753.676 
 1145000    734.74582   -4878.6008    134.29232   -4744.3085 
 1145200     687.2141   -4883.3423    125.60476   -4757.7375 
 1145400    691.39963   -4881.6873    126.36977   -4755.3175 
 1145600    729.99699   -4883.3511    133.42436   -4749.9268 
 1145800     683.9724   -4879.3508    125.01227   -4754.3386 
 1146000    710.05839   -4882.8084     129.7801   -4753.0283 
 1146200    686.81042   -4884.5098    125.53098   -4758.9789 
 1146400    709.87866   -4881.1334    129.74725   -4751.3862 
 1146600    720.52116    -4878.499    131.69242   -4746.8066 
 1146800    693.54989   -4882.2251    126.76278   -4755.4623 
 1147000     701.1433   -4883.6879    128.15066   -4755.5372 
 1147200    713.73954   -4879.3277    130.45292   -4748.8748 
 1147400    682.83314   -4877.8467    124.80404   -4753.0427 
 1147600    696.51357   -4879.8396    127.30446   -4752.5352 
 1147800    706.92153   -4879.8578    129.20677   -4750.6511 
 1148000    667.26535   -4881.6262    121.95865   -4759.6675 
 1148200    714.07246   -4878.2251    130.51377   -4747.7113 
 1148400    730.39953   -4877.6518    133.49793   -4744.1538 
 1148600    671.75748   -4883.0308     122.7797   -4760.2511 
 1148800    718.04968   -4880.5885     131.2407   -4749.3478 
 1149000    703.96747   -4876.1772    128.66684   -4747.5104 
 1149200    683.31881   -4880.3818    124.89281    -4755.489 
 1149400    734.48419   -4878.7945     134.2445     -4744.55 
 1149600    708.54367   -4883.0173    129.50325   -4753.5141 
 1149800    663.97799   -4881.2758    121.35781   -4759.9179 
 1150000    712.79775   -4870.7779    130.28078   -4740.4971 
 1150200    704.56561   -4878.5848    128.77617   -4749.8086 
 1150400    693.81946   -4882.8629    126.81205   -4756.0509 
 1150600    714.69936   -4878.7806    130.62835   -4748.1522 
 1150800    698.91167   -4881.1338    127.74277    -4753.391 
 1151000    706.75093   -4879.4975    129.17558   -4750.3219 
 1151200    727.09917    -4877.117    132.89471   -4744.2223 
 1151400    707.13677   -4882.0095    129.24611   -4752.7634 
 1151600    683.27184   -4878.9266    124.88422   -4754.0424 
 1151800    728.45085   -4873.1823    133.14176   -4740.0406 
 1152000     689.1246   -4877.3885    125.95395   -4751.4345 
 1152200     689.7663   -4881.0584    126.07124   -4754.9872 
 1152400    713.38499   -4875.6465    130.38812   -4745.2584 
 1152600    699.78481   -4880.9605    127.90236   -4753.0581 
 1152800      696.118   -4882.8811    127.23216   -4755.6489 
 1153000    735.35463   -4879.7631    134.40359   -4745.3595 
 1153200    689.40576   -4876.2052    126.00534   -4750.1999 
 1153400    713.44673   -4873.8928     130.3994   -4743.4934 
 1153600    714.82843   -4876.7677    130.65194   -4746.1157 
 1153800     683.4707   -4885.9827    124.92057   -4761.0622 
 1154000     708.4167   -4879.2156    129.48004   -4749.7355 
 1154200    725.95999   -4871.6839     132.6865   -4738.9974 
 1154400    695.42604   -4881.4234    127.10569   -4754.3177 
 1154600    699.04616    -4882.596    127.76735   -4754.8286 
 1154800    745.32263   -4879.0957    136.22548   -4742.8703 
 1155000    701.19296   -4872.7656    128.15973   -4744.6059 
 1155200     711.2639    -4882.923    130.00044   -4752.9226 
 1155400    696.43218   -4879.7616    127.28959    -4752.472 
 1155600    691.30361   -4873.2805    126.35222   -4746.9283 
 1155800    706.39298   -4877.1257    129.11016   -4748.0155 
 1156000    691.12157    -4877.172    126.31895    -4750.853 
 1156200    699.57916   -4876.6171    127.86477   -4748.7524 
 1156400    693.70544   -4879.9105    126.79121   -4753.1193 
 1156600    693.82452   -4875.9021    126.81297   -4749.0891 
 1156800    709.13405   -4875.2403    129.61116   -4745.6292 
 1157000    675.14846   -4881.2074    123.39948   -4757.8079 
 1157200    702.14136   -4882.4227    128.33308   -4754.0896 
 1157400    735.84693   -4878.5678    134.49357   -4744.0743 
 1157600     696.0112   -4879.8401    127.21264   -4752.6275 
 1157800    706.20898     -4881.22    129.07653   -4752.1435 
 1158000    723.26749   -4881.4362    132.19438   -4749.2418 
 1158200     714.8239   -4882.0195    130.65111   -4751.3684 
 1158400    698.00819   -4876.3851    127.57764   -4748.8075 
 1158600    716.15961   -4880.6219    130.89525   -4749.7267 
 1158800    694.36207   -4880.6655    126.91123   -4753.7543 
 1159000    707.15346    -4875.918    129.24916   -4746.6688 
 1159200    708.30467   -4878.0814    129.45957   -4748.6219 
 1159400    689.18604   -4878.1878    125.96518   -4752.2226 
 1159600    707.58739   -4876.6379    129.32847   -4747.3095 
 1159800    715.79425   -4876.1205    130.82847    -4745.292 
 1160000    700.59367   -4879.3879     128.0502   -4751.3377 
 1160200    693.10708   -4881.8903    126.68185   -4755.2085 
 1160400    726.22753   -4879.7046     132.7354   -4746.9692 
 1160600    723.15454   -4877.3802    132.17374   -4745.2064 
 1160800    696.81918   -4877.0262    127.36032   -4749.6659 
 1161000    705.43696   -4879.6797    128.93543   -4750.7443 
 1161200    701.70556   -4877.6315    128.25342   -4749.3781 
 1161400    710.99584   -4875.6866    129.95144   -4745.7351 
 1161600    715.04044   -4880.9823    130.69069   -4750.2916 
 1161800    707.02516   -4882.4296    129.22571   -4753.2039 
 1162000    704.21876   -4874.7317    128.71277    -4746.019 
 1162200    692.29973   -4870.3733    126.53428    -4743.839 
 1162400    695.50902   -4880.6511    127.12086   -4753.5303 
 1162600    713.74457   -4881.2298    130.45384    -4750.776 
 1162800    687.45991   -4871.9907    125.64969    -4746.341 
 1163000    706.87295   -4879.8286    129.19789   -4750.6307 
 1163200    707.17088   -4879.5574    129.25234   -4750.3051 
 1163400    699.06269    -4878.461    127.77038   -4750.6907 
 1163600    695.31624   -4875.2774    127.08562   -4748.1917 
 1163800    710.68346   -4877.4196    129.89435   -4747.5252 
 1164000    718.03479    -4879.522    131.23798    -4748.284 
 1164200    729.00317   -4880.2486    133.24271   -4747.0059 
 1164400    693.21051   -4875.2286    126.70075   -4748.5278 
 1164600    702.85401     -4882.61    128.46333   -4754.1467 
 1164800    720.18788   -4878.0964    131.63151   -4746.4649 
 1165000    713.37189   -4878.0567    130.38572   -4747.6709 
 1165200    689.44584    -4880.968    126.01267   -4754.9553 
 1165400    737.83903    -4878.488    134.85768   -4743.6303 
 1165600    714.87809   -4877.6549    130.66102   -4746.9939 
 1165800    708.58303   -4882.1085    129.51044    -4752.598 
 1166000    690.42695   -4872.5916    126.19199   -4746.3996 
 1166200    717.66298   -4874.0251    131.17002   -4742.8551 
 1166400    688.17472   -4877.2047    125.78034   -4751.4243 
 1166600    689.84936   -4876.8751    126.08642   -4750.7886 
 1166800    717.80585   -4876.5268    131.19613   -4745.3306 
 1167000    701.73938   -4877.3505    128.25961   -4749.0909 
 1167200    701.07425   -4875.7763    128.13804   -4747.6383 
 1167400    737.57108   -4881.1702     134.8087   -4746.3615 
 1167600    703.87385   -4881.3822    128.64973   -4752.7325 
 1167800    722.82851   -4879.0501    132.11415   -4746.9359 
 1168000    706.36655   -4870.4383    129.10533   -4741.3329 
 1168200     713.9522   -4880.0253    130.49179   -4749.5335 
 1168400    716.45993   -4882.3828    130.95014   -4751.4327 
 1168600    714.58999   -4875.8776    130.60836   -4745.2692 
 1168800    725.47041   -4879.4058    132.59702   -4746.8088 
 1169000    691.93726   -4876.7612    126.46803   -4750.2931 
 1169200    701.47424   -4873.3647    128.21114   -4745.1535 
 1169400    720.70264   -4877.4929    131.72559   -4745.7673 
 1169600    704.93539    -4882.077    128.84375   -4753.2332 
 1169800    699.05619   -4877.1473    127.76919   -4749.3781 
 1170000     746.1557   -4878.9744    136.37775   -4742.5966 
 1170200    707.42956   -4874.6352    129.29962   -4745.3356 
 1170400    716.96487   -4879.7575    131.04243    -4748.715 
 1170600    717.26636   -4879.4271    131.09753   -4748.3296 
 1170800    703.93968   -4875.2123    128.66176   -4746.5506 
 1171000    732.07274   -4880.1927    133.80375    -4746.389 
 1171200    712.08943   -4878.6717    130.15132   -4748.5204 
 1171400    715.51473   -4879.3793    130.77738    -4748.602 
 1171600    729.32349   -4883.2341    133.30126   -4749.9328 
 1171800    683.78575   -4876.5701    124.97815   -4751.5919 
 1172000    712.11645   -4874.4564    130.15626   -4744.3001 
 1172200    711.23969   -4879.3621    129.99601   -4749.3661 
 1172400    718.65359   -4878.6566    131.35108   -4747.3055 
 1172600    703.39491   -4873.5815    128.56219   -4745.0193 
 1172800    698.36029   -4874.5837      127.642   -4746.9417 
 1173000    729.71529   -4875.0909    133.37287    -4741.718 
 1173200    711.45658   -4879.6082    130.03565   -4749.5726 
 1173400    703.51398   -4875.8395    128.58396   -4747.2556 
 1173600    709.40223   -4870.4392    129.66017    -4740.779 
 1173800    705.13753   -4875.6164     128.8807   -4746.7357 
 1174000    703.98156   -4875.3799    128.66942   -4746.7105 
 1174200    718.66928   -4873.9232    131.35395   -4742.5692 
 1174400    728.65279   -4881.7744    133.17867   -4748.5958 
 1174600    697.39789   -4875.6322    127.46609   -4748.1661 
 1174800    737.35307   -4880.2931    134.76886   -4745.5243 
 1175000    688.20267   -4877.0024    125.78545   -4751.2169 
 1175200    717.88078   -4875.1942    131.20983   -4743.9844 
 1175400    699.83968   -4871.9953    127.91239    -4744.083 
 1175600    688.48657    -4878.122    125.83734   -4752.2846 
 1175800    706.66866   -4877.0244    129.16055   -4747.8639 
 1176000    720.04153   -4876.9553    131.60476   -4745.3506 
 1176200    700.38954   -4877.8507    128.01289   -4749.8378 
 1176400    710.35134   -4874.8035    129.83365   -4744.9699 
 1176600    727.01695   -4878.8673    132.87968   -4745.9876 
 1176800     694.3923   -4877.1625    126.91675   -4750.2458 
 1177000    723.34708   -4873.8625    132.20893   -4741.6536 
 1177200    707.36654   -4877.4466     129.2881   -4748.1585 
 1177400    686.77926   -4878.7148    125.52529   -4753.1895 
 1177600    734.92562   -4873.8819    134.32518   -4739.5567 
 1177800    718.39106   -4876.7427     131.3031   -4745.4396 
 1178000     679.2683   -4875.6724    124.15248   -4751.5199 
 1178200    735.30539   -4873.7504    134.39459   -4739.3558 
 1178400    709.23697   -4877.2937    129.62997   -4747.6637 
 1178600    693.00224   -4876.3431    126.66268   -4749.6804 
 1178800    731.91268   -4874.6348    133.77449   -4740.8603 
 1179000    711.49084   -4876.4951    130.04192   -4746.4532 
 1179200    706.09414   -4876.9899    129.05554   -4747.9344 
 1179400     729.7001   -4872.8279    133.37009   -4739.4578 
 1179600    706.13552   -4876.1603     129.0631   -4747.0972 
 1179800    715.47439   -4879.7397    130.77001   -4748.9697 
 1180000    718.34805   -4871.3795    131.29523   -4740.0843 
 1180200    724.99455    -4877.743    132.51004    -4745.233 
 1180400    713.48674   -4878.1601    130.40671   -4747.7534 
 1180600     721.3823   -4869.4503    131.84982   -4737.6005 
 1180800     711.2101   -4874.6655     129.9906   -4744.6749 
 1181000    712.63755   -4877.4324    130.25151   -4747.1809 
 1181200    727.07458   -4875.6986    132.89022   -4742.8084 
 1181400    692.22789   -4874.3415    126.52115   -4747.8204 
 1181600    710.66039   -4873.9302    129.89013     -4744.04 
 1181800    724.16794   -4871.0334    132.35896   -4738.6744 
 1182000    708.19479   -4879.1046    129.43948   -4749.6651 
 1182200    730.25405   -4883.8461    133.47134   -4750.3748 
 1182400    718.88145    -4875.145    131.39273   -4743.7523 
 1182600     713.1107   -4873.1452    130.33798   -4742.8072 
 1182800    700.16001   -4871.4924    127.97094   -4743.5215 
 1183000    698.15657   -4878.1869    127.60476   -4750.5821 
 1183200    710.16702   -4875.3094    129.79996   -4745.5094 
 1183400    745.86079   -4870.4973    136.32384   -4734.1735 
 1183600    705.93576   -4878.2722    129.02659   -4749.2456 
 1183800    687.27367   -4878.9617    125.61565   -4753.3461 
 1184000    736.18599   -4873.6603    134.55554   -4739.1048 
 1184200    710.36098   -4874.6429    129.83541   -4744.8075 
 1184400    694.16596   -4878.7891    126.87538   -4751.9138 
 1184600     711.5083   -4873.8559    130.04511   -4743.8108 
 1184800    717.49794   -4871.4423    131.13986   -4740.3024 
 1185000    713.45919    -4876.022    130.40168   -4745.6203 
 1185200    720.07045   -4874.2811    131.61005    -4742.671 
 1185400     715.4901   -4874.4134    130.77288   -4743.6405 
 1185600    697.06944   -4875.2122    127.40606   -4747.8062 
 1185800    728.47897   -4869.6131     133.1469   -4736.4662 
 1186000     723.6734   -4869.2045    132.26857   -4736.9359 
 1186200      708.752   -4881.1114    129.54133   -4751.5701 
 1186400    702.60922    -4871.537    128.41859   -4743.1184 
 1186600    750.79662   -4873.1991    137.22599   -4735.9731 
 1186800    667.58312   -4874.9939    122.01673   -4752.9772 
 1187000    722.56682   -4878.2519    132.06632   -4746.1856 
 1187200    705.74227   -4870.6791    128.99123   -4741.6878 
 1187400    702.97004   -4873.8123    128.48454   -4745.3278 
 1187600    727.44505   -4874.2899    132.95793    -4741.332 
 1187800    701.28216   -4876.2665    128.17604   -4748.0904 
 1188000     693.2044   -4876.8583    126.69963   -4750.1587 
 1188200    732.42228   -4870.0509    133.86764   -4736.1832 
 1188400    725.00884   -4876.2764    132.51265   -4743.7637 
 1188600    707.32438   -4883.2841     129.2804   -4754.0037 
 1188800    743.05368   -4875.4114    135.81078   -4739.6006 
 1189000    734.61626   -4872.7258    134.26864   -4738.4571 
 1189200    697.38174   -4878.8965    127.46314   -4751.4334 
 1189400     721.9355   -4877.5105    131.95093   -4745.5596 
 1189600    717.39888   -4871.9111    131.12175   -4740.7894 
 1189800    704.11443    -4872.453     128.6937   -4743.7593 
 1190000     722.3523   -4875.0225    132.02711   -4742.9954 
 1190200    707.68716   -4878.1531     129.3467   -4748.8064 
 1190400    707.10447   -4876.5435     129.2402   -4747.3033 
 1190600    742.80854   -4874.8847    135.76597   -4739.1187 
 1190800    705.43915   -4873.0313    128.93583   -4744.0955 
 1191000     713.1087   -4878.4465    130.33762   -4748.1088 
 1191200      724.231   -4871.7487    132.37048   -4739.3782 
 1191400    698.51351   -4872.9158       127.67   -4745.2458 
 1191600    717.43881   -4873.9487    131.12905   -4742.8196 
 1191800    732.63063   -4876.4829    133.90572   -4742.5771 
 1192000     708.3277   -4876.9163    129.46378   -4747.4525 
 1192200    725.28342   -4874.2106    132.56284   -4741.6478 
 1192400    726.93841   -4875.1489    132.86533   -4742.2836 
 1192600    693.74979   -4875.3682    126.79932   -4748.5689 
 1192800    685.26682   -4868.1714    125.24885   -4742.9225 
 1193000    716.24914    -4867.957    130.91161   -4737.0453 
 1193200    703.14005   -4870.3704    128.51561   -4741.8548 
 1193400    716.62566    -4877.986    130.98043   -4747.0056 
 1193600    691.27177   -4873.9033     126.3464   -4747.5569 
 1193800    733.22033   -4872.4542     134.0135   -4738.4407 
 1194000    730.05628   -4874.5578    133.43519   -4741.1226 
 1194200    707.39269   -4882.5468    129.29288   -4753.2539 
 1194400    706.40576   -4874.2748     129.1125   -4745.1623 
 1194600    740.09625     -4871.72    135.27024   -4736.4497 
 1194800    712.41881   -4873.3479    130.21152   -4743.1364 
 1195000    712.26905   -4876.7474    130.18415   -4746.5632 
 1195200    700.31207   -4872.2812    127.99873   -4744.2825 
 1195400    712.15956   -4870.5675    130.16414   -4740.4034 
 1195600    744.86445     -4874.84    136.14174   -4738.6982 
 1195800    715.41613   -4876.6215    130.75936   -4745.8621 
 1196000    704.90963   -4872.7586    128.83904   -4743.9196 
 1196200    730.09339   -4867.9434    133.44198   -4734.5014 
 1196400    694.24276     -4875.25    126.88942   -4748.3606 
 1196600    718.92725   -4881.1711     131.4011     -4749.77 
 1196800     735.4001   -4868.9495     134.4119   -4734.5376 
 1197000    722.03615   -4868.6199    131.96932   -4736.6506 
 1197200    698.69756   -4879.0983    127.70364   -4751.3947 
 1197400    727.95216   -4875.7601    133.05062   -4742.7095 
 1197600    748.48884    -4873.754    136.80418   -4736.9498 
 1197800    691.08637   -4873.3139    126.31251   -4747.0014 
 1198000    726.17856   -4869.7236    132.72645   -4736.9972 
 1198200    723.23034   -4873.6858    132.18759   -4741.4982 
 1198400    682.44724   -4877.9904    124.73351   -4753.2568 
 1198600    752.16863     -4874.83    137.47675   -4737.3533 
 1198800    747.64106   -4873.3392    136.64923     -4736.69 
 1199000    710.77242   -4880.0793    129.91061   -4750.1687 
 1199200    704.72023   -4872.7229    128.80443   -4743.9185 
 1199400    727.24387     -4867.25    132.92116   -4734.3289 
 1199600      698.068   -4870.8582    127.58857   -4743.2696 
 1199800    735.05412   -4876.2914    134.34867   -4741.9427 
 1200000    700.10054   -4869.5298    127.96007   -4741.5698 
 1200200    697.92497   -4873.0577    127.56243   -4745.4953 
 1200400     723.5091   -4871.2925    132.23854    -4739.054 
 1200600    735.41098   -4877.2365    134.41389   -4742.8226 
 1200800    719.56915   -4876.6525    131.51842   -4745.1341 
 1201000    741.14877      -4871.1    135.46261   -4735.6374 
 1201200    718.15595   -4873.3751    131.26013    -4742.115 
 1201400    699.71159   -4875.2082    127.88898   -4747.3192 
 1201600    727.79764   -4875.1668    133.02237   -4742.1445 
 1201800    724.27296   -4872.4976    132.37815   -4740.1194 
 1202000    715.43942   -4874.2454    130.76361   -4743.4818 
 1202200    737.65601   -4874.9475    134.82423   -4740.1232 
 1202400    719.78869   -4869.6096    131.55855   -4738.0511 
 1202600     720.3129   -4872.0232    131.65436   -4740.3688 
 1202800    703.35777   -4874.2368     128.5554   -4745.6814 
 1203000     732.8011   -4874.8841    133.93687   -4740.9472 
 1203200    734.89041    -4872.817    134.31875   -4738.4982 
 1203400    714.75034   -4876.4306    130.63767    -4745.793 
 1203600    696.64564   -4878.9198     127.3286   -4751.5912 
 1203800    720.97517   -4869.5051     131.7754   -4737.7297 
 1204000    740.66232   -4868.7348     135.3737   -4733.3611 
 1204200    712.47608   -4877.2338    130.22199   -4747.0118 
 1204400    720.96705    -4883.437    131.77392   -4751.6631 
 1204600    736.30746    -4876.674    134.57775   -4742.0963 
 1204800    725.18959   -4868.7272    132.54569   -4736.1815 
 1205000    719.76338   -4876.2698    131.55392   -4744.7159 
 1205200    695.05033   -4882.8571    127.03702   -4755.8201 
 1205400    724.11698   -4873.9086    132.34964    -4741.559 
 1205600    727.46325   -4870.2976    132.96125   -4737.3364 
 1205800    706.73186   -4874.8906     129.1721   -4745.7185 
 1206000    726.66081   -4875.6629    132.81459   -4742.8483 
 1206200    731.03475    -4876.778    133.61403   -4743.1639 
 1206400    719.93065   -4873.1866    131.58449   -4741.6021 
 1206600    708.14022   -4871.7222    129.42951   -4742.2926 
 1206800    705.63022   -4876.2828    128.97075   -4747.3121 
 1207000    703.78453   -4867.5865     128.6334    -4738.953 
 1207200    734.41093   -4865.3239    134.23111   -4731.0928 
 1207400    728.08276   -4879.9984    133.07449    -4746.924 
 1207600    722.04824   -4878.9631    131.97153   -4746.9916 
 1207800    728.77968   -4866.4867    133.20186   -4733.2849 
 1208000    727.48426   -4869.3707     132.9651   -4736.4056 
 1208200    701.89518   -4876.8118    128.28808   -4748.5238 
 1208400    734.94469    -4875.364    134.32867   -4741.0354 
 1208600    722.35174   -4871.1571      132.027   -4739.1301 
 1208800    724.24062   -4873.4188    132.37224   -4741.0465 
 1209000    735.17175   -4877.5945    134.37017   -4743.2244 
 1209200    719.45719   -4880.6333    131.49796   -4749.1353 
 1209400    722.18125   -4874.2485    131.99584   -4742.2527 
 1209600     719.8322    -4870.379     131.5665   -4738.8125 
 1209800    715.96919   -4874.1312    130.86044   -4743.2708 
 1210000    704.50412   -4874.8308    128.76493   -4746.0658 
 1210200    731.78946   -4874.4185    133.75197   -4740.6665 
 1210400    720.27042   -4873.8522    131.64659   -4742.2056 
 1210600     730.6256   -4881.0203    133.53925    -4747.481 
 1210800    731.66138   -4874.3125    133.72856    -4740.584 
 1211000    736.60428   -4872.7878      134.632   -4738.1558 
 1211200    723.96485   -4874.1033    132.32184   -4741.7814 
 1211400    734.10091   -4873.9519    134.17445   -4739.7774 
 1211600    723.46636   -4875.8999    132.23073   -4743.6691 
 1211800     723.7537    -4875.533    132.28325   -4743.2498 
 1212000    733.92528    -4870.242    134.14235   -4736.0997 
 1212200    725.19282   -4877.0592    132.54628   -4744.5129 
 1212400    703.13807   -4875.4551    128.51525   -4746.9399 
 1212600    753.04035   -4875.3388    137.63608   -4737.7027 
 1212800    724.64387   -4875.1123    132.44595   -4742.6664 
 1213000    701.47959   -4876.8979    128.21212   -4748.6858 
 1213200    748.92837   -4876.0994    136.88452   -4739.2149 
 1213400     732.3912   -4878.4206    133.86196   -4744.5586 
 1213600    695.62526   -4875.1071     127.1421    -4747.965 
 1213800    743.01306      -4871.5    135.80335   -4735.6967 
 1214000    734.48747   -4878.7163     134.2451   -4744.4712 
 1214200    714.24644   -4878.7752    130.54557   -4748.2296 
 1214400    740.53329   -4867.2555    135.35012   -4731.9054 
 1214600     726.1613   -4871.0711    132.72329   -4738.3478 
 1214800    722.92854   -4880.7717    132.13243   -4748.6392 
 1215000    749.29092   -4874.0534    136.95078   -4737.1026 
 1215200    707.91912   -4875.7119     129.3891   -4746.3228 
 1215400    726.85447   -4877.7058    132.84999   -4744.8558 
 1215600    731.14546   -4871.3953    133.63427    -4737.761 
 1215800    709.65536   -4875.7095    129.70644   -4746.0031 
 1216000    713.60514   -4877.5989    130.42835   -4747.1705 
 1216200    732.68164    -4874.537    133.91504    -4740.622 
 1216400    707.99754   -4874.3171    129.40343   -4744.9136 
 1216600    726.71511   -4870.1009    132.82451   -4737.2764 
 1216800     706.0211   -4870.6435    129.04219   -4741.6013 
 1217000    700.97498    -4877.571    128.11989   -4749.4511 
 1217200    742.39734   -4872.6779    135.69082    -4736.987 
 1217400    740.09415   -4876.2082    135.26985   -4740.9384 
 1217600    702.00381    -4877.181    128.30794    -4748.873 
 1217800    723.99625   -4871.5469    132.32758   -4739.2194 
 1218000    716.33499   -4870.5231     130.9273   -4739.5958 
 1218200    718.12234   -4876.3259    131.25398   -4745.0719 
 1218400    738.14271   -4874.3887    134.91318   -4739.4756 
 1218600    732.13053    -4876.853    133.81431   -4743.0387 
 1218800    738.58303   -4878.2373    134.99366   -4743.2436 
 1219000    740.59513   -4876.2845    135.36142   -4740.9231 
 1219200    729.10226   -4877.7867    133.26082   -4744.5259 
 1219400    721.84959   -4881.1767    131.93523   -4749.2414 
 1219600    717.90319   -4874.4425    131.21393   -4743.2286 
 1219800    717.26511   -4873.0516     131.0973   -4741.9543 
 1220000    714.77442   -4874.4861    130.64207    -4743.844 
 1220200    741.93378   -4876.0887    135.60609   -4740.4826 
 1220400    704.26807   -4871.0531    128.72178   -4742.3313 
 1220600    700.76513   -4871.9172    128.08154   -4743.8357 
 1220800    747.05182   -4870.8402    136.54153   -4734.2987 
 1221000    710.56962   -4875.2545    129.87354   -4745.3809 
 1221200    709.42821   -4879.1431    129.66492   -4749.4782 
 1221400     738.0523   -4867.5285    134.89666   -4732.6318 
 1221600    705.46334   -4874.6511    128.94025   -4745.7109 
 1221800    694.08832   -4876.6696    126.86119   -4749.8084 
 1222000    744.27217   -4872.4773    136.03349   -4736.4438 
 1222200    719.14749   -4872.3831    131.44135   -4740.9417 
 1222400    725.24834   -4875.2553    132.55643   -4742.6988 
 1222600    735.12351   -4870.5824    134.36135    -4736.221 
 1222800    742.09291   -4876.4403    135.63517   -4740.8052 
 1223000    723.93379   -4876.6201    132.31616    -4744.304 
 1223200    735.80915   -4875.5023    134.48667   -4741.0157 
 1223400    739.94478   -4875.4597    135.24255   -4740.2171 
 1223600    733.54423    -4876.392     134.0727   -4742.3193 
 1223800    717.03009   -4874.7769    131.05435   -4743.7226 
 1224000    741.27359   -4878.4836    135.48542   -4742.9981 
 1224200    724.41254   -4875.1733    132.40367   -4742.7697 
 1224400    710.87225   -4874.0418    129.92885    -4744.113 
 1224600    708.40476   -4875.4675    129.47786   -4745.9896 
 1224800    734.51499   -4875.8063    134.25013   -4741.5562 
 1225000    713.59529   -4868.6303    130.42655   -4738.2038 
 1225200    733.51498   -4875.3402    134.06735   -4741.2729 
 1225400     704.6383   -4879.1992    128.78945   -4750.4097 
 1225600    747.88611   -4877.5467    136.69402   -4740.8527 
 1225800    752.29024   -4872.1807    137.49898   -4734.6817 
 1226000    692.11091   -4873.0606    126.49977   -4746.5608 
 1226200    717.82546   -4878.5038    131.19972    -4747.304 
 1226400    729.89184   -4873.4105    133.40514   -4740.0054 
 1226600    732.31015   -4875.0174    133.84714   -4741.1702 
 1226800     707.7452   -4880.0218    129.35731   -4750.6645 
 1227000     730.6875   -4880.2199    133.55056   -4746.6693 
 1227200    724.87391   -4873.8192    132.48799   -4741.3312 
 1227400    736.30298   -4879.9775    134.57693   -4745.4005 
 1227600    733.77091   -4877.6397    134.11413   -4743.5256 
 1227800    732.64731   -4872.9007    133.90877   -4738.9919 
 1228000     714.4214   -4874.9432    130.57755   -4744.3656 
 1228200    736.87856   -4879.7896    134.68213   -4745.1074 
 1228400    724.47044   -4875.6732    132.41425    -4743.259 
 1228600    728.94298   -4879.9024    133.23171   -4746.6707 
 1228800    747.32861   -4879.9877    136.59212   -4743.3956 
 1229000    746.37229   -4877.2913    136.41733    -4740.874 
 1229200    700.76355   -4877.3991    128.08125   -4749.3178 
 1229400     739.5052   -4878.6606    135.16221   -4743.4984 
 1229600    752.39267   -4880.0112     137.5177   -4742.4935 
 1229800    713.83558   -4878.7939    130.47047   -4748.3234 
 1230000    750.47347    -4876.385    137.16692    -4739.218 
 1230200    744.16534   -4876.9723    136.01396   -4740.9583 
 1230400    702.22326   -4876.5144    128.34804   -4748.1664 
 1230600    737.21833   -4872.7174    134.74423   -4737.9732 
 1230800     744.7356    -4875.736    136.11819   -4739.6178 
 1231000    723.06745   -4876.0235    132.15782   -4743.8657 
 1231200      749.269   -4874.8547    136.94678   -4737.9079 
 1231400     714.4775   -4873.8455     130.5878   -4743.2577 
 1231600    730.17222   -4873.9734    133.45638    -4740.517 
 1231800     752.8007   -4875.5624    137.59228   -4737.9701 
 1232000    714.74431   -4877.0545    130.63657    -4746.418 
 1232200    727.19432   -4876.6493     132.9121   -4743.7371 
 1232400    749.67114   -4874.7748    137.02028   -4737.7545 
 1232600    713.65187   -4875.3158     130.4369   -4744.8789 
 1232800    745.95844   -4881.3883    136.34169   -4745.0466 
 1233000    723.17402   -4875.2125     132.1773   -4743.0352 
 1233200    745.91435   -4878.6087    136.33363   -4742.2751 
 1233400    732.50324    -4872.621    133.88243   -4738.7385 
 1233600     736.2285   -4878.8772    134.56331   -4744.3139 
 1233800    720.22335   -4876.5906    131.63799   -4744.9526 
 1234000    745.38635   -4875.8291    136.23713    -4739.592 
 1234200    729.02941   -4875.2521    133.24751   -4742.0046 
 1234400    724.10316   -4872.4698    132.34712   -4740.1226 
 1234600    720.36708   -4870.2324    131.66426   -4738.5681 
 1234800     699.7527   -4872.0316    127.89649   -4744.1351 
 1235000    740.10471    -4877.534    135.27178   -4742.2622 
 1235200    739.04885   -4875.6484     135.0788   -4740.5696 
 1235400    711.18881   -4877.4398    129.98671   -4747.4531 
 1235600    736.82345   -4873.9525    134.67206   -4739.2805 
 1235800    741.48256   -4874.6878    135.52362   -4739.1642 
 1236000    707.70143   -4879.3046    129.34931   -4749.9553 
 1236200    772.02194   -4878.1902    141.10542   -4737.0847 
 1236400    743.76573   -4874.8576    135.94092   -4738.9166 
 1236600    706.27581   -4874.1438    129.08875   -4745.0551 
 1236800    751.45137   -4877.0324    137.34566   -4739.6868 
 1237000    719.77357   -4872.9721    131.55578   -4741.4164 
 1237200    736.40906   -4876.2477    134.59632   -4741.6514 
 1237400    758.92085   -4876.4059    138.71088   -4737.6951 
 1237600    721.78076   -4879.1775    131.92265   -4747.2548 
 1237800    739.77509   -4878.6574    135.21154   -4743.4459 
 1238000    758.47698   -4872.6447    138.62975   -4734.0149 
 1238200    734.01813   -4879.2707    134.15932   -4745.1114 
 1238400    728.30135    -4874.159    133.11444   -4741.0446 
 1238600    723.98503    -4869.786    132.32553   -4737.4604 
 1238800    734.93226    -4873.791    134.32639   -4739.4647 
 1239000    753.25745   -4876.5892    137.67576   -4738.9135 
 1239200    731.91662   -4875.2797    133.77521   -4741.5045 
 1239400    702.95036   -4872.5944    128.48094   -4744.1135 
 1239600    741.75586   -4869.5284    135.57357   -4733.9549 
 1239800    746.61521   -4876.7561    136.46173   -4740.2944 
 1240000    723.44586   -4878.7052    132.22698   -4746.4783 
 1240200    749.29042    -4871.962    136.95069   -4735.0113 
 1240400    742.70351   -4870.3066    135.74678   -4734.5598 
 1240600     722.6228   -4873.8984    132.07655   -4741.8218 
 1240800    718.38809   -4870.9623    131.30255   -4739.6597 
 1241000     753.6709   -4873.3017    137.75133   -4735.5503 
 1241200    731.36714    -4875.013    133.67478   -4741.3382 
 1241400    760.84119   -4875.3782    139.06187   -4736.3163 
 1241600    706.81461   -4868.4343    129.18722   -4739.2471 
 1241800    746.21188   -4876.5244    136.38801   -4740.1364 
 1242000     725.3043    -4873.755    132.56666   -4741.1883 
 1242200    744.41215   -4876.6355    136.05907   -4740.5765 
 1242400    737.03471   -4875.3606    134.71067     -4740.65 
 1242600    758.94069   -4875.0213    138.71451   -4736.3068 
 1242800    721.12922   -4878.0678    131.80356   -4746.2642 
 1243000    713.80098   -4869.3517    130.46415   -4738.8876 
 1243200    764.85741   -4870.8753    139.79593   -4731.0794 
 1243400    713.85239   -4878.4872    130.47355   -4748.0137 
 1243600    729.44501   -4872.2046    133.32347   -4738.8812 
 1243800    744.51259   -4868.8072    136.07743   -4732.7298 
 1244000    734.25575   -4877.7208    134.20275    -4743.518 
 1244200    733.29896   -4878.3783    134.02787   -4744.3504 
 1244400     738.4386   -4869.6673    134.96726      -4734.7 
 1244600    711.58872    -4871.802    130.05981   -4741.7422 
 1244800    740.24993   -4878.6907    135.29833   -4743.3924 
 1245000     724.7558    -4874.199    132.46641   -4741.7326 
 1245200    748.62201   -4876.9052    136.82852   -4740.0767 
 1245400     726.4661   -4870.7996      132.779   -4738.0206 
 1245600      730.823   -4876.0766    133.57533   -4742.5013 
 1245800    723.82182    -4874.145     132.2957   -4741.8493 
 1246000    741.43918   -4868.9697    135.51569    -4733.454 
 1246200    726.61594   -4871.4163    132.80639   -4738.6099 
 1246400    719.24334   -4875.0283    131.45887   -4743.5694 
 1246600    744.76552   -4875.0861    136.12366   -4738.9624 
 1246800    738.27982   -4873.5724    134.93824   -4738.6342 
 1247000    734.85382   -4874.8983    134.31206   -4740.5863 
 1247200    742.67097   -4877.5278    135.74083   -4741.7869 
 1247400    721.75797   -4873.0293    131.91848   -4741.1108 
 1247600    735.56779   -4872.1635    134.44255    -4737.721 
 1247800    736.29875   -4877.4929    134.57615   -4742.9168 
 1248000    709.65292   -4875.0215    129.70599   -4745.3155 
 1248200     759.5493   -4871.4347    138.82575    -4732.609 
 1248400    723.48775    -4869.906    132.23464   -4737.6714 
 1248600    715.66515   -4876.3554    130.80487   -4745.5505 
 1248800    761.41454   -4874.6597    139.16666    -4735.493 
 1249000    737.40478   -4875.2645    134.77831   -4740.4862 
 1249200    730.92023   -4881.3049     133.5931   -4747.7118 
 1249400    739.12928   -4869.2292     135.0935   -4734.1357 
 1249600    735.21821   -4871.5171    134.37866   -4737.1384 
 1249800    719.53196   -4878.4609    131.51162   -4746.9492 
 1250000    753.51773   -4873.2821    137.72333   -4735.5588 
 1250200    730.21852   -4877.1458    133.46485   -4743.6809 
 1250400    733.35264   -4882.9961    134.03768   -4748.9584 
 1250600    754.98265   -4871.7656    137.99108   -4733.7745 
 1250800    746.68649   -4872.5325    136.47476   -4736.0577 
 1251000    740.53754   -4877.4712    135.35089   -4742.1203 
 1251200     727.6599   -4875.6273     132.9972   -4742.6301 
 1251400    714.50479   -4870.1759    130.59279   -4739.5831 
 1251600     736.5835   -4870.4847     134.6282   -4735.8565 
 1251800    741.67184   -4875.2088    135.55821   -4739.6505 
 1252000    726.16566   -4879.4822    132.72409   -4746.7581 
 1252200    743.92292   -4873.5885    135.96965   -4737.6189 
 1252400    737.00996   -4868.3156    134.70614   -4733.6094 
 1252600    742.81468   -4875.1272     135.7671   -4739.3601 
 1252800    720.92623   -4875.7992    131.76646   -4744.0328 
 1253000    747.13279   -4875.3309    136.55633   -4738.7746 
 1253200    735.81614   -4867.4626    134.48795   -4732.9747 
 1253400    731.67799   -4874.4658     133.7316   -4740.7342 
 1253600     706.2067    -4879.193    129.07611   -4750.1169 
 1253800    743.06784   -4873.0793    135.81337   -4737.2659 
 1254000    769.55679   -4873.3031    140.65485   -4732.6482 
 1254200    719.10839   -4879.5114    131.43421   -4748.0772 
 1254400    735.61571   -4878.3356    134.45131   -4743.8843 
 1254600    748.54259   -4876.5076    136.81401   -4739.6936 
 1254800    736.66674   -4873.2567    134.64341   -4738.6132 
 1255000    754.13738   -4871.2211    137.83659   -4733.3846 
 1255200    724.21453   -4880.7811    132.36748   -4748.4136 
 1255400     731.9016   -4876.1677    133.77247   -4742.3953 
 1255600     786.7366    -4870.529    143.79487   -4726.7342 
 1255800    729.47987   -4879.1923    133.32984   -4745.8624 
 1256000     712.0469   -4876.8569    130.14355   -4746.7134 
 1256200    773.69638   -4871.0053    141.41146   -4729.5938 
 1256400     723.1542   -4872.5922    132.17367   -4740.4186 
 1256600    752.27372   -4875.1427    137.49596   -4737.6467 
 1256800    757.65609    -4875.232    138.47972   -4736.7523 
 1257000    719.90043   -4879.2489    131.57897   -4747.6699 
 1257200    743.71572   -4871.4344    135.93178   -4735.5027 
 1257400    757.42038   -4867.8246    138.43664    -4729.388 
 1257600    725.97942   -4880.5429    132.69005   -4747.8528 
 1257800     735.9349   -4878.7636    134.50965   -4744.2539 
 1258000    765.91069   -4867.8408    139.98844   -4727.8524 
 1258200    735.31937   -4875.6231    134.39715    -4741.226 
 1258400    727.17769   -4875.5736    132.90906   -4742.6645 
 1258600    754.31024   -4873.6778    137.86818   -4735.8097 
 1258800    734.80622   -4875.7832    134.30336   -4741.4799 
 1259000    741.36218    -4871.285    135.50162   -4735.7834 
 1259200    726.40582   -4871.5374    132.76798   -4738.7695 
 1259400    730.47377   -4877.1219     133.5115   -4743.6104 
 1259600    740.95233   -4871.8607    135.42671    -4736.434 
 1259800    735.67079   -4875.3786    134.46138   -4740.9172 
 1260000     743.7108   -4878.5944    135.93088   -4742.6636 
 1260200    743.86663   -4872.5637    135.95936   -4736.6043 
 1260400    758.71283   -4881.2526    138.67286   -4742.5797 
 1260600    719.34025   -4874.8817    131.47658   -4743.4051 
 1260800    758.08246   -4872.6061    138.55765   -4734.0485 
 1261000    737.69813   -4875.7052    134.83192   -4740.8733 
 1261200    739.96428   -4871.8247    135.24612   -4736.5785 
 1261400    750.93093   -4868.1004    137.25053   -4730.8498 
 1261600    739.08976   -4880.3461    135.08628   -4745.2599 
 1261800    742.91188   -4875.0648    135.78486     -4739.28 
 1262000    764.27693   -4869.3472    139.68983   -4729.6573 
 1262200    738.98302   -4877.3533    135.06677   -4742.2865 
 1262400    749.71972   -4873.3618    137.02916   -4736.3326 
 1262600    759.40405   -4873.8064     138.7992   -4735.0072 
 1262800    712.12554   -4876.0547    130.15792   -4745.8968 
 1263000    757.19878   -4875.1458    138.39613   -4736.7497 
 1263200    736.06585   -4869.5126    134.53359    -4734.979 
 1263400     726.2481   -4873.7548    132.73916   -4741.0156 
 1263600    761.44319   -4875.8058     139.1719   -4736.6339 
 1263800    742.77481   -4879.0931    135.75981   -4743.3333 
 1264000     741.3141   -4873.1764    135.49283   -4737.6835 
 1264200    782.91174   -4870.5373    143.09579   -4727.4416 
 1264400    741.28909   -4880.8887    135.48826   -4745.4005 
 1264600    722.23344   -4876.2303    132.00538    -4744.225 
 1264800    778.45428   -4871.4524    142.28108   -4729.1714 
 1265000     714.2829   -4869.4512    130.55223   -4738.8989 
 1265200    728.56115   -4872.6105    133.16192   -4739.4486 
 1265400    738.72936   -4870.8739    135.02041   -4735.8535 
 1265600    744.11065   -4875.2106    136.00397   -4739.2066 
 1265800    742.96221   -4871.0073    135.79406   -4735.2133 
 1266000    753.32294   -4873.2305    137.68773   -4735.5428 
 1266200    750.09663   -4876.7553    137.09804   -4739.6573 
 1266400    730.26514   -4870.7802    133.47337   -4737.3068 
 1266600    757.93359   -4873.8308    138.53044   -4735.3004 
 1266800    740.98231   -4877.3068    135.43219   -4741.8746 
 1267000    762.00715   -4873.5138    139.27498   -4734.2388 
 1267200     766.6112   -4869.3593    140.11648   -4729.2428 
 1267400    737.04644   -4876.1083    134.71281   -4741.3955 
 1267600    771.56131   -4877.5265    141.02123   -4736.5053 
 1267800    749.72718   -4870.8542    137.03052   -4733.8237 
 1268000      733.834   -4873.6324    134.12566   -4739.5067 
 1268200    743.30199   -4868.5242    135.85616   -4732.6681 
 1268400    711.75723   -4866.7625    130.09061   -4736.6719 
 1268600    719.02328   -4870.6241    131.41865   -4739.2055 
 1268800     728.9488    -4867.166    133.23277   -4733.9333 
 1269000    752.60468   -4873.4244    137.55645    -4735.868 
 1269200    755.71011   -4875.6812    138.12404   -4737.5572 
 1269400    761.71036   -4872.9715    139.22073   -4733.7508 
 1269600    741.91374   -4873.2523    135.60243   -4737.6498 
 1269800    735.22045   -4877.5131    134.37907    -4743.134 
 1270000    763.65396   -4875.2904    139.57597   -4735.7144 
 1270200    737.07835   -4871.0663    134.71864   -4736.3477 
 1270400    729.64821   -4871.5564    133.36061   -4738.1958 
 1270600    773.98509   -4875.8556    141.46423   -4734.3913 
 1270800     723.5498   -4877.3478    132.24598   -4745.1018 
 1271000    737.08007   -4868.9196    134.71896   -4734.2006 
 1271200    758.90224   -4862.1405    138.70748   -4723.4331 
 1271400    738.54776   -4879.4476    134.98721   -4744.4604 
 1271600    716.83689   -4872.1374    131.01904   -4741.1183 
 1271800    779.31663   -4868.7658     142.4387   -4726.3271 
 1272000    726.65463    -4875.474    132.81346   -4742.6606 
 1272200    746.55073   -4878.0194    136.44995   -4741.5695 
 1272400    777.57319   -4874.1353    142.12004   -4732.0153 
 1272600    728.00717   -4873.3025    133.06067   -4740.2418 
 1272800    734.29311   -4870.0629    134.20957   -4735.8533 
 1273000    756.08747   -4871.1524    138.19301   -4732.9594 
 1273200    745.80719   -4877.7483    136.31405   -4741.4342 
 1273400    726.96223    -4871.418    132.86968   -4738.5483 
 1273600     749.5679   -4871.8933    137.00141   -4734.8919 
 1273800    755.16477   -4880.2937    138.02437   -4742.2693 
 1274000    717.92868   -4875.9459    131.21859   -4744.7273 
 1274200    773.06693   -4873.3306    141.29642   -4732.0342 
 1274400    736.29937   -4869.5469    134.57627   -4734.9707 
 1274600    727.22927   -4877.7401    132.91849   -4744.8216 
 1274800    745.47956   -4876.3532    136.25417   -4740.0991 
 1275000    765.06534   -4868.5212    139.83393   -4728.6873 
 1275200    734.69419   -4872.1965    134.28288   -4737.9136 
 1275400    735.64467   -4873.3858     134.4566   -4738.9291 
 1275600    776.30188   -4872.6895    141.88768   -4730.8018 
 1275800    736.72451   -4874.5003    134.65397   -4739.8463 
 1276000    736.30677   -4876.5822    134.57762   -4742.0046 
 1276200    758.26688   -4874.6987    138.59135   -4736.1074 
 1276400     733.7377   -4876.0311    134.10806   -4741.9231 
 1276600    766.50254   -4874.2584    140.09662   -4734.1618 
 1276800    756.72718   -4875.6425    138.30994   -4737.3326 
 1277000    729.98281   -4879.8355    133.42177   -4746.4137 
 1277200    746.73084   -4870.2858    136.48287    -4733.803 
 1277400    757.54662   -4872.3408    138.45971   -4733.8811 
 1277600    724.01062   -4882.5327    132.33021   -4750.2025 
 1277800    757.10511   -4876.2093    138.37901   -4737.8303 
 1278000    761.09897   -4870.7136    139.10898   -4731.6046 
 1278200    721.87378   -4874.9887    131.93965    -4743.049 
 1278400    767.72238   -4876.8415    140.31957   -4736.5219 
 1278600    767.43345   -4876.5063    140.26676   -4736.2395 
 1278800     759.4955   -4877.5894    138.81591   -4738.7735 
 1279000    775.17164   -4874.7937     141.6811   -4733.1126 
 1279200    723.85529   -4877.9368    132.30182    -4745.635 
 1279400    735.66354   -4876.2232    134.46005   -4741.7631 
 1279600    778.88208   -4871.5745    142.35927   -4729.2152 
 1279800    738.05705   -4878.4005    134.89752    -4743.503 
 1280000    745.76537   -4876.0725     136.3064   -4739.7661 
 1280200    766.75845   -4875.3711    140.14339   -4735.2277 
 1280400    715.11212   -4870.8043    130.70379   -4740.1005 
 1280600     762.3736   -4872.5117    139.34195   -4733.1698 
 1280800    739.47124   -4875.6789      135.156   -4740.5229 
 1281000    753.77139   -4870.7621     137.7697   -4732.9924 
 1281200    765.70575   -4869.1091    139.95098   -4729.1582 
 1281400    746.48937   -4876.3324    136.43873   -4739.8936 
 1281600     754.9325   -4877.0475    137.98192   -4739.0656 
 1281800    755.03023   -4876.0826    137.99978   -4738.0828 
 1282000    723.35009   -4868.7363    132.20948   -4736.5268 
 1282200    741.48317   -4868.2152    135.52373   -4732.6915 
 1282400    727.19038   -4874.9776    132.91138   -4742.0662 
 1282600    740.07876   -4871.9413    135.26704   -4736.6742 
 1282800    769.86714    -4865.366    140.71158   -4724.6545 
 1283000    743.06695   -4876.1528     135.8132   -4740.3396 
 1283200    739.81117   -4877.7071    135.21813   -4742.4889 
 1283400    757.29339   -4870.1659    138.41342   -4731.7525 
 1283600    749.09161   -4871.9306    136.91435   -4735.0163 
 1283800    748.26975   -4873.9978    136.76414   -4737.2336 
 1284000     739.2834   -4873.8759    135.12167   -4738.7543 
 1284200    740.82827   -4872.6409    135.40403   -4737.2369 
 1284400    755.99143    -4869.458    138.17546   -4731.2825 
 1284600    762.21889   -4872.4774    139.31368   -4733.1637 
 1284800    736.72419   -4876.9749    134.65391    -4742.321 
 1285000     754.8808   -4875.0497    137.97247   -4737.0773 
 1285200    759.72981    -4874.878    138.85874   -4736.0193 
 1285400    737.91642   -4876.0643    134.87182   -4741.1925 
 1285600    740.49745   -4869.9251    135.34357   -4734.5815 
 1285800    736.11172   -4867.4342    134.54197   -4732.8923 
 1286000    732.03421   -4869.1413    133.79671   -4735.3446 
 1286200    765.61329   -4875.2573    139.93409   -4735.3232 
 1286400    750.16277   -4875.6967    137.11013   -4738.5866 
 1286600    732.54194   -4867.9921    133.88951   -4734.1026 
 1286800    748.58593   -4875.2603    136.82193   -4738.4383 
 1287000    744.34492   -4874.5975    136.04678   -4738.5508 
 1287200    770.85041   -4871.2653    140.89129    -4730.374 
 1287400    765.58555   -4876.6432    139.92902   -4736.7142 
 1287600    739.95546    -4878.518     135.2445   -4743.2735 
 1287800    763.89176   -4872.1641    139.61943   -4732.5446 
 1288000    747.77951   -4870.6334    136.67454   -4733.9589 
 1288200    730.74611   -4870.9035    133.56128   -4737.3422 
 1288400    741.33987   -4872.9195    135.49754    -4737.422 
 1288600    745.97085   -4872.8234    136.34396   -4736.4794 
 1288800    764.93925   -4869.9342    139.81089   -4730.1233 
 1289000    770.32239   -4872.1999    140.79479   -4731.4051 
 1289200    743.37721   -4879.8061    135.86991   -4743.9362 
 1289400    754.57604   -4876.3336    137.91676   -4738.4168 
 1289600     754.0845   -4865.7891    137.82692   -4727.9622 
 1289800    757.59706   -4870.6629    138.46893   -4732.1939 
 1290000    733.57382   -4878.0193    134.07811   -4743.9412 
 1290200    762.04227   -4875.3829     139.2814   -4736.1015 
 1290400    757.32624   -4871.4694    138.41943     -4733.05 
 1290600    743.31394   -4872.5404    135.85835    -4736.682 
 1290800    766.90909   -4874.8241    140.17092   -4734.6532 
 1291000    745.85595   -4876.4674    136.32296   -4740.1445 
 1291200     774.0215   -4872.1112    141.47089   -4730.6403 
 1291400    759.95169   -4876.0503    138.89929    -4737.151 
 1291600    729.48779   -4875.0994    133.33129   -4741.7681 
 1291800    760.69429   -4867.7025    139.03502   -4728.6675 
 1292000     727.1804   -4868.5431    132.90956   -4735.6336 
 1292200    744.62127   -4872.7838    136.09729   -4736.6865 
 1292400    752.30753   -4872.5297    137.50214   -4735.0276 
 1292600    763.33575   -4874.2837    139.51781   -4734.7659 
 1292800    752.99967   -4867.3032    137.62864   -4729.6745 
 1293000    741.27902   -4871.5166    135.48642   -4736.0301 
 1293200    740.61376   -4880.4415    135.36482   -4745.0767 
 1293400    764.76504   -4871.7865    139.77905   -4732.0075 
 1293600    737.11882     -4866.21    134.72604    -4731.484 
 1293800    729.34226   -4872.6335    133.30469   -4739.3289 
 1294000    793.99253   -4876.4567    145.12107   -4731.3356 
 1294200    752.00976   -4871.8469    137.44772   -4734.3991 
 1294400    747.39775   -4877.5247    136.60476     -4740.92 
 1294600    747.58804   -4869.9404    136.63954   -4733.3009 
 1294800    759.16026   -4869.6036    138.75464    -4730.849 
 1295000    755.90825    -4877.231    138.16026   -4739.0708 
 1295200    726.50025   -4872.3016    132.78524   -4739.5164 
 1295400    777.37051   -4873.6575      142.083   -4731.5745 
 1295600    738.18858   -4872.1493    134.92156   -4737.2277 
 1295800     740.3982    -4869.163    135.32543   -4733.8376 
 1296000    764.41154   -4873.4825    139.71444   -4733.7681 
 1296200    737.60498   -4877.6869     134.8149    -4742.872 
 1296400    750.61481   -4869.7359    137.19275   -4732.5432 
 1296600    765.46883   -4868.8741    139.90768   -4728.9664 
 1296800    728.72634    -4877.754    133.19212   -4744.5619 
 1297000    747.28589   -4876.7062    136.58432   -4740.1219 
 1297200    772.01894   -4866.9986    141.10487   -4725.8937 
 1297400    753.00215   -4872.8179     137.6291   -4735.1888 
 1297600    752.26461   -4877.5836     137.4943   -4740.0893 
 1297800     755.1823   -4872.5402    138.02757   -4734.5126 
 1298000    744.69051   -4871.9703    136.10995   -4735.8603 
 1298200     762.3893   -4867.2934    139.34482   -4727.9486 
 1298400    787.86827   -4870.2763    144.00171   -4726.2746 
 1298600    720.44016   -4876.7193    131.67762   -4745.0417 
 1298800    763.43843   -4874.6431    139.53658   -4735.1066 
 1299000    778.35313   -4863.3564    142.26259   -4721.0938 
 1299200    760.45339   -4875.1233    138.99099   -4736.1324 
 1299400    733.95615   -4875.9848    134.14799   -4741.8369 
 1299600    758.63662   -4870.1213    138.65893   -4731.4624 
 1299800    754.30597   -4872.8192     137.8674   -4734.9518 
 1300000    755.50109   -4871.1675    138.08584   -4733.0817 
 1300200    756.76414   -4873.9535    138.31669   -4735.6369 
 1300400    738.34476   -4879.2677    134.95011   -4744.3176 
 1300600     769.4539   -4868.0445    140.63605   -4727.4084 
 1300800    768.24758   -4871.4031    140.41556   -4730.9875 
 1301000    722.85084   -4877.0783    132.11823   -4744.9601 
 1301200    766.08258   -4871.9339    140.01986   -4731.9141 
 1301400    758.49521   -4868.6453    138.63309   -4730.0122 
 1301600     736.2404    -4874.164    134.56549   -4739.5985 
 1301800    721.48199   -4867.4318    131.86804   -4735.5638 
 1302000     775.5254   -4871.4955    141.74576   -4729.7497 
 1302200     757.2508   -4876.4434    138.40564   -4738.0378 
 1302400    777.84627   -4873.2609    142.16995    -4731.091 
 1302600     761.8998    -4872.309    139.25536   -4733.0536 
 1302800     741.5608   -4877.3199    135.53792    -4741.782 
 1303000    769.06643   -4870.9452    140.56523     -4730.38 
 1303200    760.51067   -4870.9068    139.00146   -4731.9054 
 1303400    771.90628   -4877.0621    141.08428   -4735.9779 
 1303600    741.89513   -4875.8773    135.59903   -4740.2783 
 1303800    780.69382    -4871.868    142.69041   -4729.1776 
 1304000    754.72272   -4867.0004    137.94357   -4729.0568 
 1304200    754.30054   -4870.8196    137.86641   -4732.9532 
 1304400    760.83969   -4874.4461     139.0616   -4735.3845 
 1304600    770.36437    -4876.262    140.80246   -4735.4595 
 1304800    771.54248    -4871.343    141.01779   -4730.3252 
 1305000    755.35285   -4870.0068    138.05874   -4731.9481 
 1305200    750.30438   -4878.9135    137.13602   -4741.7774 
 1305400    757.43708   -4872.4976    138.43969   -4734.0579 
 1305600    751.52827    -4864.295    137.35971   -4726.9353 
 1305800    752.04223   -4875.6005    137.45365   -4738.1468 
 1306000     751.0516   -4874.8896    137.27259    -4737.617 
 1306200    771.18872   -4865.9086    140.95313   -4724.9555 
 1306400    752.45221   -4869.0049    137.52858   -4731.4764 
 1306600     750.8473   -4876.2138    137.23525   -4738.9786 
 1306800    787.69907   -4874.0543    143.97079   -4730.0835 
 1307000    759.60959   -4872.9252    138.83677   -4734.0884 
 1307200    741.61415   -4869.7798    135.54767   -4734.2322 
 1307400    790.99261   -4870.8416    144.57276   -4726.2688 
 1307600    732.86904   -4873.2771    133.94929   -4739.3278 
 1307800    750.74994    -4874.765    137.21745   -4737.5476 
 1308000    780.43101   -4868.8142    142.64238   -4726.1718 
 1308200    735.04504   -4871.6597    134.34701   -4737.3127 
 1308400    767.86032   -4875.7891    140.34478   -4735.4443 
 1308600    776.26515   -4868.7081    141.88097   -4726.8271 
 1308800    743.71323    -4870.584    135.93133   -4734.6527 
 1309000    769.99193   -4875.1422    140.73439   -4734.4078 
 1309200    764.28949   -4869.4495    139.69213   -4729.7574 
 1309400    724.93581   -4871.6784    132.49931   -4739.1791 
 1309600    758.18449   -4872.6054    138.57629   -4734.0291 
 1309800    762.79348   -4868.0924     139.4187   -4728.6737 
 1310000    740.66581   -4873.1954    135.37434    -4737.821 
 1310200    750.67555   -4869.3041    137.20386   -4732.1002 
 1310400    746.80272   -4865.9296      136.496   -4729.4336 
 1310600    754.16945   -4876.1125    137.84245   -4738.2701 
 1310800    786.21504   -4873.0639    143.69955   -4729.3644 
 1311000    776.70067   -4870.9278    141.96057   -4728.9672 
 1311200    738.80117   -4872.9542    135.03353   -4737.9206 
 1311400    765.76571   -4870.8497    139.96194   -4730.8878 
 1311600    780.95648   -4872.0441    142.73842   -4729.3057 
 1311800    760.96287   -4876.6165    139.08411   -4737.5324 
 1312000    755.02817   -4872.4838     137.9994   -4734.4844 
 1312200    777.30411   -4871.4888    142.07086    -4729.418 
 1312400    737.57202   -4870.2698    134.80887   -4735.4609 
 1312600    764.27866   -4869.3941    139.69015    -4729.704 
 1312800    782.37502   -4874.1998    142.99769   -4731.2021 
 1313000    733.31923   -4871.4319    134.03158   -4737.4003 
 1313200    782.03386   -4867.8822    142.93534   -4724.9468 
 1313400    750.91998   -4868.9691    137.24853   -4731.7206 
 1313600     729.7197   -4873.4179    133.37367   -4740.0443 
 1313800    761.33839   -4862.6105    139.15275   -4723.4578 
 1314000    762.79521   -4870.5185    139.41901   -4731.0995 
 1314200     745.7754   -4876.1085    136.30824   -4739.8003 
 1314400    784.70496    -4870.183    143.42354   -4726.7595 
 1314600    786.82282   -4875.7003    143.81063   -4731.8897 
 1314800    735.08637   -4877.8799    134.35456   -4743.5253 
 1315000    769.81928   -4870.6816    140.70283   -4729.9788 
 1315200     754.8655   -4867.8893    137.96967   -4729.9197 
 1315400    733.87138   -4871.3354    134.13249   -4737.2029 
 1315600    744.29947   -4864.1406    136.03848   -4728.1021 
 1315800    747.92733    -4868.835    136.70155   -4732.1335 
 1316000    765.97476   -4875.2141    140.00015    -4735.214 
 1316200    781.60092   -4869.4958    142.85621   -4726.6396 
 1316400    736.89466   -4869.7175    134.68507   -4735.0324 
 1316600    733.60503   -4872.9392    134.08381   -4738.8553 
 1316800    787.19112    -4866.014    143.87795   -4722.1361 
 1317000    752.10527   -4869.0517    137.46517   -4731.5865 
 1317200    738.49911   -4871.4548    134.97832   -4736.4765 
 1317400     773.2532    -4870.039    141.33046   -4728.7085 
 1317600    762.95623   -4872.0144    139.44844    -4732.566 
 1317800    758.13803   -4872.1933     138.5678   -4733.6255 
 1318000    776.41947    -4871.252    141.90917   -4729.3429 
 1318200     775.6595   -4873.9455    141.77027   -4732.1753 
 1318400     758.0638    -4873.806    138.55424   -4735.2517 
 1318600    773.48895   -4869.2128    141.37355   -4727.8392 
 1318800    753.53469   -4874.0464    137.72643     -4736.32 
 1319000    752.61302   -4880.3432    137.55798   -4742.7853 
 1319200    797.22996   -4869.9448    145.71278    -4724.232 
 1319400    774.01784   -4869.2956    141.47022   -4727.8254 
 1319600    734.30562   -4881.5067    134.21186   -4747.2949 
 1319800    784.48726   -4877.1863    143.38375   -4733.8026 
 1320000    763.99499   -4867.5731     139.6383   -4727.9348 
 1320200    729.77264   -4871.7153    133.38335   -4738.3319 
 1320400    785.08341   -4869.1581    143.49271   -4725.6654 
 1320600    747.03868   -4873.8811    136.53913   -4737.3419 
 1320800     738.8757   -4877.2504    135.04715   -4742.2032 
 1321000    799.39526    -4868.152    146.10855   -4722.0435 
 1321200    750.05464   -4870.9374    137.09037    -4733.847 
 1321400    722.10436   -4876.1374    131.98179   -4744.1556 
 1321600    786.55727   -4867.8816     143.7621   -4724.1196 
 1321800    781.80131   -4870.6073    142.89283   -4727.7144 
 1322000    721.72166   -4876.8036    131.91184   -4744.8918 
 1322200    749.21381   -4868.9928    136.93669   -4732.0561 
 1322400    785.58767   -4872.4595    143.58488   -4728.8747 
 1322600    745.25614   -4870.4617    136.21333   -4734.2484 
 1322800    770.45055   -4870.6831    140.81821   -4729.8649 
 1323000    757.90072   -4877.2135    138.52443   -4738.6891 
 1323200    757.28504   -4869.7539     138.4119    -4731.342 
 1323400    798.85501   -4863.0265     146.0098   -4717.0167 
 1323600    734.68739   -4868.5124    134.28164   -4734.2308 
 1323800    756.94601   -4873.9714    138.34993   -4735.6215 
 1324000    778.35548   -4867.4152    142.26302   -4725.1521 
 1324200    737.00915   -4869.8641      134.706   -4735.1581 
 1324400    740.71643   -4871.1067    135.38359   -4735.7231 
 1324600     755.9009    -4865.989    138.15891   -4727.8301 
 1324800    759.63553   -4868.5645    138.84151    -4729.723 
 1325000    784.59107   -4867.4264    143.40273   -4724.0237 
 1325200     751.7143   -4870.2991    137.39371   -4732.9054 
 1325400    743.01647   -4876.2876    135.80398   -4740.4836 
 1325600    793.67396    -4866.551    145.06284   -4721.4882 
 1325800    766.42169   -4870.1971    140.08184   -4730.1153 
 1326000     722.5195   -4874.6089    132.05767   -4742.5512 
 1326200    783.14412   -4871.5648    143.13826   -4728.4266 
 1326400    747.20966   -4867.4958    136.57038   -4730.9254 
 1326600    761.02369   -4870.9213    139.09523   -4731.8261 
 1326800     753.1661   -4870.2384    137.65906   -4732.5793 
 1327000     762.5075   -4870.5481    139.36643   -4731.1817 
 1327200     753.1998   -4868.0036    137.66522   -4730.3384 
 1327400     778.4125   -4871.1552    142.27345   -4728.8817 
 1327600    755.47633   -4867.6725    138.08131   -4729.5912 
 1327800    764.95241   -4875.2339    139.81329   -4735.4206 
 1328000    776.05857   -4877.1264    141.84321   -4735.2831 
 1328200    750.38228   -4868.2624    137.15025   -4731.1122 
 1328400     749.6636   -4869.2884     137.0189   -4732.2695 
 1328600     757.3353   -4867.9453    138.42108   -4729.5242 
 1328800    760.04002    -4873.735    138.91544   -4734.8196 
 1329000    739.31875   -4874.1672    135.12813    -4739.039 
 1329200    783.73652   -4872.5221    143.24654   -4729.2756 
 1329400    770.92036   -4871.9175    140.90408   -4731.0134 
 1329600    761.95033   -4876.4582    139.26459   -4737.1937 
 1329800    786.25443   -4871.1521    143.70675   -4727.4453 
 1330000    743.41026   -4865.6809    135.87595    -4729.805 
 1330200    756.69905   -4869.7417     138.3048   -4731.4369 
 1330400    759.76346   -4871.7973    138.86489   -4732.9324 
 1330600    751.60221   -4872.9013    137.37323   -4735.5281 
 1330800    778.22579   -4869.3976    142.23932   -4727.1583 
 1331000     776.0095   -4874.0034    141.83424   -4732.1691 
 1331200    727.50272   -4872.5638    132.96847   -4739.5953 
 1331400    757.41507   -4868.3143    138.43566   -4729.8786 
 1331600    741.76943   -4867.7627    135.57605   -4732.1867 
 1331800    773.46875   -4872.9401    141.36986   -4731.5702 
 1332000    757.22609   -4868.5877    138.40112   -4730.1866 
 1332200    743.17719   -4871.1315    135.83335   -4735.2982 
 1332400    776.68849   -4866.8996    141.95834   -4724.9413 
 1332600    770.54126   -4871.4785    140.83479   -4730.6437 
 1332800    729.23511   -4878.3704     133.2851   -4745.0853 
 1333000    787.06776   -4869.0936     143.8554   -4725.2382 
 1333200    795.05571    -4866.585    145.31539   -4721.2696 
 1333400    741.53713   -4875.2752    135.53359   -4739.7417 
 1333600    759.86697   -4870.6989    138.88381   -4731.8151 
 1333800    779.65557    -4868.697    142.50065   -4726.1964 
 1334000    711.46891   -4864.4742    130.03791   -4734.4363 
 1334200    764.10213   -4865.6719    139.65788    -4726.014 
 1334400    771.96262   -4872.2314    141.09458   -4731.1369 
 1334600    725.09616   -4868.4769    132.52861   -4735.9483 
 1334800     783.7916   -4867.3579     143.2566   -4724.1013 
 1335000    766.40904   -4870.3294    140.07953   -4730.2499 
 1335200    753.37695   -4874.8256     137.6976    -4737.128 
 1335400    778.71974   -4867.5872     142.3296   -4725.2576 
 1335600    772.51579   -4867.9369    141.19568   -4726.7412 
 1335800    744.12705   -4871.8382    136.00696   -4735.8313 
 1336000    768.63598   -4867.6228    140.48655   -4727.1363 
 1336200    781.20082   -4868.4027    142.78308   -4725.6196 
 1336400    756.99525   -4869.2788    138.35893   -4730.9199 
 1336600    798.42914   -4869.7124    145.93196   -4723.7804 
 1336800    762.10468   -4870.9588     139.2928    -4731.666 
 1337000    744.88034   -4870.6797    136.14464   -4734.5351 
 1337200    790.20035   -4870.6883    144.42796   -4726.2604 
 1337400    744.55326   -4869.4988    136.08486   -4733.4139 
 1337600     752.7541   -4868.1433    137.58376   -4730.5595 
 1337800    795.42581    -4867.705    145.38303   -4722.3219 
 1338000    755.19208    -4876.154    138.02936   -4738.1247 
 1338200    773.75814   -4872.1627    141.42275   -4730.7399 
 1338400    801.50384   -4866.9476    146.49394   -4720.4537 
 1338600    761.56806   -4874.2576    139.19472   -4735.0628 
 1338800     764.5363   -4873.4147    139.73724   -4733.6775 
 1339000    769.81313   -4863.5673    140.70171   -4722.8656 
 1339200    747.89279   -4869.3348    136.69524   -4732.6396 
 1339400    778.25098   -4870.8173    142.24392   -4728.5734 
 1339600    776.15563   -4869.0688    141.86095   -4727.2078 
 1339800     761.7643   -4875.3429    139.23059   -4736.1123 
 1340000    749.17044    -4867.557    136.92876   -4730.6283 
 1340200    809.81982   -4870.8893    148.01388   -4722.8755 
 1340400    742.04288   -4876.5855    135.62603   -4740.9595 
 1340600    787.87933   -4874.5318    144.00373    -4730.528 
 1340800    787.15173   -4866.1985    143.87075   -4722.3278 
 1341000    732.15653   -4870.3482    133.81906   -4736.5292 
 1341200    794.91225   -4873.4932    145.28917    -4728.204 
 1341400    775.32453   -4868.0913    141.70904   -4726.3823 
 1341600    768.18369   -4870.9519    140.40389    -4730.548 
 1341800    801.50754   -4867.6375    146.49462   -4721.1429 
 1342000     755.6841   -4873.4039    138.11929   -4735.2846 
 1342200    744.11623   -4875.4252    136.00498   -4739.4202 
 1342400    774.97459   -4870.4141    141.64509    -4728.769 
 1342600    778.65723   -4870.3716    142.31818   -4728.0534 
 1342800    776.54319   -4871.6548    141.93178   -4729.7231 
 1343000    775.74519   -4872.2638    141.78593   -4730.4779 
 1343200     769.9495   -4867.3102    140.72663   -4726.5835 
 1343400    789.29115   -4873.1608    144.26178    -4728.899 
 1343600    767.71216    -4871.983     140.3177   -4731.6653 
 1343800    769.55539   -4870.2702     140.6546   -4729.6156 
 1344000    749.20407   -4867.8964    136.93491   -4730.9615 
 1344200    771.36745   -4865.3495     140.9858   -4724.3637 
 1344400    794.21134   -4869.2004    145.16106   -4724.0393 
 1344600    755.27796   -4877.3524    138.04506   -4739.3073 
 1344800    795.70935   -4876.9644    145.43486   -4731.5296 
 1345000    752.96404   -4862.7287    137.62213   -4725.1066 
 1345200    780.61289   -4870.0587    142.67562   -4727.3831 
 1345400    766.20261   -4877.6378     140.0418   -4737.5961 
 1345600    800.36359   -4873.3179    146.28553   -4727.0324 
 1345800    788.33813   -4866.7742    144.08759   -4722.6866 
 1346000    757.77781   -4875.8624    138.50196   -4737.3605 
 1346200    760.80263   -4873.0113    139.05482   -4733.9565 
 1346400      785.891   -4869.9893    143.64032    -4726.349 
 1346600    768.03474   -4868.9993    140.37666   -4728.6226 
 1346800    755.86916   -4868.3942    138.15311   -4730.2411 
 1347000    743.58612   -4866.4086     135.9081   -4730.5005 
 1347200    758.98433   -4868.4071    138.72248   -4729.6847 
 1347400    754.77514   -4867.9784    137.95315   -4730.0252 
 1347600    771.98446   -4870.1615    141.09857   -4729.0629 
 1347800    777.05634   -4865.8696    142.02558    -4723.844 
 1348000    789.82476   -4872.6507    144.35931   -4728.2914 
 1348200    767.58422   -4871.4942    140.29432   -4731.1998 
 1348400    772.20209   -4872.3839    141.13834   -4731.2456 
 1348600    747.66212   -4868.3427    136.65308   -4731.6897 
 1348800    771.90037   -4867.3648     141.0832   -4726.2816 
 1349000    786.57631   -4868.0733    143.76558   -4724.3077 
 1349200     751.8574   -4874.0186    137.41987   -4736.5987 
 1349400    806.01229   -4875.0003    147.31797   -4727.6824 
 1349600    787.25002   -4864.2663    143.88871   -4720.3776 
 1349800     753.9277    -4869.543    137.79827   -4731.7447 
 1350000    774.93432   -4873.6537    141.63772    -4732.016 
 1350200     783.9362   -4871.1738    143.28303   -4727.8908 
 1350400    758.13469   -4867.4438    138.56719   -4728.8766 
 1350600    774.80451   -4868.2731      141.614   -4726.6591 
 1350800    752.57074   -4870.0896    137.55025   -4732.5394 
 1351000    741.28218   -4873.7957    135.48699   -4738.3087 
 1351200    803.50139   -4871.8439    146.85904   -4724.9848 
 1351400    775.28118   -4867.6077    141.70112   -4725.9066 
 1351600    739.99381   -4872.5335    135.25151    -4737.282 
 1351800     777.4331     -4873.27    142.09444   -4731.1755 
 1352000    765.76645   -4868.6078    139.96208   -4728.6457 
 1352200    748.64212   -4872.6569     136.8322   -4735.8247 
 1352400    772.35619   -4868.4219    141.16651   -4727.2554 
 1352600    789.54235    -4867.739    144.30769   -4723.4313 
 1352800    742.62365   -4867.2489    135.73218   -4731.5167 
 1353000    799.53895   -4875.3402    146.13481   -4729.2053 
 1353200    765.77093   -4870.2123     139.9629   -4730.2494 
 1353400    791.03598   -4870.5348    144.58069   -4725.9541 
 1353600    787.87671   -4868.6573    144.00326   -4724.6541 
 1353800    803.26206   -4873.8484     146.8153   -4727.0331 
 1354000    770.25879   -4873.4771    140.78316   -4732.6939 
 1354200    788.23072   -4873.0467    144.06796   -4728.9788 
 1354400     763.2347   -4866.9723    139.49934    -4727.473 
 1354600    744.92194   -4865.7313    136.15225    -4729.579 
 1354800     760.7693   -4867.3681    139.04873   -4728.3193 
 1355000    771.21362   -4868.9102    140.95768   -4727.9525 
 1355200    745.50564   -4871.4893    136.25893   -4735.2304 
 1355400    775.87655    -4862.335    141.80994    -4720.525 
 1355600    785.68038   -4868.3432    143.60182   -4724.7414 
 1355800    736.59669   -4870.4177    134.63061   -4735.7871 
 1356000    776.11257   -4871.3869    141.85308   -4729.5339 
 1356200    784.23087   -4868.9639    143.33689    -4725.627 
 1356400    772.36287   -4868.2509    141.16773   -4727.0831 
 1356600    788.50675   -4869.7396    144.11841   -4725.6212 
 1356800    769.12912   -4872.4119    140.57669   -4731.8352 
 1357000    761.51616   -4870.6478    139.18524   -4731.4626 
 1357200    792.07289   -4862.0052    144.77021    -4717.235 
 1357400    770.89799   -4865.6682    140.89999   -4724.7682 
 1357600    761.75682   -4872.6537    139.22922   -4733.4245 
 1357800    761.04072   -4867.0944    139.09834    -4727.996 
 1358000    751.47394   -4864.1321    137.34978   -4726.7823 
 1358200    769.86338   -4862.7363    140.71089   -4722.0254 
 1358400    784.14581   -4870.1072    143.32135   -4726.7859 
 1358600    772.92128   -4876.3777    141.26979   -4735.1079 
 1358800    785.49386    -4866.894    143.56773   -4723.3263 
 1359000     778.7238   -4867.4925    142.33034   -4725.1622 
 1359200    777.61094   -4873.9515    142.12694   -4731.8245 
 1359400    780.12463   -4872.5809    142.58638   -4729.9945 
 1359600    753.98786   -4871.4949    137.80926   -4733.6857 
 1359800    788.76031   -4868.7435    144.16476   -4724.5787 
 1360000    796.95864   -4870.3293    145.66319   -4724.6661 
 1360200     738.1421   -4867.2919    134.91307   -4732.3788 
 1360400    783.69566   -4865.2035    143.23907   -4721.9644 
 1360600    760.92485   -4864.6195    139.07716   -4725.5423 
 1360800    745.86703   -4875.7896    136.32499   -4739.4646 
 1361000    782.59415   -4873.5496    143.03774   -4730.5118 
 1361200    792.25445   -4868.5702    144.80339   -4723.7668 
 1361400    762.17124   -4867.9695    139.30497   -4728.6645 
 1361600    786.12467   -4870.4244    143.68303   -4726.7413 
 1361800    768.72333   -4869.3445    140.50252    -4728.842 
 1362000    789.97555   -4869.6247    144.38687   -4725.2379 
 1362200    773.99018   -4868.0081    141.46516    -4726.543 
 1362400    768.23221   -4870.0747    140.41276    -4729.662 
 1362600    801.34004   -4870.2723      146.464   -4723.8083 
 1362800    772.00428   -4867.4929    141.10219   -4726.3907 
 1363000    769.78325   -4872.5258    140.69624   -4731.8296 
 1363200    786.64887   -4868.1853    143.77884   -4724.4065 
 1363400    770.80588   -4865.4251    140.88315   -4724.5419 
 1363600    773.26141   -4867.3686    141.33196   -4726.0366 
 1363800    766.29034   -4866.1495    140.05783   -4726.0917 
 1364000    766.96084   -4870.1225    140.18038   -4729.9421 
 1364200     777.2342   -4871.0397    142.05808   -4728.9816 
 1364400    811.80997   -4871.2593    148.37763   -4722.8817 
 1364600    772.19536   -4872.5316    141.13712   -4731.3945 
 1364800    780.00488   -4869.2608    142.56449   -4726.6963 
 1365000    806.46717   -4870.1567    147.40111   -4722.7556 
 1365200    765.15116    -4871.582    139.84962   -4731.7324 
 1365400    795.63721   -4877.4128    145.42167   -4731.9911 
 1365600    789.70865   -4870.6244    144.33809   -4726.2863 
 1365800    776.06689   -4870.6151    141.84473   -4728.7704 
 1366000    781.05304   -4870.3936    142.75607   -4727.6375 
 1366200    783.64426   -4866.5722    143.22967   -4723.3425 
 1366400      752.455   -4869.9723    137.52909   -4732.4432 
 1366600    783.27449   -4869.2568    143.16209   -4726.0947 
 1366800    792.69871   -4870.8891    144.88459   -4726.0045 
 1367000     777.7859   -4871.1354    142.15892   -4728.9765 
 1367200     768.1716   -4866.7665    140.40168   -4726.3649 
 1367400    789.57703   -4866.4871    144.31403   -4722.1731 
 1367600    773.13483   -4866.3772    141.30882   -4725.0684 
 1367800    759.42217   -4867.0207    138.80251   -4728.2182 
 1368000    804.80775   -4867.1248    147.09781    -4720.027 
 1368200    790.62031   -4867.8004    144.50471   -4723.2957 
 1368400     762.2139    -4869.362    139.31277   -4730.0492 
 1368600    789.82911   -4866.2865     144.3601   -4721.9264 
 1368800    781.87574   -4867.8089    142.90643   -4724.9025 
 1369000     761.4177   -4871.4126    139.16724   -4732.2453 
 1369200    786.17353   -4861.2051    143.69196   -4717.5131 
 1369400    779.57823   -4865.0126    142.48651   -4722.5261 
 1369600    756.56752   -4875.1599    138.28076   -4736.8792 
 1369800    799.24609   -4869.1983    146.08128   -4723.1171 
 1370000    774.61591   -4868.7665    141.57953   -4727.1869 
 1370200    759.53387   -4871.3994    138.82293   -4732.5765 
 1370400    791.84888   -4863.5239    144.72927   -4718.7947 
 1370600    796.17823   -4869.1703    145.52056   -4723.6497 
 1370800    760.25628   -4872.3117    138.95496   -4733.3567 
 1371000    788.89391   -4867.7737    144.18917   -4723.5845 
 1371200     787.1398   -4864.3914    143.86857   -4720.5228 
 1371400    763.81931   -4862.4658    139.60619   -4722.8596 
 1371600     795.0051    -4865.953    145.30614   -4720.6469 
 1371800    783.04903   -4869.4217    143.12088   -4726.3008 
 1372000    790.47522   -4870.6538    144.47819   -4726.1756 
 1372200    771.22017   -4862.0889    140.95888     -4721.13 
 1372400    772.65933   -4865.4816    141.22192   -4724.2597 
 1372600    743.72497   -4867.1458    135.93347   -4731.2123 
 1372800    808.03199   -4872.7889    147.68711   -4725.1018 
 1373000    763.67972   -4865.7666    139.58068   -4726.1859 
 1373200    780.04369   -4869.6528    142.57158   -4727.0812 
 1373400    782.10974   -4869.7594     142.9492   -4726.8102 
 1373600    803.71633   -4871.4011    146.89832   -4724.5027 
 1373800    766.18881   -4864.7189    140.03928   -4724.6796 
 1374000    750.03404   -4867.0972    137.08661   -4730.0106 
 1374200    808.83559   -4873.3431    147.83399   -4725.5091 
 1374400    797.83303   -4867.3834    145.82301   -4721.5604 
 1374600     797.2336   -4873.1801    145.71345   -4727.4667 
 1374800    778.20825   -4869.8499    142.23611   -4727.6138 
 1375000    800.24838   -4872.9792    146.26447   -4726.7148 
 1375200    763.06971    -4863.455    139.46918   -4723.9858 
 1375400    798.75391   -4867.5664    145.99132   -4721.5751 
 1375600    765.32858   -4874.7284    139.88205   -4734.8464 
 1375800    785.05967   -4870.5906    143.48837   -4727.1022 
 1376000    764.97657   -4861.1185    139.81771   -4721.3008 
 1376200    767.87102   -4864.0856    140.34674   -4723.7388 
 1376400    753.20485   -4864.6011    137.66615   -4726.9349 
 1376600    776.01154   -4869.6193    141.83461   -4727.7847 
 1376800    797.76791   -4865.9052    145.81111   -4720.0941 
 1377000    800.54697   -4864.2269    146.31905   -4717.9079 
 1377200    761.58658   -4865.4635    139.19811   -4726.2654 
 1377400    783.41889    -4872.338    143.18848   -4729.1495 
 1377600    787.44093   -4865.2623    143.92361   -4721.3387 
 1377800    797.34877   -4866.0369     145.7345   -4720.3024 
 1378000    787.53779   -4870.4484    143.94131   -4726.5071 
 1378200    791.70045   -4868.9632    144.70214    -4724.261 
 1378400    775.85025   -4865.3729    141.80513   -4723.5678 
 1378600    769.61517   -4864.2979    140.66552   -4723.6324 
 1378800    759.93746   -4861.6107    138.89669    -4722.714 
 1379000     771.9019   -4868.2936    141.08348   -4727.2101 
 1379200    769.10553   -4863.5792    140.57238   -4723.0068 
 1379400    791.67172   -4866.2775    144.69689   -4721.5806 
 1379600    774.11767   -4868.6036    141.48846   -4727.1152 
 1379800    767.30067   -4868.2274    140.24249   -4727.9849 
 1380000    804.66694   -4868.5016    147.07207   -4721.4295 
 1380200    777.75944   -4866.3823    142.15408   -4724.2282 
 1380400    789.26974   -4866.0473    144.25787   -4721.7894 
 1380600    802.91136   -4865.4556     146.7512   -4718.7044 
 1380800    760.69686    -4868.587    139.03549   -4729.5515 
 1381000    795.01168    -4867.482    145.30734   -4722.1747 
 1381200    797.23259   -4867.0824    145.71327   -4721.3692 
 1381400     765.8112   -4869.3573    139.97026   -4729.3871 
 1381600    790.75448   -4862.6143    144.52924   -4718.0851 
 1381800    772.24128   -4863.9567    141.14551   -4722.8112 
 1382000    787.19386   -4866.5093    143.87845   -4722.6308 
 1382200    790.99314   -4865.1548    144.57286   -4720.5819 
 1382400    783.96147   -4866.8426    143.28765    -4723.555 
 1382600    787.03673   -4868.4095    143.84973   -4724.5598 
 1382800    778.41066   -4863.7573    142.27311   -4721.4842 
 1383000    799.40355   -4866.9404    146.11006   -4720.8304 
 1383200    788.65196   -4866.9268    144.14495   -4722.7818 
 1383400    799.72021   -4863.5563    146.16794   -4717.3884 
 1383600    801.17061   -4864.1784    146.43303   -4717.7454 
 1383800    767.66798   -4868.5142    140.30963   -4728.2045 
 1384000    772.35526   -4869.2521    141.16634   -4728.0858 
 1384200    797.58709   -4865.1191    145.77806   -4719.3411 
 1384400    785.81221    -4862.355    143.62592   -4718.7291 
 1384600    761.69599   -4866.6044    139.21811   -4727.3863 
 1384800    765.52907   -4865.9233    139.91869   -4726.0046 
 1385000    776.63739   -4861.1308      141.949   -4719.1818 
 1385200    785.08842   -4867.2999    143.49363   -4723.8063 
 1385400    761.37693   -4864.0221    139.15979   -4724.8623 
 1385600    795.99109   -4864.3263    145.48635     -4718.84 
 1385800    774.98306     -4862.66    141.64663   -4721.0133 
 1386000    797.33082   -4863.0445    145.73122   -4717.3133 
 1386200    758.59705   -4868.5077     138.6517    -4729.856 
 1386400    769.20502   -4867.0739    140.59056   -4726.4833 
 1386600    813.65678   -4859.3797    148.71518   -4710.6645 
 1386800     777.4209   -4862.6038    142.09221   -4720.5116 
 1387000    753.44561   -4866.9788    137.71015   -4729.2687 
 1387200    817.27338   -4870.9231     149.3762   -4721.5469 
 1387400     788.1289   -4867.0422    144.04935   -4722.9929 
 1387600    760.93899    -4860.356    139.07974   -4721.2763 
 1387800    800.44705   -4863.0555    146.30079   -4716.7547 
 1388000    788.85248   -4867.7695     144.1816   -4723.5879 
 1388200    804.49751   -4866.6896     147.0411   -4719.6485 
 1388400    795.25513   -4860.6678    145.35184    -4715.316 
 1388600    795.57422   -4867.0702    145.41016   -4721.6601 
 1388800    770.79112   -4867.7655    140.88046    -4726.885 
 1389000    803.68272   -4864.5684    146.89218   -4717.6762 
 1389200    792.73017   -4868.5505    144.89034   -4723.6601 
 1389400    764.22349   -4867.0229    139.68007   -4727.3428 
 1389600    808.31783   -4867.5701    147.73936   -4719.8307 
 1389800    793.27454   -4868.0745    144.98984   -4723.0846 
 1390000    792.74738   -4868.9896    144.89349   -4724.0961 
 1390200    799.39916   -4866.3517    146.10926   -4720.2425 
 1390400    785.91523   -4872.3152    143.64475   -4728.6704 
 1390600    792.67541   -4863.7672    144.88033   -4718.8869 
 1390800    811.60118   -4861.8291    148.33947   -4713.4897 
 1391000    766.31205   -4870.6292     140.0618   -4730.5674 
 1391200     772.9257   -4868.3056     141.2706    -4727.035 
 1391400    791.73325   -4859.4892    144.70813    -4714.781 
 1391600    776.94718   -4863.5172    142.00562   -4721.5116 
 1391800     774.7448   -4867.7141    141.60309    -4726.111 
 1392000    809.23381   -4868.1575    147.90677   -4720.2507 
 1392200    785.63884   -4860.4209    143.59423   -4716.8267 
 1392400    794.06755   -4867.5327    145.13478   -4722.3979 
 1392600    779.44003   -4869.2466    142.46125   -4726.7854 
 1392800    781.74367   -4863.0308     142.8823   -4720.1485 
 1393000    821.66102   -4867.0275    150.17814   -4716.8493 
 1393200    766.77939   -4862.5918    140.14722   -4722.4446 
 1393400    785.22386   -4864.3096    143.51838   -4720.7913 
 1393600    796.48545   -4867.6493    145.57671   -4722.0726 
 1393800    786.04348   -4869.9571    143.66819   -4726.2889 
 1394000    798.92167    -4863.578    146.02198    -4717.556 
 1394200    782.97494   -4862.7459    143.10734   -4719.6386 
 1394400    753.08806   -4864.5171     137.6448   -4726.8723 
 1394600    791.76727   -4864.8627    144.71435   -4720.1484 
 1394800    790.63986    -4866.273    144.50829   -4721.7647 
 1395000    786.04497   -4868.5876    143.66846   -4724.9191 
 1395200    789.07152   -4864.2339    144.22164   -4720.0123 
 1395400    773.60681   -4863.4281    141.39509   -4722.0331 
 1395600    777.51224   -4862.5311     142.1089   -4720.4222 
 1395800    800.96656   -4862.2697    146.39574   -4715.8739 
 1396000    769.13549   -4868.8982    140.57785   -4728.3204 
 1396200    778.04639   -4863.4846    142.20653    -4721.278 
 1396400    791.96774    -4855.498    144.75099    -4710.747 
 1396600    780.33469   -4871.5958    142.62477    -4728.971 
 1396800     763.2056   -4866.5135    139.49402   -4727.0195 
 1397000    817.68116   -4862.2669    149.45073   -4712.8161 
 1397200    764.99288   -4866.9275    139.82069   -4727.1068 
 1397400     780.1877   -4866.6713    142.59791   -4724.0734 
 1397600    808.46188   -4862.2529    147.76569   -4714.4872 
 1397800    768.22464   -4868.9212    140.41137   -4728.5099 
 1398000    796.63433   -4862.7991    145.60392   -4717.1952 
 1398200    799.85322   -4860.4775    146.19225   -4714.2852 
 1398400    777.52859   -4871.3681    142.11189   -4729.2562 
 1398600    763.79375   -4858.6264    139.60152   -4719.0249 
 1398800    797.97529   -4860.0417    145.84901   -4714.1927 
 1399000    803.57454   -4866.6393    146.87241   -4719.7669 
 1399200    781.96754   -4863.5579    142.92321   -4720.6347 
 1399400    791.14408   -4865.5758    144.60045   -4720.9753 
 1399600    803.64344   -4862.7336      146.885   -4715.8486 
 1399800    784.01666   -4859.3378    143.29774   -4716.0401 
 1400000     769.1831   -4865.2275    140.58655    -4724.641 
 1400200    795.39642   -4868.6221    145.37766   -4723.2445 
 1400400    787.36282   -4865.2836    143.90933   -4721.3743 
 1400600    787.12285   -4865.3191    143.86547   -4721.4537 
 1400800    784.55163   -4868.7242    143.39552   -4725.3286 
 1401000    813.93675   -4871.1801    148.76635   -4722.4138 
 1401200    784.89969    -4865.412    143.45913   -4721.9529 
 1401400    803.66568   -4864.2793    146.88907   -4717.3902 
 1401600    788.81777     -4869.79    144.17526   -4725.6147 
 1401800    805.02193   -4872.1426    147.13695   -4725.0057 
 1402000    785.23599   -4867.5197     143.5206   -4723.9991 
 1402200    783.77628   -4865.2781     143.2538   -4722.0242 
 1402400    794.57311   -4865.0663    145.22718   -4719.8391 
 1402600    771.01031   -4865.2098    140.92052   -4724.2893 
 1402800     785.1136   -4867.0896    143.49823   -4723.5913 
 1403000    822.92802   -4869.9399    150.40972   -4719.5302 
 1403200     788.5987   -4866.5278    144.13522   -4722.3926 
 1403400    775.76896   -4860.6842    141.79028    -4718.894 
 1403600    789.48358   -4863.4789    144.29695    -4719.182 
 1403800    780.64176   -4864.6124     142.6809   -4721.9315 
 1404000    791.86391   -4866.3801    144.73201    -4721.648 
 1404200    778.71673   -4865.7309    142.32905   -4723.4018 
 1404400    804.81711   -4866.9637    147.09952   -4719.8642 
 1404600    816.42368   -4865.4218    149.22089   -4716.2009 
 1404800    787.38255   -4866.7716    143.91294   -4722.8586 
 1405000    802.94869   -4870.8491    146.75802   -4724.0911 
 1405200    805.76895   -4863.2412    147.27349   -4715.9677 
 1405400    784.41779   -4871.4398    143.37106   -4728.0688 
 1405600    797.60151   -4869.3692    145.78069   -4723.5885 
 1405800    822.74964   -4864.1536    150.37712   -4713.7765 
 1406000    767.58823   -4866.5125    140.29505   -4726.2175 
 1406200    800.73559   -4864.6785    146.35352   -4718.3249 
 1406400    789.19128   -4860.1735    144.24352     -4715.93 
 1406600    771.96765   -4867.8946     141.0955   -4726.7991 
 1406800    799.12244   -4862.5974    146.05868   -4716.5387 
 1407000    819.00959   -4866.2765    149.69353    -4716.583 
 1407200    792.39963   -4873.5235    144.82993   -4728.6936 
 1407400    801.04072   -4867.6959    146.40929   -4721.2866 
 1407600    809.63243   -4866.6812    147.97963   -4718.7016 
 1407800    773.98459   -4871.0227    141.46414   -4729.5585 
 1408000    809.48893     -4865.11     147.9534   -4717.1566 
 1408200    802.69528   -4869.2156     146.7117   -4722.5038 
 1408400    786.03696   -4872.1794      143.667   -4728.5124 
 1408600    818.42153   -4863.4577    149.58605   -4713.8717 
 1408800     780.2484   -4870.2768      142.609   -4727.6678 
 1409000    780.07686   -4871.1199    142.57765   -4728.5423 
 1409200    806.78299   -4862.0713    147.45883   -4714.6125 
 1409400    775.85713   -4867.6356    141.80639   -4725.8292 
 1409600     784.5902   -4867.8294    143.40257   -4724.4268 
 1409800    816.41515   -4863.3751    149.21934   -4714.1558 
 1410000    801.53879   -4866.2914    146.50033   -4719.7911 
 1410200      780.823   -4868.5436    142.71402   -4725.8296 
 1410400    807.14365   -4861.9752    147.52475   -4714.4505 
 1410600    796.13068   -4870.3566    145.51186   -4724.8448 
 1410800    792.72561   -4871.7299    144.88951   -4726.8404 
 1411000     812.5715   -4858.2048    148.51682    -4709.688 
 1411200     788.4553   -4864.2365    144.10901   -4720.1275 
 1411400    805.44339    -4868.604    147.21399     -4721.39 
 1411600    798.90283   -4864.0546    146.01854   -4718.0361 
 1411800    793.57184    -4867.733    145.04418   -4722.6889 
 1412000    784.43974   -4865.9561    143.37507   -4722.5811 
 1412200    784.10692   -4862.5271    143.31424   -4719.2129 
 1412400    797.27496   -4866.6833    145.72101   -4720.9623 
 1412600    803.79849   -4866.8611    146.91334   -4719.9477 
 1412800    797.86967   -4864.2013    145.82971   -4718.3716 
 1413000    775.87005    -4865.129    141.80875   -4723.3203 
 1413200      789.167   -4869.3671    144.23909    -4725.128 
 1413400    812.17856   -4864.1234      148.445   -4715.6784 
 1413600    820.28869   -4865.5221    149.92732   -4715.5948 
 1413800    782.93771   -4869.6965    143.10053   -4726.5959 
 1414000    798.74273   -4861.8268    145.98928   -4715.8376 
 1414200    784.92359   -4861.7809     143.4635   -4718.3174 
 1414400    795.80322   -4870.1616    145.45201   -4724.7096 
 1414600    796.67161   -4867.4975    145.61073   -4721.8868 
 1414800    790.46238   -4866.1843    144.47585   -4721.7084 
 1415000    783.45977   -4865.0291    143.19596   -4721.8332 
 1415200    778.45587    -4862.287    142.28137   -4720.0057 
 1415400    801.35345   -4866.0802    146.46645   -4719.6137 
 1415600    787.27081   -4864.8402    143.89251   -4720.9477 
 1415800    793.73269   -4864.7012    145.07358   -4719.6276 
 1416000     792.9017   -4861.8827    144.92169    -4716.961 
 1416200      811.437   -4865.4527    148.30946   -4717.1433 
 1416400    795.74644   -4867.1915    145.44164   -4721.7499 
 1416600    791.85499   -4863.7585    144.73038   -4719.0281 
 1416800    806.15439   -4866.0948    147.34394   -4718.7509 
 1417000    780.15614   -4866.2946    142.59214   -4723.7025 
 1417200    807.78885   -4866.4374    147.64267   -4718.7948 
 1417400    806.46696   -4863.9265    147.40107   -4716.5254 
 1417600    788.11412   -4865.7098    144.04665   -4721.6631 
 1417800    798.53062    -4867.209    145.95051   -4721.2584 
 1418000    836.79677   -4865.3378    152.94456   -4712.3933 
 1418200    790.43822   -4868.8949    144.47143   -4724.4235 
 1418400    785.90915   -4864.1741    143.64364   -4720.5304 
 1418600    846.22982   -4862.4948    154.66868   -4707.8261 
 1418800      776.944   -4867.2901    142.00504    -4725.285 
 1419000    779.11906   -4871.8148    142.40259   -4729.4122 
 1419200    806.51861   -4863.2262    147.41051   -4715.8157 
 1419400    789.54519   -4863.3786    144.30821   -4719.0704 
 1419600    761.52335   -4861.1676    139.18655    -4721.981 
 1419800    819.28337   -4869.0001    149.74357   -4719.2565 
 1420000    777.50514   -4864.6918     142.1076   -4722.5842 
 1420200    818.06297   -4866.1956    149.52051   -4716.6751 
 1420400    772.75414   -4859.6723    141.23925   -4718.4331 
 1420600    789.23703   -4865.8939    144.25189   -4721.6421 
 1420800    810.27647   -4865.1365    148.09735   -4717.0392 
 1421000    794.48361   -4859.2361    145.21082   -4714.0253 
 1421200    789.73308    -4865.859    144.34255   -4721.5164 
 1421400    793.09421   -4865.6846    144.95688   -4720.7277 
 1421600    833.37287   -4864.2145    152.31876   -4711.8958 
 1421800    796.35915   -4869.2601    145.55362   -4723.7064 
 1422000    779.04353   -4862.1749    142.38878   -4719.7861 
 1422200    812.96956   -4860.3076    148.58957    -4711.718 
 1422400    777.00468   -4865.9526    142.01613   -4723.9364 
 1422600    811.02231   -4865.8701    148.23367   -4717.6364 
 1422800    822.25866   -4864.5949    150.28738   -4714.3075 
 1423000    763.30972   -4866.5188    139.51305   -4727.0058 
 1423200    815.44536   -4861.7804    149.04208   -4712.7383 
 1423400    786.89333   -4862.2871    143.82352   -4718.4635 
 1423600    777.54851   -4871.0532    142.11553   -4728.9376 
 1423800    812.34761   -4862.9901     148.4759   -4714.5142 
 1424000    804.34768   -4864.3888    147.01372   -4717.3751 
 1424200    791.68865   -4867.3447    144.69998   -4722.6447 
 1424400    776.46841   -4861.3326    141.91812   -4719.4144 
 1424600    805.63587   -4866.5131    147.24917    -4719.264 
 1424800    784.61644   -4865.1545    143.40736   -4721.7471 
 1425000    814.36608   -4864.8816    148.84482   -4716.0368 
 1425200    803.34658     -4866.55    146.83074   -4719.7192 
 1425400    767.84972   -4864.0904    140.34285   -4723.7475 
 1425600    796.86868   -4860.4247    145.64675    -4714.778 
 1425800    799.16452   -4862.5999    146.06637   -4716.5335 
 1426000    798.17055   -4864.8078     145.8847   -4718.9231 
 1426200    804.84786   -4864.7894    147.10514   -4717.6843 
 1426400    765.89809   -4864.1987    139.98614   -4724.2125 
 1426600     787.3871   -4860.8124    143.91377   -4716.8986 
 1426800     815.5287   -4862.0186    149.05732   -4712.9613 
 1427000     788.5641   -4868.9203    144.12889   -4724.7914 
 1427200     809.5689    -4869.817    147.96802    -4721.849 
 1427400    804.81979   -4862.8842    147.10001   -4715.7842 
 1427600    788.27692   -4862.5185     144.0764   -4718.4421 
 1427800    809.11481   -4861.6052    147.88502   -4713.7202 
 1428000    804.66831    -4865.876    147.07232   -4718.8037 
 1428200     797.3347   -4870.1776    145.73193   -4724.4457 
 1428400    803.52323   -4864.7612    146.86303   -4717.8982 
 1428600     826.3403   -4864.4989    151.03339   -4713.4655 
 1428800    778.16316   -4864.0402    142.22787   -4721.8123 
 1429000    806.51565   -4867.6919    147.40997   -4720.2819 
 1429200    800.40033   -4862.0735    146.29225   -4715.7812 
 1429400    802.66975   -4866.8062    146.70704   -4720.0991 
 1429600    804.71651   -4865.6792    147.08113   -4718.5981 
 1429800    797.01166   -4863.7445    145.67288   -4718.0716 
 1430000    807.91343   -4867.2452    147.66544   -4719.5798 
 1430200    812.78025   -4863.8821    148.55497   -4715.3271 
 1430400    790.13057   -4861.7974     144.4152   -4717.3822 
 1430600    817.71104   -4866.4053    149.45619   -4716.9491 
 1430800    804.33135   -4868.7889    147.01073   -4721.7782 
 1431000    802.91418   -4867.0164    146.75171   -4720.2647 
 1431200    816.63673   -4862.5649    149.25984    -4713.305 
 1431400    815.73651   -4868.5794     149.0953   -4719.4841 
 1431600    759.75701   -4867.4315    138.86371   -4728.5678 
 1431800    809.05815   -4860.3415    147.87467   -4712.4668 
 1432000    792.14954   -4861.0616    144.78422   -4716.2774 
 1432200    798.04382   -4869.7843    145.86154   -4723.9228 
 1432400    801.00942    -4865.089    146.40357   -4718.6854 
 1432600    781.33498   -4861.6406     142.8076    -4718.833 
 1432800     823.4127   -4866.4887     150.4983   -4715.9903 
 1433000    831.37346   -4862.0283    151.95332    -4710.075 
 1433200     772.8609   -4864.7967    141.25876   -4723.5379 
 1433400     771.6084   -4862.8386    141.02983   -4721.8088 
 1433600    831.88592   -4858.0484    152.04699   -4706.0014 
 1433800    793.56098   -4865.6012    145.04219    -4720.559 
 1434000    766.42498   -4872.7914    140.08244   -4732.7089 
 1434200    850.75127   -4863.1171    155.49508   -4707.6221 
 1434400    803.98351   -4862.5271    146.94716   -4715.5799 
 1434600    771.00861   -4869.0356    140.92021   -4728.1154 
 1434800    815.33655   -4865.5116     149.0222   -4716.4894 
 1435000    788.39827   -4867.7288    144.09858   -4723.6302 
 1435200    796.55347   -4867.2657    145.58914   -4721.6765 
 1435400     839.9034   -4864.5498    153.51237   -4711.0374 
 1435600    800.38707   -4869.3128    146.28982    -4723.023 
 1435800    819.14673   -4869.4895     149.7186   -4719.7709 
 1436000    819.80034   -4864.0499    149.83806   -4714.2118 
 1436200    797.82929   -4871.1761    145.82233   -4725.3537 
 1436400    811.25487   -4861.8111    148.27617   -4713.5349 
 1436600    822.64856   -4865.7866    150.35864    -4715.428 
 1436800    787.57312   -4869.6238    143.94777    -4725.676 
 1437000    812.33236   -4868.6757    148.47311   -4720.2026 
 1437200    797.17233   -4863.4424    145.70225   -4717.7401 
 1437400    851.13358   -4870.1581    155.56496   -4714.5932 
 1437600    786.97174   -4871.4436    143.83785   -4727.6057 
 1437800    779.67443   -4867.1876    142.50409   -4724.6835 
 1438000    803.32498   -4860.4418     146.8268    -4713.615 
 1438200    798.91711   -4869.6263    146.02115   -4723.6052 
 1438400    801.54157   -4864.6125    146.50083   -4718.1116 
 1438600    841.36012   -4867.8025    153.77862   -4714.0239 
 1438800    770.54323   -4864.8038    140.83515   -4723.9686 
 1439000    792.19543   -4860.8592    144.79261   -4716.0666 
 1439200    819.61044   -4864.1874    149.80335   -4714.3841 
 1439400    802.13863   -4870.2183    146.60996   -4723.6084 
 1439600     836.0401   -4863.7111    152.80626   -4710.9049 
 1439800    812.84352   -4870.6995    148.56653    -4722.133 
 1440000    802.84921   -4878.2298    146.73984   -4731.4899 
 1440200    794.24547   -4861.0797     145.1673   -4715.9124 
 1440400    802.28984   -4857.9614     146.6376   -4711.3238 
 1440600    774.50182   -4860.7351    141.55867   -4719.1764 
 1440800    794.67932    -4859.753     145.2466   -4714.5064 
 1441000    809.30307   -4863.0274    147.91943    -4715.108 
 1441200    803.77453   -4863.8331    146.90896   -4716.9241 
 1441400    800.34644   -4864.5128     146.2824   -4718.2304 
 1441600    804.03213   -4867.2437    146.95604   -4720.2877 
 1441800    831.92901   -4865.8782    152.05486   -4713.8233 
 1442000    816.66442   -4864.6522     149.2649   -4715.3873 
 1442200    820.08879   -4869.6288    149.89078    -4719.738 
 1442400    830.61814   -4865.2401    151.81527   -4713.4248 
 1442600    810.51622   -4861.7111    148.14117   -4713.5699 
 1442800    804.73152   -4869.1366    147.08387   -4722.0527 
 1443000    787.45496   -4865.9846    143.92617   -4722.0584 
 1443200    819.83941   -4866.2789     149.8452   -4716.4337 
 1443400    810.43181   -4861.8757    148.12574     -4713.75 
 1443600    801.14527   -4864.4252     146.4284   -4717.9968 
 1443800    793.89723   -4864.1949    145.10365   -4719.0912 
 1444000    808.20026   -4860.0883    147.71787   -4712.3704 
 1444200    818.51723   -4863.2971    149.60354   -4713.6936 
 1444400    791.96624    -4863.226    144.75072   -4718.4753 
 1444600    796.71589   -4861.4835    145.61883   -4715.8647 
 1444800    784.84108   -4863.9568    143.44842   -4720.5083 
 1445000    816.23093   -4868.6961    149.18567   -4719.5105 
 1445200    788.35596   -4858.8965    144.09085   -4714.8056 
 1445400    821.70684   -4865.2074    150.18652   -4715.0209 
 1445600    794.95109   -4865.3546    145.29627   -4720.0584 
 1445800    784.11314   -4860.3837    143.31537   -4717.0683 
 1446000    842.79087   -4862.3489    154.04013   -4708.3088 
 1446200    791.70013   -4865.5957    144.70208   -4720.8937 
 1446400    803.49329   -4869.5619    146.85756   -4722.7043 
 1446600    808.72447   -4861.9856    147.81368   -4714.1719 
 1446800    793.32847   -4863.6495    144.99969   -4718.6498 
 1447000    793.76608   -4859.4985    145.07968   -4714.4188 
 1447200    827.20194    -4866.659    151.19088   -4715.4682 
 1447400    789.43982   -4869.3741    144.28895   -4725.0852 
 1447600    808.77008   -4862.9367    147.82202   -4715.1147 
 1447800    808.92517   -4860.4678    147.85036   -4712.6174 
 1448000    784.12063   -4862.4535    143.31674   -4719.1368 
 1448200    786.00583   -4858.1313    143.66131     -4714.47 
 1448400    796.24649   -4858.8273    145.53303   -4713.2943 
 1448600    800.42336   -4863.8482    146.29646   -4717.5517 
 1448800    822.63791   -4860.5746    150.35669   -4710.2179 
 1449000    778.55491   -4857.8596    142.29948   -4715.5601 
 1449200     810.4652   -4867.9277    148.13184   -4719.7959 
 1449400    803.69798   -4857.7619    146.89497    -4710.867 
 1449600    814.24989   -4863.3274    148.82358   -4714.5038 
 1449800    785.33814   -4862.4211    143.53927   -4718.8818 
 1450000     831.0118   -4863.7356    151.88722   -4711.8484 
 1450200    806.87873   -4853.2444    147.47633   -4705.7681 
 1450400    808.15387   -4860.4211    147.70939   -4712.7118 
 1450600    795.88093    -4867.617    145.46622   -4722.1508 
 1450800    793.14866   -4859.4482    144.96683   -4714.4813 
 1451000     841.7766   -4860.2795    153.85475   -4706.4247 
 1451200    789.88813   -4863.8823    144.37089   -4719.5114 
 1451400    808.86591   -4863.4795    147.83953     -4715.64 
 1451600    838.36236   -4862.1842    153.23071   -4708.9534 
 1451800     803.3517   -4862.0143    146.83168   -4715.1827 
 1452000    813.11893   -4858.6903    148.61687   -4710.0734 
 1452200    815.99178   -4864.0088    149.14196   -4714.8669 
 1452400    811.97443    -4865.546    148.40769   -4717.1384 
 1452600    813.27914   -4857.9803    148.64616   -4709.3341 
 1452800    827.77018   -4866.8913    151.29474   -4715.5966 
 1453000    804.19049   -4868.3407    146.98499   -4721.3557 
 1453200    804.94096   -4856.9078    147.12215   -4709.7856 
 1453400    803.58979   -4856.8528     146.8752   -4709.9776 
 1453600     800.7208   -4864.6152    146.35082   -4718.2644 
 1453800    817.54079   -4863.8231    149.42507    -4714.398 
 1454000     808.5236   -4864.0365    147.77697   -4716.2595 
 1454200    794.48798   -4861.7976    145.21162    -4716.586 
 1454400    831.75014   -4863.7071    152.02217   -4711.6849 
 1454600    803.61572   -4864.1317    146.87993   -4717.2518 
 1454800    829.77688   -4865.9694    151.66151   -4714.3079 
 1455000    816.74948   -4862.1364    149.28044   -4712.8559 
 1455200    802.89358   -4859.5221    146.74795   -4712.7742 
 1455400    804.91665   -4858.3548    147.11771   -4711.2371 
 1455600    788.22523   -4859.6874    144.06696   -4715.6204 
 1455800    816.71011   -4861.6564    149.27325   -4712.3832 
 1456000    828.54165   -4864.3836    151.43574   -4712.9479 
 1456200    803.45566    -4864.659    146.85068   -4717.8083 
 1456400    804.43743   -4861.5585    147.03012   -4714.5284 
 1456600    814.79913   -4855.9029    148.92397   -4706.9789 
 1456800    792.59675   -4861.5745    144.86595   -4716.7086 
 1457000    805.94218    -4864.063    147.30515   -4716.7578 
 1457200    820.28484   -4859.5984    149.92661   -4709.6718 
 1457400    791.71749   -4862.2418    144.70525   -4717.5365 
 1457600    835.97116   -4862.5285    152.79366   -4709.7348 
 1457800    845.78017   -4866.7577    154.58649   -4712.1712 
 1458000    799.29621    -4870.086    146.09044   -4723.9956 
 1458200    841.01246   -4867.7207    153.71508   -4714.0056 
 1458400    803.90358   -4854.8708    146.93255   -4707.9382 
 1458600    804.52291   -4864.1079    147.04575   -4717.0622 
 1458800     820.6583   -4863.7769    149.99487    -4713.782 
 1459000    820.55979   -4857.5009    149.97687   -4707.5241 
 1459200    804.12369   -4863.3234    146.97278   -4716.3506 
 1459400    782.07602   -4862.7198    142.94304   -4719.7768 
 1459600    830.06649   -4864.1124    151.71444   -4712.3979 
 1459800    811.54021   -4862.0411    148.32832   -4713.7127 
 1460000    786.63336   -4861.4429      143.776   -4717.6669 
 1460200    811.73825   -4861.5391    148.36452   -4713.1746 
 1460400     802.0598   -4859.2849    146.59555   -4712.6893 
 1460600    793.71001   -4864.6698    145.06943   -4719.6004 
 1460800    804.15984   -4861.4536    146.97939   -4714.4742 
 1461000    823.93658   -4862.2247    150.59406   -4711.6307 
 1461200     796.2239   -4862.0923     145.5289   -4716.5634 
 1461400    834.03669   -4869.7386    152.44009   -4717.2985 
 1461600    815.92434   -4863.8341    149.12963   -4714.7045 
 1461800    811.39206   -4865.8305    148.30125   -4717.5293 
 1462000    847.73815   -4860.3332    154.94436   -4705.3889 
 1462200    822.48025    -4865.035    150.32788   -4714.7072 
 1462400     779.5861    -4866.153    142.48795   -4723.6651 
 1462600    808.27492   -4855.9444    147.73151   -4708.2129 
 1462800    828.35478   -4861.2662    151.40159   -4709.8646 
 1463000    777.04555   -4866.4906     142.0236    -4724.467 
 1463200    833.87697   -4863.0158     152.4109   -4710.6049 
 1463400    825.06736   -4860.9985    150.80073   -4710.1977 
 1463600    777.51903   -4858.0676    142.11014   -4715.9574 
 1463800    854.66085   -4859.5509    156.20965   -4703.3412 
 1464000    827.23819   -4867.1826     151.1975   -4715.9851 
 1464200    795.84428   -4870.2376    145.45952    -4724.778 
 1464400    823.22146   -4857.4946    150.46335   -4707.0313 
 1464600    820.35101    -4856.732    149.93871   -4706.7933 
 1464800    776.25365   -4863.1927    141.87886   -4721.3138 
 1465000    834.37279   -4858.7911    152.50152   -4706.2896 
 1465200    799.76197    -4860.859    146.17557   -4714.6834 
 1465400     779.4509   -4863.8864    142.46324   -4721.4231 
 1465600    812.98193   -4852.2404    148.59183   -4703.6486 
 1465800    818.84825   -4859.6444    149.66404   -4709.9803 
 1466000    781.60361   -4863.4628     142.8567   -4720.6061 
 1466200     836.0598   -4861.2975    152.80986   -4708.4876 
 1466400    806.92602   -4864.5919    147.48497   -4717.1069 
 1466600    788.54089   -4866.2051    144.12465   -4722.0804 
 1466800    868.97309   -4865.7895    158.82555   -4706.9639 
 1467000    810.69168   -4864.0557    148.17324   -4715.8824 
 1467200    775.77455   -4864.2589     141.7913   -4722.4676 
 1467400    816.67324   -4856.0541    149.26651   -4706.7875 
 1467600    807.92999   -4860.8198    147.66847   -4713.1513 
 1467800    816.31888   -4866.7894    149.20174   -4717.5877 
 1468000    791.00114     -4857.33    144.57432   -4712.7557 
 1468200    799.51031   -4856.4845    146.12957   -4710.3549 
 1468400    829.40631   -4863.8408    151.59378    -4712.247 
 1468600    799.59879   -4862.5472    146.14574   -4716.4015 
 1468800    821.11037   -4867.0625     150.0775    -4716.985 
 1469000    810.22572   -4859.7875    148.08807   -4711.6994 
 1469200    827.67918   -4860.2665    151.27811   -4708.9884 
 1469400    814.53886   -4862.6295     148.8764   -4713.7532 
 1469600    797.91598   -4861.1082    145.83817     -4715.27 
 1469800    814.79187   -4857.3571    148.92264   -4708.4344 
 1470000     822.8303   -4863.7936    150.39186   -4713.4018 
 1470200    821.81824   -4862.7568    150.20688   -4712.5499 
 1470400    831.36561   -4864.8002    151.95189   -4712.8483 
 1470600    795.07406   -4864.2291    145.31874   -4718.9104 
 1470800     832.6706   -4858.9938    152.19041   -4706.8034 
 1471000    780.38594    -4858.822    142.63414   -4716.1879 
 1471200    831.39801   -4867.6583    151.95781   -4715.7005 
 1471400    797.75637   -4855.5974      145.809   -4709.7884 
 1471600    803.79347   -4857.8834    146.91242   -4710.9709 
 1471800    806.57587   -4864.9011    147.42097   -4717.4801 
 1472000    822.78624   -4859.7565    150.38381   -4709.3727 
 1472200    822.17823   -4861.8252    150.27268   -4711.5525 
 1472400     779.8091   -4860.0277    142.52871   -4717.4989 
 1472600    863.58403   -4867.8462    157.84057   -4710.0057 
 1472800    799.94102   -4857.3096     146.2083   -4711.1013 
 1473000     791.2385   -4861.6677     144.6177     -4717.05 
 1473200    833.78821   -4862.8753    152.39468   -4710.4806 
 1473400    810.82826   -4859.4025     148.1982   -4711.2043 
 1473600    790.75689   -4865.4415    144.52968   -4720.9118 
 1473800    823.11516   -4869.8398    150.44392   -4719.3959 
 1474000    850.25691   -4867.0651    155.40473   -4711.6603 
 1474200    831.18798   -4862.0258    151.91942   -4710.1064 
 1474400    795.85088   -4859.8108    145.46073   -4714.3501 
 1474600    812.33443   -4866.1785    148.47349    -4717.705 
 1474800    822.68423   -4867.7822    150.36516   -4717.4171 
 1475000    820.29292   -4866.1551    149.92809    -4716.227 
 1475200    821.56852   -4861.7384    150.16124   -4711.5771 
 1475400    810.14471   -4858.1671    148.07326   -4710.0939 
 1475600    807.88922    -4862.636    147.66102   -4714.9749 
 1475800    818.86261   -4866.7434    149.66667   -4717.0767 
 1476000    806.00445   -4861.1037    147.31653   -4713.7871 
 1476200    796.85867   -4861.0636    145.64492   -4715.4187 
 1476400    815.95097   -4867.2909     149.1345   -4718.1564 
 1476600    848.77059    -4862.906    155.13306   -4707.7729 
 1476800    812.27143   -4859.4794    148.46197   -4711.0174 
 1477000    832.34842   -4863.9418    152.13152   -4711.8103 
 1477200    840.82133   -4867.6223    153.68015   -4713.9422 
 1477400    817.93823   -4865.5058    149.49772   -4716.0081 
 1477600    842.56846   -4857.5243    153.99948   -4703.5248 
 1477800    814.86456   -4862.0858    148.93593   -4713.1499 
 1478000    806.96766   -4868.3705    147.49258   -4720.8779 
 1478200    823.84592   -4860.6819    150.57749   -4710.1044 
 1478400    806.71912   -4860.4775    147.44716   -4713.0304 
 1478600    806.18623   -4858.4131    147.34976   -4711.0633 
 1478800    835.31944   -4858.8677    152.67455   -4706.1932 
 1479000    805.10076   -4867.3889    147.15136   -4720.2376 
 1479200    824.30705   -4866.5687    150.66177   -4715.9069 
 1479400    857.66649   -4859.0572      156.759   -4702.2982 
 1479600    796.63315   -4859.0919     145.6037   -4713.4882 
 1479800    796.43635   -4861.4011    145.56773   -4715.8334 
 1480000    843.13188   -4863.0285    154.10246    -4708.926 
 1480200    804.56445   -4859.3549    147.05334   -4712.3015 
 1480400    828.11131   -4855.4698    151.35709   -4704.1127 
 1480600    825.38451   -4862.7832     150.8587   -4711.9245 
 1480800    793.18238   -4865.6864    144.97299   -4720.7134 
 1481000    837.42086   -4858.5258    153.05863   -4705.4672 
 1481200    829.48035   -4860.8603    151.60731    -4709.253 
 1481400    796.68068   -4865.3331    145.61239   -4719.7207 
 1481600    837.09983    -4860.724    152.99996    -4707.724 
 1481800    797.87834   -4857.9976    145.83129   -4712.1663 
 1482000    792.21622   -4856.0384     144.7964    -4711.242 
 1482200    838.68085   -4860.4071    153.28892   -4707.1181 
 1482400     795.6389   -4864.8876    145.42198   -4719.4656 
 1482600    816.06831   -4863.2215    149.15594   -4714.0655 
 1482800    829.74773   -4854.1812    151.65618   -4702.5251 
 1483000    803.62408     -4860.87    146.88146   -4713.9886 
 1483200     802.9348   -4865.3254    146.75548   -4718.5699 
 1483400    843.44829   -4861.6216    154.16029   -4707.4613 
 1483600    800.03044    -4850.895    146.22464   -4704.6703 
 1483800    808.74988   -4858.5338    147.81833   -4710.7155 
 1484000    793.55383    -4861.527    145.04088   -4716.4861 
 1484200    810.90361   -4859.5468    148.21197   -4711.3348 
 1484400    812.23762   -4855.0782    148.45579   -4706.6224 
 1484600    839.43609   -4859.1098    153.42696   -4705.6828 
 1484800    810.92541   -4858.4629    148.21596    -4710.247 
 1485000    785.75937   -4856.4888    143.61626   -4712.8725 
 1485200    836.29029   -4861.4039    152.85199   -4708.5519 
 1485400     822.7998   -4859.3467    150.38628   -4708.9605 
 1485600    842.07897   -4863.1431    153.91001   -4709.2331 
 1485800    802.93455   -4859.0245    146.75544   -4712.2691 
 1486000    824.28398   -4862.9957    150.65755   -4712.3382 
 1486200    835.30545   -4861.9633    152.67199   -4709.2913 
 1486400    805.64673    -4857.535    147.25115   -4710.2839 
 1486600    832.81961    -4862.685    152.21764   -4710.4674 
 1486800    848.19908   -4866.2491    155.02861   -4711.2205 
 1487000    801.55558   -4861.9912     146.5034   -4715.4878 
 1487200    833.17677   -4859.4984    152.28292   -4707.2155 
 1487400    800.25073   -4858.6883     146.2649   -4712.4234 
 1487600    801.67342   -4859.9952    146.52493   -4713.4703 
 1487800     850.0938   -4852.6208    155.37491   -4697.2459 
 1488000    813.36299   -4855.9337    148.66148   -4707.2722 
 1488200    834.84844    -4868.264    152.58846   -4715.6756 
 1488400     809.3863   -4861.0974    147.93465   -4713.1628 
 1488600    825.84465   -4856.9965     150.9428   -4706.0537 
 1488800    830.94899   -4860.0735    151.87574   -4708.1978 
 1489000    821.37528   -4864.2829    150.12592   -4714.1569 
 1489200    811.20147   -4861.9969    148.26641   -4713.7305 
 1489400    802.03876   -4859.4746    146.59171   -4712.8829 
 1489600    825.54032   -4863.0365    150.88718   -4712.1493 
 1489800    810.31491   -4862.2242    148.10437   -4714.1198 
 1490000    838.11472   -4863.4244    153.18545    -4710.239 
 1490200     790.1455   -4857.7287    144.41793   -4713.3108 
 1490400    807.43184   -4865.9435    147.57742    -4718.366 
 1490600    845.35353   -4861.3689    154.50852   -4706.8604 
 1490800    827.47852   -4858.8255    151.24143   -4707.5841 
 1491000    846.47221   -4870.0325    154.71298   -4715.3195 
 1491200    827.95834   -4866.2544    151.32913   -4714.9253 
 1491400    821.55967   -4860.6445    150.15962   -4710.4849 
 1491600      831.506   -4865.1798    151.97755   -4713.2022 
 1491800    815.33723   -4863.9836    149.02232   -4714.9613 
 1492000    822.34594   -4864.8664    150.30333   -4714.5631 
 1492200    815.44383   -4859.9861     149.0418   -4710.9443 
 1492400    842.53466   -4855.4335     153.9933   -4701.4402 
 1492600    802.33755   -4859.2873    146.64632    -4712.641 
 1492800    796.72051   -4867.9683    145.61967   -4722.3486 
 1493000    829.67355   -4859.1057    151.64262   -4707.4631 
 1493200     835.9201   -4855.8265    152.78433   -4703.0422 
 1493400    811.54713   -4861.7988    148.32959   -4713.4692 
 1493600    808.48008   -4858.6678    147.76901   -4710.8988 
 1493800    820.16494   -4859.7621     149.9047   -4709.8574 
 1494000    823.03215   -4863.2645    150.42875   -4712.8357 
 1494200    825.57959   -4857.1388    150.89436   -4706.2444 
 1494400    784.93746   -4856.3498    143.46604   -4712.8838 
 1494600     814.3085    -4864.921     148.8343   -4716.0867 
 1494800      807.198   -4853.3858    147.53468   -4705.8511 
 1495000    828.50659   -4858.9246    151.42934   -4707.4953 
 1495200    788.51628   -4864.4065    144.12015   -4720.2864 
 1495400    828.55348   -4860.9844    151.43791   -4709.5465 
 1495600    870.96482   -4861.5532    159.18959   -4702.3636 
 1495800    794.88615    -4859.379     145.2844   -4714.0946 
 1496000    828.07796   -4861.0631    151.35099   -4709.7121 
 1496200    814.75182   -4855.3622    148.91532   -4706.4469 
 1496400    826.12118   -4863.1812    150.99334   -4712.1879 
 1496600    825.31282   -4858.1448     150.8456   -4707.2992 
 1496800    852.04271   -4858.5939    155.73112   -4702.8628 
 1497000    793.48841   -4861.7606    145.02893   -4716.7317 
 1497200    789.25983   -4854.9389    144.25605   -4710.6828 
 1497400    860.85911   -4856.9213    157.34253   -4699.5788 
 1497600    830.23754   -4861.2513    151.74571   -4709.5056 
 1497800    819.08467   -4863.1055    149.70725   -4713.3983 
 1498000    835.27769   -4858.0434    152.66692   -4705.3765 
 1498200     837.7286   -4863.3015    153.11488   -4710.1866 
 1498400    817.50084   -4860.0109    149.41777   -4710.5932 
 1498600    812.61087   -4856.8688    148.52401   -4708.3447 
 1498800    801.29016   -4856.5395    146.45488   -4710.0846 
 1499000    801.78621   -4855.4113    146.54555   -4708.8657 
 1499200     807.5397   -4854.3606    147.59714   -4706.7635 
 1499400    834.75293   -4861.4451      152.571   -4708.8741 
 1499600     809.1872   -4860.3336    147.89826   -4712.4353 
 1499800    838.01112   -4859.5798    153.16652   -4706.4133 
 1500000    833.23788   -4859.8868    152.29409   -4707.5927 
 1500200    821.29433   -4865.9659    150.11112   -4715.8548 
 1500400    850.50653    -4861.077    155.45035   -4705.6266 
 1500600     815.1784   -4857.4112    148.99329   -4708.4179 
 1500800    803.18066   -4858.9564    146.80042   -4712.1559 
 1501000    822.41108   -4860.9703    150.31524   -4710.6551 
 1501200    833.91226   -4861.8611    152.41735   -4709.4437 
 1501400    834.75498   -4859.9332    152.57138   -4707.3619 
 1501600       840.39   -4859.0674    153.60131   -4705.4661 
 1501800    809.49139   -4861.5266    147.95385   -4713.5728 
 1502000    842.67374   -4865.0284    154.01872   -4711.0097 
 1502200     870.8942   -4860.0106    159.17668    -4700.834 
 1502400     806.1359   -4860.7287    147.34056   -4713.3881 
 1502600    812.95795   -4858.8423    148.58745   -4710.2548 
 1502800    839.83684   -4850.4449    153.50021   -4696.9447 
 1503000    814.52965   -4859.6693    148.87472   -4710.7946 
 1503200    792.98512   -4859.6926    144.93694   -4714.7556 
 1503400    841.73563   -4855.1843    153.84726    -4701.337 
 1503600    827.90491   -4859.6813    151.31936   -4708.3619 
 1503800    823.88006   -4861.7709    150.58373   -4711.1871 
 1504000     842.6508   -4855.6241    154.01453   -4701.6095 
 1504200    809.34684    -4859.112    147.92743   -4711.1845 
 1504400    837.41543   -4866.8502    153.05764   -4713.7925 
 1504600    811.76506   -4849.7831    148.36942   -4701.4137 
 1504800    833.27709   -4856.3263    152.30126    -4704.025 
 1505000    789.03992   -4857.4982    144.21586   -4713.2824 
 1505200    835.28293     -4855.01    152.66787   -4702.3421 
 1505400    825.77875   -4856.4154    150.93076   -4705.4847 
 1505600    841.10048   -4867.1255    153.73117   -4713.3944 
 1505800    861.07673   -4861.6692     157.3823   -4704.2869 
 1506000    841.11504   -4857.1431    153.73383   -4703.4093 
 1506200    799.28471   -4857.0721    146.08834   -4710.9838 
 1506400    836.19775   -4860.1511    152.83508   -4707.3161 
 1506600    807.65318   -4859.7125    147.61788   -4712.0946 
 1506800    819.04581   -4859.3019    149.70015   -4709.6018 
 1507000    869.14171   -4859.6273    158.85637   -4700.7709 
 1507200    820.09907   -4865.8735    149.89266   -4715.9808 
 1507400    798.33218   -4861.5079    145.91424   -4715.5937 
 1507600    867.50049   -4853.5658     158.5564   -4695.0094 
 1507800    821.10698   -4857.0217    150.07688   -4706.9448 
 1508000    808.67075    -4865.695    147.80386   -4717.8911 
 1508200      835.431   -4857.2029    152.69494    -4704.508 
 1508400    816.30986   -4851.6998    149.20009   -4702.4997 
 1508600    818.48098   -4860.7493    149.59692   -4711.1524 
 1508800    854.52724   -4860.3718    156.18523   -4704.1866 
 1509000    827.55402   -4859.7268    151.25523   -4708.4715 
 1509200    789.18939   -4857.1374    144.24318   -4712.8943 
 1509400    826.88396   -4848.4678    151.13276   -4697.3351 
 1509600    843.16665   -4855.0541    154.10881   -4700.9453 
 1509800    823.66764   -4861.5538     150.5449   -4711.0089 
 1510000    827.29746   -4853.9857    151.20834   -4702.7774 
 1510200    854.81362   -4860.5026    156.23757    -4704.265 
 1510400    776.50725   -4855.3048    141.92522   -4713.3796 
 1510600    819.56765   -4854.5102    149.79553   -4704.7147 
 1510800    848.00427   -4861.2955      154.993   -4706.3025 
 1511000    819.23938    -4862.627    149.73553   -4712.8915 
 1511200    833.81488   -4857.6099    152.39955   -4705.2103 
 1511400    851.69789   -4855.8332     155.6681   -4700.1651 
 1511600    824.56976   -4861.4474    150.70979   -4710.7376 
 1511800    826.61443   -4863.2991     151.0835   -4712.2156 
 1512000    822.19161   -4855.8044    150.27512   -4705.5293 
 1512200    811.74053   -4855.0238    148.36494   -4706.6589 
 1512400    825.54603   -4860.7134    150.88822   -4709.8252 
 1512600    818.04892   -4858.7151    149.51795   -4709.1971 
 1512800    824.77832   -4854.9213     150.7479   -4704.1734 
 1513000    812.12286   -4849.0289    148.43482   -4700.5941 
 1513200    850.27231   -4855.4748    155.40754   -4700.0672 
 1513400    804.06589   -4861.1166    146.96221   -4714.1544 
 1513600    852.78658   -4864.6877    155.86708   -4708.8206 
 1513800    826.18764    -4849.948    151.00549   -4698.9425 
 1514000    812.04294   -4847.2591    148.42021   -4698.8389 
 1514200    814.66478   -4856.0243    148.89941   -4707.1249 
 1514400    814.47649   -4862.1879      148.865   -4713.3229 
 1514600    867.78404    -4863.073    158.60823   -4704.4647 
 1514800     822.9036   -4856.4523    150.40526    -4706.047 
 1515000    823.02681   -4860.3672    150.42778   -4709.9394 
 1515200     848.5063   -4865.8957    155.08476    -4710.811 
 1515400    819.35048    -4859.391    149.75584   -4709.6351 
 1515600    847.52151   -4859.6368    154.90477    -4704.732 
 1515800    813.31122    -4858.926    148.65202    -4710.274 
 1516000     844.7336   -4862.4024    154.39521   -4708.0072 
 1516200    830.34805   -4857.7457    151.76591   -4705.9798 
 1516400    810.46674   -4855.8439    148.13212   -4707.7118 
 1516600    829.46922   -4854.7677    151.60528   -4703.1624 
 1516800    824.43459     -4858.04    150.68508    -4707.355 
 1517000     822.7476   -4860.0227    150.37674    -4709.646 
 1517200    826.74708   -4852.7429    151.10774   -4701.6352 
 1517400    838.17255   -4857.9267    153.19602   -4704.7306 
 1517600      820.245   -4862.5587    149.91933   -4712.6393 
 1517800    848.38959    -4865.486    155.06343   -4710.4225 
 1518000    830.43698   -4857.5668    151.78216   -4705.7847 
 1518200    834.18697   -4858.1932    152.46756   -4705.7256 
 1518400    802.91206   -4860.5162    146.75132   -4713.7649 
 1518600    857.78703   -4855.8966    156.78103   -4699.1155 
 1518800    831.39886   -4855.8059    151.95797   -4703.8479 
 1519000    826.64662   -4859.5758    151.08938   -4708.4864 
 1519200    859.08927   -4855.7963    157.01905   -4698.7773 
 1519400    832.41217   -4860.3137    152.14317   -4708.1706 
 1519600    846.43117   -4862.7039    154.70548   -4707.9984 
 1519800    849.51905   -4857.2227    155.26986   -4701.9528 
 1520000    809.95458   -4859.1969    148.03851   -4711.1584 
 1520200    827.65967    -4855.119    151.27454   -4703.8445 
 1520400    856.83542   -4855.8589     156.6071   -4699.2518 
 1520600    818.05631    -4861.303     149.5193   -4711.7837 
 1520800    842.14158   -4859.5712    153.92146   -4705.6497 
 1521000    844.02177   -4856.8181     154.2651    -4702.553 
 1521200    830.66985   -4863.8253    151.82472   -4712.0005 
 1521400    844.45452    -4856.443     154.3442   -4702.0988 
 1521600    863.61975   -4856.2695     157.8471   -4698.4224 
 1521800    808.30409   -4865.6393    147.73685   -4717.9025 
 1522000    832.41824   -4860.6231    152.14428   -4708.4788 
 1522200    857.00003   -4855.6988    156.63719   -4699.0616 
 1522400    838.52019   -4859.5694    153.25956   -4706.3098 
 1522600    838.60795     -4859.16     153.2756   -4705.8844 
 1522800    831.90721    -4858.506    152.05088   -4706.4551 
 1523000    837.67769   -4857.2272    153.10557   -4704.1216 
 1523200    847.78649   -4851.3954     154.9532   -4696.4422 
 1523400    817.69133   -4858.7671    149.45259   -4709.3145 
 1523600    827.36829   -4858.3371    151.22128   -4707.1159 
 1523800    856.76786   -4854.0485    156.59476   -4697.4538 
 1524000    820.77324   -4856.1065    150.01588   -4706.0906 
 1524200    800.08837   -4856.2035    146.23523   -4709.9683 
 1524400    844.94946   -4856.8734    154.43466   -4702.4388 
 1524600    829.95541   -4858.7787    151.69414   -4707.0846 
 1524800    844.54195   -4858.6778    154.36018   -4704.3177 
 1525000    863.46033   -4855.4446    157.81796   -4697.6266 
 1525200    815.48436   -4860.4535    149.04921   -4711.4043 
 1525400    828.95616   -4856.1171     151.5115   -4704.6056 
 1525600    858.82869    -4851.082    156.97142   -4694.1106 
 1525800    827.30527   -4861.9012    151.20977   -4710.6914 
 1526000    845.11223   -4859.8119    154.46441   -4705.3475 
 1526200    863.87348   -4854.7767    157.89348   -4696.8832 
 1526400    855.85872   -4865.0271    156.42859   -4708.5985 
 1526600    853.57679   -4864.3154    156.01151   -4708.3039 
 1526800    854.38674   -4853.7185    156.15955   -4697.5589 
 1527000    816.50316   -4858.5672    149.23542   -4709.3318 
 1527200    848.12855   -4859.5421    155.01572   -4704.5263 
 1527400    847.57226   -4855.0695    154.91404   -4700.1555 
 1527600    828.67072   -4856.4243    151.45933    -4704.965 
 1527800    873.41001   -4855.4671    159.63651   -4695.8306 
 1528000    875.78545   -4856.6461    160.07067   -4696.5754 
 1528200    825.85026   -4863.4165    150.94383   -4712.4726 
 1528400     838.9466   -4854.9468     153.3375   -4701.6093 
 1528600    856.93155   -4849.3917    156.62467    -4692.767 
 1528800    811.27318    -4853.897    148.27952   -4705.6174 
 1529000    819.13565   -4852.1598    149.71657   -4702.4432 
 1529200    847.62076   -4854.9098    154.92291   -4699.9869 
 1529400    815.23862   -4855.9359     149.0043   -4706.9316 
 1529600    879.33738   -4854.3886    160.71987   -4693.6688 
 1529800     838.1848   -4860.7594    153.19826   -4707.5611 
 1530000    822.47478   -4855.2942    150.32688   -4704.9674 
 1530200    878.10553   -4854.6664    160.49472   -4694.1717 
 1530400    823.18605    -4857.263    150.45688   -4706.8061 
 1530600    824.76262   -4859.6096    150.74503   -4708.8645 
 1530800     848.9391   -4860.2842    155.16386   -4705.1203 
 1531000    831.22423   -4854.9741    151.92605    -4703.048 
 1531200    816.33284   -4852.1817    149.20429   -4702.9774 
 1531400    861.95335   -4863.1558    157.54253   -4705.6133 
 1531600    842.11967     -4863.44    153.91745   -4709.5225 
 1531800    842.02812   -4861.7556    153.90072   -4707.8549 
 1532000    837.79486   -4852.5978    153.12699   -4699.4708 
 1532200    832.57535     -4853.11      152.173    -4700.937 
 1532400      836.136   -4861.0634    152.82379   -4708.2396 
 1532600     858.7388   -4860.6333    156.95499   -4703.6783 
 1532800    834.56413   -4861.3389     152.5365   -4708.8025 
 1533000    846.67493   -4860.0246    154.75003   -4705.2746 
 1533200    836.19353   -4857.1797    152.83431   -4704.3454 
 1533400     813.8736   -4858.9102    148.75481   -4710.1554 
 1533600    852.15901   -4851.5131    155.75238   -4695.7608 
 1533800    843.35989   -4852.5353    154.14413   -4698.3912 
 1534000    815.05373   -4861.3784     148.9705   -4712.4079 
 1534200    821.73205   -4859.3583    150.19113   -4709.1672 
 1534400    870.76709   -4852.9488    159.15345   -4693.7954 
 1534600    833.58697   -4854.6555     152.3579   -4702.2976 
 1534800    819.14818   -4858.9501    149.71886   -4709.2313 
 1535000    852.74909   -4859.5993    155.86023    -4703.739 
 1535200    850.65641   -4859.5503    155.47774   -4704.0725 
 1535400    834.48814   -4859.7984    152.52261   -4707.2758 
 1535600    853.80438   -4859.5462    156.05311   -4703.4931 
 1535800    817.03541   -4858.0641     149.3327   -4708.7314 
 1536000    859.78685   -4860.0618    157.14655   -4702.9152 
 1536200    853.94084   -4858.9225    156.07805   -4702.8444 
 1536400    803.74336   -4861.2141    146.90327   -4714.3108 
 1536600    852.29647   -4861.2839     155.7775   -4705.5064 
 1536800    843.27728   -4857.4723    154.12903   -4703.3433 
 1537000     817.3838   -4858.6166    149.39638   -4709.2202 
 1537200    815.89377   -4857.6474    149.12404   -4708.5234 
 1537400    845.04564   -4859.7263    154.45224   -4705.2741 
 1537600    827.04018   -4863.1057    151.16131   -4711.9444 
 1537800    841.97532   -4861.0395    153.89107   -4707.1484 
 1538000    851.20753   -4856.1998    155.57847   -4700.6213 
 1538200    840.06115   -4862.0726    153.54121   -4708.5314 
 1538400    807.59808   -4859.0605    147.60781   -4711.4527 
 1538600    867.44992   -4857.8323    158.54716   -4699.2851 
 1538800    829.77581   -4859.6462    151.66132   -4707.9849 
 1539000    831.15442   -4861.1096    151.91329   -4709.1963 
 1539200    871.52107   -4856.4534    159.29126   -4697.1622 
 1539400    807.39706   -4854.2761    147.57107   -4706.7051 
 1539600    813.49752   -4856.1113    148.68607   -4707.4252 
 1539800    849.74651   -4850.9861    155.31144   -4695.6747 
 1540000    848.02805   -4860.2568    154.99735   -4705.2594 
 1540200    820.20591   -4859.4958    149.91219   -4709.5836 
 1540400    866.09947   -4860.6753    158.30033   -4702.3749 
 1540600    820.59374    -4856.398    149.98307   -4706.4149 
 1540800    860.94884   -4851.7791    157.35893   -4694.4201 
 1541000    832.57843   -4854.1758    152.17356   -4702.0022 
 1541200    807.78471   -4855.6167    147.64192   -4707.9748 
 1541400    900.28743   -4854.8258    164.54899   -4690.2768 
 1541600    828.69856   -4859.2803    151.46442   -4707.8159 
 1541800    812.04164    -4855.254    148.41997   -4706.8341 
 1542000    846.73068   -4850.0775    154.76022   -4695.3172 
 1542200    843.64423   -4859.7688     154.1961   -4705.5727 
 1542400    825.38837   -4859.3582    150.85941   -4708.4988 
 1542600    879.52724   -4852.9403    160.75458   -4692.1858 
 1542800    820.89656   -4855.5884    150.03842     -4705.55 
 1543000    844.94328   -4863.3295    154.43353   -4708.8959 
 1543200    860.38849   -4851.8446    157.25651   -4694.5881 
 1543400    836.87613   -4854.9474    152.95907   -4701.9884 
 1543600    840.38205   -4856.7181    153.59986   -4703.1182 
 1543800    853.34921   -4857.5731    155.96992   -4701.6032 
 1544000    850.96682   -4862.0083    155.53448   -4706.4738 
 1544200    829.91049   -4855.5886    151.68593   -4703.9027 
 1544400    874.65969   -4856.0052    159.86491   -4696.1403 
 1544600    823.09977   -4858.5552    150.44111   -4708.1141 
 1544800     849.9358   -4860.9232    155.34603   -4705.5772 
 1545000    838.46015   -4851.4138    153.24859   -4698.1652 
 1545200    847.72508   -4855.5013    154.94197   -4700.5594 
 1545400     827.6507   -4857.6339     151.2729    -4706.361 
 1545600    838.94177   -4854.6568    153.33661   -4701.3201 
 1545800    847.45353   -4861.8737    154.89234   -4706.9814 
 1546000    827.05016    -4860.671    151.16314   -4709.5079 
 1546200    876.17246    -4858.046    160.14141   -4697.9046 
 1546400    833.63027   -4861.4731    152.36581   -4709.1073 
 1546600     820.2711   -4860.9344     149.9241   -4711.0103 
 1546800    869.75374   -4858.8294    158.96823   -4699.8612 
 1547000    832.17487   -4861.2538     152.0998    -4709.154 
 1547200    848.36784   -4863.6262    155.05945   -4708.5667 
 1547400    839.20048   -4857.1398     153.3839   -4703.7559 
 1547600    849.52063    -4857.308    155.27015   -4702.0378 
 1547800    850.96539   -4856.8516    155.53422   -4701.3173 
 1548000    833.63072   -4859.3265    152.36589   -4706.9606 
 1548200    831.97023   -4859.9001     152.0624   -4707.8377 
 1548400     858.6083   -4848.2691    156.93114   -4691.3379 
 1548600     842.5001   -4852.8046    153.98698   -4698.8176 
 1548800    818.73163   -4859.5224    149.64273   -4709.8796 
 1549000    861.49988   -4856.7343    157.45965   -4699.2746 
 1549200    844.62814   -4852.9015    154.37593   -4698.5255 
 1549400    830.67582   -4853.9602    151.82581   -4702.1344 
 1549600    851.08891   -4856.4975    155.55679   -4700.9407 
 1549800    799.09296   -4855.9386    146.05329   -4709.8853 
 1550000    842.97245   -4854.2734    154.07332   -4700.2001 
 1550200    865.72122   -4855.5932     158.2312    -4697.362 
 1550400    835.41174   -4862.1203    152.69142   -4709.4289 
 1550600    822.53489   -4857.9803    150.33786   -4707.6424 
 1550800    851.69957   -4856.1556    155.66841   -4700.4872 
 1551000    838.74005   -4855.2807    153.29974    -4701.981 
 1551200    833.62225   -4850.2343    152.36434     -4697.87 
 1551400     850.6711   -4851.5868    155.48043   -4696.1064 
 1551600    837.71428   -4855.7152    153.11226    -4702.603 
 1551800    820.13316   -4855.5447    149.89889   -4705.6458 
 1552000    848.39009   -4853.0353    155.06352   -4697.9718 
 1552200    876.13672   -4854.0516    160.13488   -4693.9168 
 1552400    832.88136   -4856.4864    152.22893   -4704.2575 
 1552600    846.62658   -4859.8925     154.7412   -4705.1513 
 1552800    841.71546   -4858.3381    153.84357   -4704.4945 
 1553000    858.56467   -4856.2397    156.92317   -4699.3165 
 1553200    844.15537   -4854.2421    154.28952   -4699.9526 
 1553400     825.3363   -4854.9411    150.84989   -4704.0912 
 1553600    883.84878   -4858.4769    161.54444   -4696.9324 
 1553800    830.92349   -4856.6434    151.87108   -4704.7724 
 1554000    836.56805   -4859.1002    152.90276   -4706.1975 
 1554200     854.8313   -4854.9035     156.2408   -4698.6627 
 1554400    851.98363   -4855.2751    155.72032   -4699.5548 
 1554600     839.1845   -4850.1757    153.38098   -4696.7947 
 1554800    834.79839   -4854.0945    152.57931   -4701.5152 
 1555000    839.06709   -4853.5328    153.35952   -4700.1733 
 1555200    841.85462   -4850.8559    153.86901   -4696.9869 
 1555400     851.4683   -4858.2728    155.62614   -4702.6467 
 1555600    859.33381    -4859.106    157.06374   -4702.0423 
 1555800    863.29396   -4854.2659    157.78756   -4696.4784 
 1556000    831.87682   -4857.2808    152.04532   -4705.2355 
 1556200    847.63167   -4860.3789     154.9249    -4705.454 
 1556400    862.40236   -4855.5981     157.6246   -4697.9735 
 1556600    805.62057   -4854.8544    147.24637    -4707.608 
 1556800    828.08291   -4852.4053     151.3519   -4701.0534 
 1557000    837.19171   -4849.1513    153.01675   -4696.1345 
 1557200    831.56526   -4856.6612    151.98838   -4704.6728 
 1557400    823.23382   -4851.4367    150.46561   -4700.9711 
 1557600     861.1423   -4854.6646    157.39429   -4697.2703 
 1557800    811.73355   -4859.4623    148.36366   -4711.0986 
 1558000    872.93507   -4855.1807     159.5497    -4695.631 
 1558200    878.51021    -4847.741    160.56869   -4687.1723 
 1558400     828.4293   -4852.0812    151.41521    -4700.666 
 1558600    834.97375   -4858.0316    152.61136   -4705.4203 
 1558800    857.64277   -4850.4757    156.75467   -4693.7211 
 1559000    855.58619    -4854.743    156.37878   -4698.3642 
 1559200    847.18917   -4858.3762    154.84402   -4703.5322 
 1559400     859.9983   -4859.1741     157.1852   -4701.9889 
 1559600    836.49641   -4861.1186    152.88967   -4708.2289 
 1559800    865.05044   -4854.5375    158.10859   -4696.4289 
 1560000    875.29743   -4854.4122    159.98148   -4694.4307 
 1560200    837.32094   -4865.5885    153.04037   -4712.5481 
 1560400    814.82467   -4851.7547    148.92864   -4702.8261 
 1560600    893.75138   -4849.0202    163.35438   -4685.6658 
 1560800    822.11067   -4860.1988    150.26033   -4709.9385 
 1561000    826.11272      -4857.7     150.9918   -4706.7082 
 1561200     890.3603   -4851.3471    162.73457   -4688.6125 
 1561400    818.08731   -4850.3711    149.52496   -4700.8461 
 1561600    821.96573    -4850.921    150.23384   -4700.6872 
 1561800    858.18683   -4860.2725    156.85411   -4703.4184 
 1562000    820.03907   -4853.6245    149.88169   -4703.7428 
 1562200    864.82099   -4848.6373    158.06666   -4690.5707 
 1562400    824.81217   -4847.5229    150.75409   -4696.7689 
 1562600    831.05567   -4861.5254    151.89524   -4709.6301 
 1562800     843.5937   -4851.5662    154.18686   -4697.3794 
 1563000    866.05086   -4849.6533    158.29145   -4691.3618 
 1563200    823.43433   -4856.4989    150.50226   -4705.9967 
 1563400    876.25239   -4858.3431    160.15602   -4698.1871 
 1563600    827.26424   -4853.7929    151.20227   -4702.5906 
 1563800     876.1001   -4859.2694    160.12818   -4699.1413 
 1564000    849.94231   -4852.3609    155.34722   -4697.0137 
 1564200    827.49546   -4853.0016    151.24453    -4701.757 
 1564400    834.83671   -4851.8345    152.58631   -4699.2482 
 1564600    841.63433   -4850.1167    153.82874    -4696.288 
 1564800     841.9465   -4854.3967     153.8858   -4700.5109 
 1565000     877.1104   -4855.8321    160.31284   -4695.5193 
 1565200    847.69925   -4855.1833    154.93725    -4700.246 
 1565400    844.25094   -4857.4799    154.30699   -4703.1729 
 1565600    827.91328   -4850.4523    151.32089   -4699.1314 
 1565800    858.91957   -4853.0888    156.98803   -4696.1008 
 1566000     839.8337   -4858.4646    153.49963    -4704.965 
 1566200    866.99318     -4856.61    158.46368   -4698.1463 
 1566400    855.97532   -4854.0835     156.4499   -4697.6336 
 1566600    822.55247   -4853.7347    150.34108   -4703.3936 
 1566800    856.81865     -4853.15    156.60404   -4696.5459 
 1567000    852.16181   -4856.2179    155.75289    -4700.465 
 1567200    834.93223   -4849.7098    152.60377    -4697.106 
 1567400    868.60951   -4848.9207     158.7591   -4690.1616 
 1567600     849.1154   -4860.4014    155.19609   -4705.2053 
 1567800    852.27456   -4861.2335     155.7735     -4705.46 
 1568000    852.23605   -4850.4754    155.76646    -4694.709 
 1568200    838.00033   -4850.8741    153.16454   -4697.7096 
 1568400    856.68069   -4856.6664    156.57882   -4700.0876 
 1568600     872.0489   -4856.1912    159.38773   -4696.8035 
 1568800    862.42533   -4862.0828    157.62879   -4704.4541 
 1569000    857.62334   -4858.2471    156.75112    -4701.496 
 1569200    851.55956   -4846.8388    155.64282    -4691.196 
 1569400    840.37923   -4851.9689    153.59934   -4698.3695 
 1569600    813.27009   -4852.2618     148.6445   -4703.6173 
 1569800     855.5033   -4850.8399    156.36363   -4694.4763 
 1570000    848.43345   -4857.4368    155.07144   -4702.3653 
 1570200    805.17759   -4846.9223     147.1654   -4699.7569 
 1570400    851.53631   -4846.6575    155.63857   -4691.0189 
 1570600    830.34901   -4853.8915    151.76608   -4702.1254 
 1570800    857.48242   -4856.2239    156.72536   -4699.4986 
 1571000    841.56289   -4850.6456    153.81568   -4696.8299 
 1571200    853.46967   -4855.9973    155.99193   -4700.0054 
 1571400    855.00942   -4853.0696    156.27336   -4696.7962 
 1571600    858.37854    -4850.776    156.88915   -4693.8869 
 1571800     858.4539   -4858.3352    156.90292   -4701.4323 
 1572000     827.3843   -4854.8377    151.22421   -4703.6135 
 1572200    860.59309   -4847.7927    157.29391   -4690.4988 
 1572400    824.51748    -4847.715    150.70023   -4697.0148 
 1572600    859.52332   -4857.9225    157.09838   -4700.8242 
 1572800    853.30903   -4851.8166    155.96257    -4695.854 
 1573000    859.84349   -4856.5338     157.1569   -4699.3769 
 1573200    850.14886   -4859.7229    155.38498    -4704.338 
 1573400     894.4349   -4853.9159    163.47931   -4690.4366 
 1573600    854.56569   -4854.2093    156.19226   -4698.0171 
 1573800    816.12522   -4853.6165    149.16634   -4704.4502 
 1574000    870.95232   -4851.9507     159.1873   -4692.7634 
 1574200    868.09385   -4854.5812    158.66485   -4695.9163 
 1574400    841.36157   -4855.6431    153.77889   -4701.8642 
 1574600    870.81731   -4849.9136    159.16263   -4690.7509 
 1574800    837.81679   -4852.8329      153.131   -4699.7019 
 1575000      830.567   -4853.4925    151.80592   -4701.6866 
 1575200    874.30157   -4851.9838    159.79946   -4692.1843 
 1575400    838.81333   -4848.6303    153.31314   -4695.3172 
 1575600    834.36434   -4855.3433    152.49998   -4702.8433 
 1575800    865.12773   -4858.2564    158.12272   -4700.1337 
 1576000    853.09873   -4855.0422    155.92414    -4699.118 
 1576200    848.50188   -4854.4789    155.08395    -4699.395 
 1576400    822.84817   -4846.1678    150.39512   -4695.7727 
 1576600     879.2781   -4856.2655    160.70904   -4695.5565 
 1576800    823.46882   -4853.6013    150.50856   -4703.0927 
 1577000    877.93339   -4854.8495    160.46326   -4694.3862 
 1577200     845.4936   -4853.8552    154.53412    -4699.321 
 1577400    838.85404    -4856.328    153.32058   -4703.0074 
 1577600    872.27355   -4850.6912    159.42879   -4691.2625 
 1577800    843.95684   -4853.2132    154.25324   -4698.9599 
 1578000    865.80808   -4861.4005    158.24707   -4703.1535 
 1578200    875.69246   -4851.9081    160.05368   -4691.8544 
 1578400    862.83475   -4853.3049    157.70362   -4695.6012 
 1578600    848.40486   -4855.2352    155.06622   -4700.1689 
 1578800     853.2832   -4851.2119    155.95785    -4695.254 
 1579000    845.32771   -4856.5638     154.5038     -4702.06 
 1579200    836.99008   -4852.6538     152.9799   -4699.6739 
 1579400    844.58552   -4846.9727    154.36814   -4692.6046 
 1579600    843.35439   -4852.1024    154.14312   -4697.9593 
 1579800    830.70673   -4853.9912    151.83146   -4702.1597 
 1580000    874.15131   -4853.4392      159.772   -4693.6672 
 1580200    873.31514    -4851.766    159.61917   -4692.1469 
 1580400    853.66452   -4855.5759    156.02755   -4699.5483 
 1580600    818.01273    -4854.507    149.51133   -4704.9956 
 1580800    858.10112   -4859.3999    156.83844   -4702.5615 
 1581000    871.68757   -4853.5367    159.32169    -4694.215 
 1581200    869.31563   -4854.6508    158.88816   -4695.7627 
 1581400     839.6466   -4859.5172    153.46544   -4706.0518 
 1581600    838.68088   -4856.9931    153.28893   -4703.7042 
 1581800    856.18178   -4853.2469    156.48764   -4696.7593 
 1582000    844.83199    -4853.555    154.41319   -4699.1418 
 1582200    850.80669   -4854.2545    155.50521   -4698.7493 
 1582400    859.98042   -4854.5578    157.18193   -4697.3759 
 1582600    851.62486   -4856.4812    155.65475   -4700.8265 
 1582800    843.48293   -4854.4659    154.16662   -4700.2992 
 1583000    861.87714   -4852.7523     157.5286   -4695.2237 
 1583200    857.23464   -4853.8619    156.68007   -4697.1818 
 1583400    832.10438   -4851.8489    152.08692    -4699.762 
 1583600    851.89632   -4853.0058    155.70437   -4697.3014 
 1583800     871.1319   -4851.0573    159.22013   -4691.8371 
 1584000    848.73624   -4853.9187    155.12679   -4698.7919 
 1584200    834.20183    -4848.362    152.47028   -4695.8918 
 1584400    881.47643   -4854.3747    161.11084   -4693.2639 
 1584600    844.85949   -4860.8619    154.41822   -4706.4437 
 1584800    866.38432   -4854.5171    158.35239   -4696.1647 
 1585000    872.06769   -4852.8993    159.39116   -4693.5082 
 1585200    847.57708   -4853.0271    154.91492   -4698.1121 
 1585400    880.82421   -4860.1876    160.99163   -4699.1959 
 1585600    880.56855   -4856.3395     160.9449   -4695.3946 
 1585800     844.9285   -4848.4199    154.43083    -4693.989 
 1586000    865.67179   -4851.5613    158.22216   -4693.3392 
 1586200    830.71601   -4854.6461    151.83316   -4702.8129 
 1586400    860.24069   -4862.1216     157.2295   -4704.8921 
 1586600    848.51812   -4852.5591    155.08692   -4697.4722 
 1586800    848.37054     -4854.43    155.05995     -4699.37 
 1587000    824.56667   -4853.9051    150.70922   -4703.1959 
 1587200    842.62157   -4844.2067    154.00918   -4690.1975 
 1587400    866.44691   -4851.1396    158.36383   -4692.7757 
 1587600    808.06944   -4858.2224    147.69396   -4710.5284 
 1587800    829.19101   -4849.9607    151.55443   -4698.4063 
 1588000     891.4344   -4852.2974    162.93089   -4689.3665 
 1588200    847.55437   -4861.4106    154.91077   -4706.4998 
 1588400    867.74214   -4859.5471    158.60057   -4700.9465 
 1588600    852.15336   -4848.1594    155.75135    -4692.408 
 1588800    830.92936   -4856.9425    151.87215   -4705.0704 
 1589000    864.96059   -4855.7406    158.09217   -4697.6484 
 1589200    875.83483   -4856.1305     160.0797   -4696.0508 
 1589400    847.97525   -4859.2809     154.9877   -4704.2932 
 1589600    860.52243   -4856.6717    157.28099   -4699.3907 
 1589800    867.25031   -4856.5581    158.51067   -4698.0474 
 1590000    839.80714   -4857.5839    153.49478   -4704.0891 
 1590200    846.93551   -4850.1778    154.79766   -4695.3801 
 1590400    878.86955   -4854.5748    160.63437   -4693.9404 
 1590600    847.15339   -4857.4019    154.83748   -4702.5644 
 1590800    855.41012   -4861.3968     156.3466   -4705.0502 
 1591000    876.93188   -4860.3805    160.28021   -4700.1002 
 1591200    866.52473   -4850.9328    158.37806   -4692.5547 
 1591400    865.66193   -4859.2249    158.22036   -4701.0046 
 1591600    864.52127   -4858.3446    158.01188   -4700.3327 
 1591800    856.53488    -4852.667    156.55217   -4696.1148 
 1592000    857.34874   -4858.1409    156.70093     -4701.44 
 1592200    861.96419   -4856.9908    157.54451   -4699.4463 
 1592400    867.40681   -4856.2421    158.53928   -4697.7028 
 1592600    841.52817   -4853.6959    153.80934   -4699.8865 
 1592800    878.78802   -4857.2114    160.61947   -4696.5919 
 1593000    865.45121    -4852.893    158.18185   -4694.7112 
 1593200    840.71777   -4851.0755    153.66122   -4697.4143 
 1593400    869.15993   -4857.3299     158.8597   -4698.4702 
 1593600    845.02499   -4853.5543    154.44847   -4699.1058 
 1593800    851.78329   -4853.7572    155.68371   -4698.0735 
 1594000    866.70471   -4854.4857    158.41095   -4696.0748 
 1594200    854.45871   -4854.2862     156.1727   -4698.1135 
 1594400    830.92105   -4848.1722    151.87064   -4696.3016 
 1594600    857.82803   -4852.0128    156.78853   -4695.2243 
 1594800    835.59215   -4852.9182    152.72439   -4700.1938 
 1595000    847.85376    -4856.725    154.96549   -4701.7595 
 1595200    874.49087   -4856.1086    159.83406   -4696.2745 
 1595400    865.15695   -4851.0213    158.12806   -4692.8933 
 1595600    862.32085    -4851.751     157.6097   -4694.1413 
 1595800    842.84144   -4850.1806    154.04937   -4696.1312 
 1596000    868.36394   -4854.7762    158.71422    -4696.062 
 1596200    887.14679   -4854.6139    162.14723   -4692.4667 
 1596400     835.0129   -4852.9618    152.61852   -4700.3433 
 1596600    866.33972    -4855.672    158.34424   -4697.3278 
 1596800    873.37337   -4850.4958    159.62981    -4690.866 
 1597000    826.00118   -4849.9401    150.97141   -4698.9687 
 1597200    863.10396   -4850.4524    157.75283   -4692.6996 
 1597400    848.44208    -4847.155    155.07302    -4692.082 
 1597600    840.72402   -4844.8261    153.66236   -4691.1637 
 1597800    875.42322   -4845.1931    160.00447   -4685.1886 
 1598000    862.48426   -4856.1783    157.63956   -4698.5387 
 1598200    841.80807     -4848.42     153.8605   -4694.5595 
 1598400    880.87148   -4849.9301    161.00027   -4688.9298 
 1598600     811.2255   -4851.2338     148.2708    -4702.963 
 1598800    876.62687   -4854.0719    160.22446   -4693.8474 
 1599000    884.49172    -4851.109    161.66195   -4689.4471 
 1599200    856.53087   -4858.9029    156.55144   -4702.3514 
 1599400    851.89309   -4853.5233    155.70378   -4697.8195 
 1599600    872.62796    -4851.296    159.49357   -4691.8024 
 1599800    825.99613    -4848.925    150.97049   -4697.9545 
 1600000    876.79737    -4850.365    160.25563   -4690.1094 
 1600200    843.62866   -4846.9057    154.19325   -4692.7124 
 1600400    879.66202   -4859.9699    160.77921   -4699.1907 
 1600600    849.31502   -4847.8328    155.23257   -4692.6003 
 1600800    864.68189   -4852.7491    158.04123   -4694.7079 
 1601000    867.55296   -4855.3844    158.56599   -4696.8184 
 1601200    867.01554   -4849.2308    158.46776    -4690.763 
 1601400    808.08591   -4848.3604    147.69697   -4700.6634 
 1601600    856.85309   -4855.7426    156.61033   -4699.1323 
 1601800    890.78155   -4846.6657    162.81157   -4683.8542 
 1602000    855.04737    -4851.441    156.28029   -4695.1608 
 1602200    835.17676   -4851.3896    152.64847   -4698.7412 
 1602400    899.07681   -4853.5182    164.32773   -4689.1905 
 1602600    849.33214   -4853.1283     155.2357   -4697.8926 
 1602800    856.03623   -4857.8166    156.46103   -4701.3556 
 1603000    878.68757   -4855.3963    160.60111   -4694.7952 
 1603200    842.84016   -4851.5449    154.04914   -4697.4958 
 1603400    871.25332   -4853.7163    159.24232    -4694.474 
 1603600    869.44786   -4857.7014    158.91233   -4698.7891 
 1603800    857.84233   -4859.6199    156.79114   -4702.8288 
 1604000    869.54045   -4855.8435    158.92925   -4696.9143 
 1604200    852.24146   -4850.5282    155.76745   -4694.7607 
 1604400    851.85695   -4853.1638    155.69717   -4697.4666 
 1604600    845.63655   -4852.3059    154.56024   -4697.7456 
 1604800      831.271   -4851.0609     151.9346   -4699.1263 
 1605000    892.20989   -4850.7191    163.07263   -4687.6465 
 1605200    876.54197   -4850.5882    160.20895   -4690.3793 
 1605400    873.06504   -4855.4822    159.57345   -4695.9088 
 1605600     850.9511   -4854.1609     155.5316   -4698.6293 
 1605800    841.30114   -4851.0258    153.76784    -4697.258 
 1606000    862.77072   -4848.1369    157.69192    -4690.445 
 1606200    857.66746   -4855.2995    156.75918   -4698.5403 
 1606400    829.58228   -4853.1925    151.62594   -4701.5665 
 1606600    879.26298   -4856.0933    160.70628   -4695.3871 
 1606800    883.76629   -4854.8595    161.52936   -4693.3302 
 1607000    873.06518   -4853.1408    159.57348   -4693.5674 
 1607200    863.96676   -4852.5375    157.91053    -4694.627 
 1607400    860.45587   -4854.2019    157.26883   -4696.9331 
 1607600    860.75341   -4856.6543    157.32321   -4699.3311 
 1607800    870.80713    -4853.249    159.16077   -4694.0882 
 1608000    867.52072   -4850.7565     158.5601   -4692.1964 
 1608200    857.34344   -4853.6974    156.69996   -4696.9974 
 1608400    873.63458   -4857.6816    159.67755   -4698.0041 
 1608600    857.35052   -4846.0615    156.70125   -4689.3602 
 1608800    860.65826   -4851.5409    157.30582   -4694.2351 
 1609000    870.74482   -4859.4143    159.14938   -4700.2649 
 1609200     845.3622   -4855.5972     154.5101   -4701.0871 
 1609400    843.02753   -4844.9473    154.08338   -4690.8639 
 1609600    894.69311   -4852.9198     163.5265   -4689.3933 
 1609800    860.85657   -4858.9088    157.34206   -4701.5667 
 1610000     858.5272   -4853.2964    156.91632     -4696.38 
 1610200    891.63376   -4850.9884    162.96733    -4688.021 
 1610400    836.63043   -4853.9013    152.91416   -4700.9872 
 1610600    853.81246   -4853.1421    156.05459   -4697.0875 
 1610800    851.44006   -4852.6237    155.62097   -4697.0028 
 1611000    845.26998     -4852.36    154.49325   -4697.8668 
 1611200    896.22341   -4844.9607     163.8062   -4681.1545 
 1611400    840.04269    -4854.368    153.53783   -4700.8302 
 1611600    845.34014   -4858.5099    154.50607   -4704.0038 
 1611800    885.20005   -4849.2539    161.79142   -4687.4625 
 1612000    860.22606   -4858.5078    157.22682    -4701.281 
 1612200    865.98178   -4857.6366    158.27882   -4699.3577 
 1612400     910.2556   -4855.0203    166.37092   -4688.6494 
 1612600    824.63885   -4853.7948    150.72241   -4703.0724 
 1612800    851.39921   -4855.5487    155.61351   -4699.9352 
 1613000     907.6495   -4848.9051    165.89459   -4683.0106 
 1613200    847.84466   -4858.5397    154.96383   -4703.5758 
 1613400    867.68423   -4862.4909    158.58998   -4703.9009 
 1613600    884.56207   -4846.0583    161.67481   -4684.3835 
 1613800      859.841   -4852.9077    157.15645   -4695.7513 
 1614000    846.85395    -4854.334    154.78275   -4699.5512 
 1614200    893.06437   -4849.9401    163.22881   -4686.7113 
 1614400    866.53976   -4852.6554     158.3808   -4694.2746 
 1614600    822.69743   -4851.9057    150.36757   -4701.5381 
 1614800    858.37772   -4847.8856      156.889   -4690.9966 
 1615000    911.03752   -4853.0527    166.51383   -4686.5389 
 1615200     861.2514   -4850.1716    157.41423   -4692.7573 
 1615400    863.50041   -4848.6013    157.82529    -4690.776 
 1615600    890.21648   -4856.4865    162.70829   -4693.7782 
 1615800    846.33771   -4860.4203     154.6884   -4705.7319 
 1616000    906.05332   -4856.4329    165.60285     -4690.83 
 1616200    884.59838   -4850.0186    161.68145   -4688.3372 
 1616400    862.99012   -4859.1966    157.73202   -4701.4645 
 1616600    864.62875    -4853.717    158.03152   -4695.6854 
 1616800     878.6687   -4851.0239    160.59766   -4690.4262 
 1617000    864.08222   -4852.3969    157.93163   -4694.4653 
 1617200    885.28443   -4849.6823    161.80684   -4687.8755 
 1617400     859.2347   -4851.2092    157.04563   -4694.1636 
 1617600    864.37772   -4854.0254    157.98564   -4696.0398 
 1617800    852.01909   -4844.4502     155.7268   -4688.7234 
 1618000    852.19345   -4842.4414    155.75867   -4686.6827 
 1618200    865.81669    -4848.444    158.24864   -4690.1953 
 1618400    881.45743   -4851.3207    161.10736   -4690.2133 
 1618600    860.53014    -4845.379     157.2824   -4688.0966 
 1618800    868.81911   -4849.6266    158.79741   -4690.8292 
 1619000    871.00386   -4848.3735    159.19672   -4689.1768 
 1619200    871.48756   -4851.8914    159.28513   -4692.6063 
 1619400    834.07482   -4844.0788    152.44706   -4691.6317 
 1619600    899.37174   -4846.6557    164.38163    -4682.274 
 1619800     857.6046   -4848.4577    156.74769     -4691.71 
 1620000    852.01047   -4855.1668    155.72523   -4699.4416 
 1620200    886.91504    -4849.423    162.10487   -4687.3181 
 1620400     860.8118   -4842.9724    157.33388   -4685.6385 
 1620600    870.69205   -4852.8413    159.13973   -4693.7016 
 1620800    853.60055   -4850.9887    156.01585   -4694.9729 
 1621000    853.80533   -4848.9304    156.05328   -4692.8771 
 1621200    857.33064   -4844.6757    156.69762   -4687.9781 
 1621400    878.64594   -4849.8804     160.5935   -4689.2869 
 1621600    861.35784   -4854.8433    157.43368   -4697.4096 
 1621800    868.80306   -4849.7136    158.79448   -4690.9192 
 1622000    890.59804   -4848.0149    162.77803   -4685.2368 
 1622200     847.3856   -4847.0771    154.87992   -4692.1972 
 1622400    877.98226   -4851.9697    160.47219   -4691.4975 
 1622600    818.13868   -4851.1906    149.53435   -4701.6562 
 1622800     889.0793   -4846.5137    162.50044   -4684.0132 
 1623000    871.65357    -4844.772    159.31547   -4685.4565 
 1623200    867.38608   -4855.6948    158.53549   -4697.1593 
 1623400    860.24284   -4854.2942    157.22989   -4697.0643 
 1623600    868.36484   -4854.3354    158.71438    -4695.621 
 1623800    886.44008   -4846.2303    162.01806   -4684.2122 
 1624000    907.93264   -4858.9844    165.94634   -4693.0381 
 1624200    833.13969   -4857.0718    152.27614   -4704.7956 
 1624400    859.38708   -4844.3705    157.07348    -4687.297 
 1624600    877.02778   -4842.8037    160.29774    -4682.506 
 1624800    863.42592   -4859.2789    157.81168   -4701.4673 
 1625000    869.84689   -4853.6307    158.98526   -4694.6454 
 1625200    869.14557   -4846.3438    158.85708   -4687.4867 
 1625400     834.1829   -4847.6045    152.46682   -4695.1377 
 1625600    879.16494   -4848.4883    160.68836   -4687.7999 
 1625800     875.8383   -4858.0505    160.08033   -4697.9702 
 1626000    859.98043   -4861.6568    157.18193   -4704.4749 
 1626200    894.09925   -4845.7582    163.41796   -4682.3403 
 1626400    874.31276   -4847.6343     159.8015   -4687.8328 
 1626600     860.6712   -4855.8281    157.30818   -4698.5199 
 1626800     889.5705   -4847.2213    162.59022   -4684.6311 
 1627000    866.26115   -4849.6162    158.32988   -4691.2863 
 1627200    866.03685   -4850.8586    158.28888   -4692.5697 
 1627400    879.62753   -4847.5497    160.77291   -4686.7768 
 1627600    863.86455   -4856.8071    157.89184   -4698.9152 
 1627800    840.35529   -4850.5977    153.59497   -4697.0028 
 1628000    904.27475   -4838.4783    165.27777   -4673.2005 
 1628200    851.16335   -4847.1218     155.5704   -4691.5514 
 1628400    874.73798   -4859.1325    159.87922   -4699.2533 
 1628600    886.70516   -4836.8502    162.06651   -4674.7837 
 1628800    869.81676   -4849.1807    158.97975   -4690.2009 
 1629000    874.88169   -4857.3807    159.90549   -4697.4752 
 1629200    921.14392   -4849.6407    168.36102   -4681.2797 
 1629400    865.78924   -4846.7879    158.24363   -4688.5443 
 1629600    859.96075   -4846.6364    157.17833   -4689.4581 
 1629800    890.47277   -4844.2575    162.75513   -4681.5024 
 1630000    852.08977   -4847.1881    155.73972   -4691.4484 
 1630200     871.3708   -4846.9117    159.26379   -4687.6479 
 1630400    888.45302   -4844.8829    162.38597   -4682.4969 
 1630600    869.94355   -4851.8528    159.00293   -4692.8499 
 1630800    873.68546   -4852.2273    159.68685   -4692.5404 
 1631000    868.37621   -4846.5131    158.71646   -4687.7967 
 1631200    877.38343   -4844.4845    160.36274   -4684.1217 
 1631400    852.02019   -4842.3692    155.72701   -4686.6422 
 1631600    878.93251   -4847.2653    160.64587   -4686.6195 
 1631800     870.3085    -4851.867    159.06963   -4692.7974 
 1632000    864.71779   -4850.2375     158.0478   -4692.1897 
 1632200    870.04713   -4849.2908    159.02186   -4690.2689 
 1632400    881.14536    -4851.048    161.05033   -4689.9976 
 1632600    904.63502   -4853.0139    165.34362   -4687.6703 
 1632800     867.9503   -4846.5707    158.63861   -4687.9321 
 1633000    858.59184   -4848.0029    156.92813   -4691.0747 
 1633200    870.96468   -4852.1678    159.18956   -4692.9783 
 1633400    887.42713   -4847.0683    162.19847   -4684.8699 
 1633600    902.28696   -4851.7896    164.91446   -4686.8751 
 1633800    867.00758   -4858.5222    158.46631   -4700.0559 
 1634000    877.65765   -4856.2963    160.41286   -4695.8835 
 1634200    881.19936   -4848.2163    161.06019   -4687.1561 
 1634400    854.74998   -4845.7296    156.22594   -4689.5036 
 1634600    882.59944   -4847.8975    161.31609   -4686.5814 
 1634800    872.62474   -4850.3316    159.49298   -4690.8386 
 1635000     863.4943   -4843.8245    157.82417   -4686.0003 
 1635200    883.50174   -4845.3258    161.48101   -4683.8448 
 1635400    840.89651   -4846.8276    153.69389   -4693.1337 
 1635600    867.31206   -4847.5309    158.52196   -4689.0089 
 1635800    872.59469   -4844.3766    159.48749   -4684.8891 
 1636000    865.52351    -4845.488    158.19506   -4687.2929 
 1636200    863.29396   -4843.3455    157.78756   -4685.5579 
 1636400    875.83864   -4839.8389     160.0804   -4679.7585 
 1636600    883.68798   -4847.2446    161.51505   -4685.7295 
 1636800    883.65395   -4854.1635    161.50883   -4692.6547 
 1637000    851.44297   -4846.6706    155.62151   -4691.0491 
 1637200    881.49571   -4848.5424    161.11436    -4687.428 
 1637400     857.0188   -4844.1469    156.64062   -4687.5063 
 1637600    889.43872   -4850.0507    162.56614   -4687.4845 
 1637800     886.7801   -4848.9006    162.08021   -4686.8204 
 1638000    891.73869   -4851.6131    162.98651   -4688.6266 
 1638200    879.61069   -4851.4207    160.76983   -4690.6509 
 1638400    892.55171   -4849.5063    163.13511   -4686.3712 
 1638600    865.66431   -4850.9267    158.22079   -4692.7059 
 1638800    872.98552   -4848.5852    159.55892   -4689.0262 
 1639000    873.28183   -4849.3416    159.61308   -4689.7285 
 1639200    873.09795   -4850.6107    159.57947   -4691.0312 
 1639400    843.05656   -4845.3108    154.08869   -4691.2221 
 1639600    877.76829   -4849.9207    160.43309   -4689.4876 
 1639800    840.82657   -4846.3957     153.6811   -4692.7146 
 1640000    860.93063   -4844.1867     157.3556   -4686.8311 
 1640200     879.5883   -4844.8449    160.76574   -4684.0791 
 1640400    832.84822   -4843.7231    152.22287   -4691.5002 
 1640600    882.46736   -4846.9119    161.29195     -4685.62 
 1640800    867.50995   -4844.8764    158.55813   -4686.3183 
 1641000    879.72969    -4848.307    160.79158   -4687.5154 
 1641200    867.56014   -4849.3619     158.5673   -4690.7946 
 1641400    874.03139   -4852.3085    159.75008   -4692.5584 
 1641600    883.28859   -4847.6403    161.44205   -4686.1982 
 1641800    881.96184   -4848.5347    161.19956   -4687.3352 
 1642000    859.98581   -4852.3864    157.18291   -4695.2035 
 1642200    842.22501   -4847.1499     153.9367   -4693.2132 
 1642400    884.28568   -4847.1608    161.62429   -4685.5365 
 1642600    856.44406   -4850.1298    156.53557   -4693.5943 
 1642800    904.97245   -4849.6196    165.40529   -4684.2143 
 1643000    879.05708    -4847.855    160.66864   -4687.1864 
 1643200    843.48886   -4848.8059     154.1677   -4694.6382 
 1643400    893.82058   -4847.7171    163.36702   -4684.3501 
 1643600    860.72706   -4846.5104    157.31839    -4689.192 
 1643800    870.72811    -4848.965    159.14632   -4689.8187 
 1644000    895.97347    -4845.733    163.76052   -4681.9725 
 1644200    876.51803   -4849.8722    160.20457   -4689.6676 
 1644400    873.42882   -4857.1142    159.63994   -4697.4742 
 1644600    863.62916    -4847.902    157.84882   -4690.0532 
 1644800    883.50929   -4847.4411    161.48239   -4685.9587 
 1645000      843.842   -4846.1365    154.23225   -4691.9042 
 1645200    881.48054   -4854.1512    161.11159   -4693.0396 
 1645400    896.39249   -4854.0164     163.8371   -4690.1793 
 1645600    885.93672   -4849.7877    161.92606   -4687.8616 
 1645800     858.8192   -4854.4574    156.96969   -4697.4877 
 1646000    859.42982    -4856.903    157.08129   -4699.8218 
 1646200    908.32487   -4849.3193    166.01803   -4683.3013 
 1646400    856.68782   -4849.0991    156.58013    -4692.519 
 1646600    867.90049   -4854.9373    158.62951   -4696.3078 
 1646800    877.10634   -4851.3049     160.3121   -4690.9928 
 1647000    854.71656   -4852.7147    156.21983   -4696.4949 
 1647200    875.27781   -4853.3418    159.97789   -4693.3639 
 1647400     902.2219     -4848.25    164.90257   -4683.3474 
 1647600    887.66723   -4855.0792    162.24235   -4692.8368 
 1647800     883.7607   -4852.2454    161.52834    -4690.717 
 1648000    890.32295   -4846.1353    162.72775   -4683.4075 
 1648200    853.13876   -4841.2521    155.93145   -4685.3206 
 1648400    867.73254   -4846.6309    158.59881   -4688.0321 
 1648600    893.08123   -4851.0164    163.23189   -4687.7845 
 1648800     907.4276   -4855.0948    165.85403   -4689.2408 
 1649000    874.67923   -4851.3938    159.86849   -4691.5254 
 1649200    914.78633   -4852.4417    167.19902   -4685.2427 
 1649400    906.94929   -4850.8461    165.76661   -4685.0795 
 1649600    864.35818   -4851.1859    157.98207   -4693.2039 
 1649800    891.59576   -4849.8763    162.96039    -4686.916 
 1650000    887.19198   -4844.4421    162.15549   -4682.2866 
 1650200    863.23651   -4853.6781    157.77706    -4695.901 
 1650400    877.07126   -4855.2137    160.30569    -4694.908 
 1650600    890.23905   -4843.6688    162.71241   -4680.9564 
 1650800    869.08279   -4846.5994     158.8456   -4687.7538 
 1651000    858.70995   -4846.2865    156.94972   -4689.3368 
 1651200    879.01769   -4845.2347    160.66144   -4684.5732 
 1651400    892.16157   -4857.8582     163.0638   -4694.7944 
 1651600    889.99417   -4857.5815    162.66766   -4694.9138 
 1651800    895.46541   -4852.0775    163.66766   -4688.4098 
 1652000    860.85851   -4847.5508    157.34242   -4690.2084 
 1652200    865.80737   -4840.8511    158.24694   -4682.6042 
 1652400     900.7394   -4852.3684     164.6316   -4687.7368 
 1652600    857.49095   -4855.6637    156.72692   -4698.9367 
 1652800    890.56525   -4844.4355    162.77203   -4681.6634 
 1653000    894.06397   -4841.5685    163.41151    -4678.157 
 1653200    859.59262   -4848.3423    157.11105   -4691.2313 
 1653400    885.08775   -4849.1471    161.77089   -4687.3762 
 1653600    886.07539      -4841.1    161.95141   -4679.1486 
 1653800    859.17323   -4846.0706    157.03439   -4689.0362 
 1654000    905.82303   -4851.4795    165.56076   -4685.9188 
 1654200    873.72586   -4845.5681    159.69424   -4685.8739 
 1654400    901.89169   -4850.7327    164.84221   -4685.8904 
 1654600    866.47278    -4850.242    158.36856   -4691.8734 
 1654800    842.51465   -4840.4998    153.98964   -4686.5102 
 1655000    872.20185   -4842.5762    159.41569   -4683.1605 
 1655200    866.39912   -4848.9146     158.3551   -4690.5595 
 1655400    870.14347   -4852.6583    159.03947   -4693.6189 
 1655600    900.88902   -4852.8433    164.65895   -4688.1844 
 1655800    902.18229   -4850.6368    164.89533   -4685.7415 
 1656000     843.4087    -4847.049    154.15305    -4692.896 
 1656200    851.54299   -4848.7822    155.63979   -4693.1424 
 1656400    890.87986   -4848.1561    162.82954   -4685.3266 
 1656600    878.65419    -4847.957      160.595    -4687.362 
 1656800       874.29   -4844.1046    159.79735   -4684.3073 
 1657000    879.78983   -4842.5976    160.80257    -4681.795 
 1657200    848.98168    -4845.364    155.17165   -4690.1923 
 1657400    875.69725    -4852.988    160.05455   -4692.9334 
 1657600    881.26994   -4850.5632     161.0731   -4689.4901 
 1657800    875.76344   -4847.6908    160.06665   -4687.6241 
 1658000    892.84825   -4850.7297    163.18931   -4687.5404 
 1658200    884.77495   -4856.5403    161.71372   -4694.8266 
 1658400    882.09442   -4855.7156    161.22379   -4694.4918 
 1658600    877.45211   -4845.5014     160.3753   -4685.1261 
 1658800    883.50692    -4846.411    161.48196    -4684.929 
 1659000    874.82623   -4850.0462    159.89535   -4690.1509 
 1659200    875.16386   -4847.2989    159.95706   -4687.3418 
 1659400    863.98403   -4841.3297    157.91368    -4683.416 
 1659600    868.25446   -4844.7295    158.69421   -4686.0353 
 1659800    877.76498   -4847.0109    160.43248   -4686.5784 
 1660000    863.47354   -4844.6002    157.82038   -4686.7798 
 1660200     870.1588   -4842.2373    159.04227    -4683.195 
 1660400    863.27564   -4842.6211    157.78421   -4684.8369 
 1660600    890.62698   -4841.8973    162.78332    -4679.114 
 1660800    887.93009   -4842.7365     162.2904   -4680.4461 
 1661000    874.89202   -4851.1777    159.90738   -4691.2703 
 1661200    909.11696   -4846.1352     166.1628   -4679.9724 
 1661400    881.51967   -4844.9053    161.11874   -4683.7865 
 1661600     868.3561   -4852.4038    158.71278    -4693.691 
 1661800    900.23537   -4847.2698    164.53948   -4682.7303 
 1662000    880.58049   -4845.3851    160.94708    -4684.438 
 1662200     864.9455   -4843.9308    158.08941   -4685.8414 
 1662400    887.02086    -4843.772    162.12421   -4681.6478 
 1662600    890.86642   -4850.1848    162.82708   -4687.3577 
 1662800    864.99696   -4849.9443    158.09882   -4691.8455 
 1663000    912.15585    -4847.164    166.71823   -4680.4458 
 1663200     879.3633   -4852.0144    160.72461   -4691.2898 
 1663400    889.16677   -4856.6903    162.51643   -4694.1738 
 1663600    897.05471   -4853.0666    163.95814   -4689.1084 
 1663800    886.21044   -4852.7438    161.97609   -4690.7677 
 1664000     845.2752   -4844.0997     154.4942   -4689.6055 
 1664200    897.29566   -4847.9089    164.00218   -4683.9068 
 1664400    857.42677   -4848.7272    156.71519    -4692.012 
 1664600    876.00294   -4853.5875    160.11043    -4693.477 
 1664800    872.25433   -4843.9055    159.42528   -4684.4802 
 1665000    887.68041   -4847.5185    162.24476   -4685.2738 
 1665200    865.50354   -4850.3302    158.19141   -4692.1388 
 1665400    883.96224    -4850.721    161.56518   -4689.1559 
 1665600     880.2979   -4851.7187    160.89543   -4690.8232 
 1665800    883.14054   -4852.6868    161.41499   -4691.2718 
 1666000     899.9556   -4851.3831    164.48835   -4686.8948 
 1666200    884.07278     -4849.01    161.58538   -4687.4246 
 1666400    896.10475   -4852.1914    163.78451   -4688.4069 
 1666600    893.48832    -4851.672     163.3063   -4688.3657 
 1666800    865.97987   -4850.1528    158.27847   -4691.8743 
 1667000    861.58173   -4849.2269    157.47461   -4691.7523 
 1667200    946.80339   -4851.7836     173.0509   -4678.7327 
 1667400    864.66877   -4849.0106    158.03884   -4690.9718 
 1667600    877.80613   -4857.5531       160.44   -4697.1131 
 1667800    875.10094   -4848.0267    159.94556   -4688.0811 
 1668000     889.9455   -4847.2793    162.65876   -4684.6205 
 1668200    890.94797   -4851.2107    162.84199   -4688.3687 
 1668400    859.57554   -4845.5127    157.10793   -4688.4048 
 1668600    910.24711   -4849.3782    166.36936   -4683.0089 
 1668800    870.89387   -4847.9734    159.17662   -4688.7968 
 1669000    901.73361   -4854.2852    164.81332   -4689.4719 
 1669200    890.34016   -4850.3949     162.7309    -4687.664 
 1669400    853.85119   -4850.1191    156.06166   -4694.0574 
 1669600    917.57987   -4852.3986     167.7096    -4684.689 
 1669800    912.20358    -4850.854    166.72696    -4684.127 
 1670000    877.24732   -4849.6893    160.33787   -4689.3514 
 1670200    870.48541   -4849.8997    159.10197   -4690.7977 
 1670400    903.15832   -4847.7904    165.07372   -4682.7167 
 1670600    887.08258   -4848.5909    162.13549   -4686.4554 
 1670800    889.74691   -4849.7723    162.62246   -4687.1499 
 1671000    892.07225   -4850.8641    163.04747   -4687.8166 
 1671200      877.707   -4847.4133    160.42188   -4686.9914 
 1671400    901.44946   -4850.3694    164.76138    -4685.608 
 1671600    870.01518   -4848.6883    159.01602   -4689.6722 
 1671800    855.90258   -4845.5744    156.43661   -4689.1378 
 1672000     892.3887   -4842.0771    163.10531   -4678.9717 
 1672200    886.92349   -4849.1499    162.10642   -4687.0435 
 1672400     889.8976   -4852.9726    162.65001   -4690.3226 
 1672600    879.34874   -4847.9322    160.72195   -4687.2103 
 1672800    862.21351   -4848.1633    157.59008   -4690.5732 
 1673000     894.0803   -4849.3074    163.41449   -4685.8929 
 1673200    893.78512   -4845.8012    163.36054   -4682.4406 
 1673400    875.08619   -4853.3548    159.94287   -4693.4119 
 1673600    888.46338   -4851.5916    162.38787   -4689.2038 
 1673800    877.59005   -4847.4962    160.40051   -4687.0957 
 1674000    871.66834   -4849.2293    159.31817   -4689.9111 
 1674200    900.62685   -4852.6182    164.61103   -4688.0072 
 1674400    891.70452   -4859.2041    162.98026   -4696.2238 
 1674600    866.53992   -4848.3439    158.38083    -4689.963 
 1674800    901.32739   -4847.8895    164.73907   -4683.1504 
 1675000    881.05935   -4854.8501     161.0346   -4693.8155 
 1675200    891.46356   -4859.0272    162.93622    -4696.091 
 1675400    880.49407    -4843.797    160.93129   -4682.8657 
 1675600    904.99561   -4856.1337    165.40953   -4690.7242 
 1675800    882.71313   -4854.8471    161.33687   -4693.5102 
 1676000     897.4642    -4847.478    164.03298    -4683.445 
 1676200    863.63467   -4847.3621    157.84983   -4689.5123 
 1676400    909.24821   -4855.3685    166.18679   -4689.1817 
 1676600    910.69924    -4850.797      166.452    -4684.345 
 1676800    893.60752   -4853.1705    163.32808   -4689.8425 
 1677000    862.04558   -4850.3159    157.55939   -4692.7565 
 1677200    904.97723   -4848.8594    165.40617   -4683.4532 
 1677400     884.9953   -4853.1707    161.75399   -4691.4167 
 1677600    873.67516   -4853.3298    159.68497   -4693.6448 
 1677800    897.22186   -4848.7642    163.98869   -4684.7755 
 1678000    903.88386   -4850.5425    165.20633   -4685.3362 
 1678200    888.90793    -4856.591    162.46912   -4694.1219 
 1678400    880.30156   -4851.5151     160.8961    -4690.619 
 1678600    880.04569   -4849.3374    160.84933    -4688.488 
 1678800    894.35546   -4856.2168    163.46479    -4692.752 
 1679000    886.39976   -4850.3179    162.01069   -4688.3072 
 1679200    892.01177   -4850.4075    163.03642   -4687.3711 
 1679400    888.89129   -4857.0977    162.46608   -4694.6316 
 1679600    900.76847   -4853.2542    164.63692   -4688.6173 
 1679800    888.59819    -4851.047    162.41251   -4688.6344 
 1680000    881.89972   -4851.7642     161.1882    -4690.576 
 1680200    885.36359   -4848.5496    161.82131   -4686.7283 
 1680400     873.1304   -4846.6718     159.5854   -4687.0864 
 1680600    891.14965   -4853.5816    162.87885   -4690.7027 
 1680800    895.68057   -4854.0207    163.70698   -4690.3137 
 1681000    899.18474   -4849.7368    164.34745   -4685.3894 
 1681200    879.57387   -4849.0164     160.7631   -4688.2533 
 1681400    883.28902   -4845.9556    161.44213   -4684.5135 
 1681600    901.57664   -4857.8767    164.78463   -4693.0921 
 1681800    872.80493   -4850.7966    159.52591   -4691.2707 
 1682000    907.99495   -4846.0802    165.95773   -4680.1224 
 1682200     875.7045   -4844.9707    160.05588   -4684.9149 
 1682400    874.80333   -4852.3222    159.89117    -4692.431 
 1682600    899.03047   -4847.1569    164.31926   -4682.8376 
 1682800    893.57231   -4842.7756    163.32165   -4679.4539 
 1683000    884.91442   -4853.0428    161.73921   -4691.3036 
 1683200    893.07856   -4848.5383     163.2314   -4685.3069 
 1683400    918.73097   -4844.9375    167.91999   -4677.0175 
 1683600    866.45157   -4843.0999    158.36469   -4684.7352 
 1683800     902.6499   -4847.8799    164.98079   -4682.8991 
 1684000    911.82724   -4851.5713    166.65817   -4684.9132 
 1684200     875.1753    -4851.139    159.95916   -4691.1799 
 1684400    893.66052   -4846.9843    163.33777   -4683.6466 
 1684600     892.5925   -4843.3952    163.14256   -4680.2526 
 1684800    870.85553   -4850.9205    159.16961   -4691.7509 
 1685000    873.92796   -4851.1058    159.73117   -4691.3747 
 1685200    894.60829   -4849.0145      163.511   -4685.5035 
 1685400    889.79138   -4846.5828    162.63059   -4683.9522 
 1685600    858.71982   -4847.3469    156.95152   -4690.3954 
 1685800    906.78693   -4856.0304    165.73693   -4690.2935 
 1686000    885.03722   -4849.8189    161.76165   -4688.0572 
 1686200    867.20648   -4844.8786    158.50266    -4686.376 
 1686400    881.59079   -4852.9447    161.13174   -4691.8129 
 1686600    895.45863   -4857.3402    163.66642   -4693.6738 
 1686800    923.97406   -4861.3086    168.87829   -4692.4303 
 1687000    893.48365   -4854.1965    163.30544   -4690.8911 
 1687200    912.76344   -4846.0957    166.82928   -4679.2664 
 1687400    883.18399   -4848.5369    161.42293   -4687.1139 
 1687600    855.43281   -4850.6728    156.35074   -4694.3221 
 1687800    902.47892   -4845.3864    164.94954   -4680.4369 
 1688000    912.64084    -4843.656    166.80688   -4676.8491 
 1688200    908.18865   -4851.5238    165.99313   -4685.5306 
 1688400    881.24138   -4859.1832    161.06788   -4698.1153 
 1688600     869.8933   -4852.7268    158.99374   -4693.7331 
 1688800     902.8322   -4843.5992    165.01411   -4678.5851 
 1689000    884.11385    -4844.405    161.59289   -4682.8121 
 1689200     872.9584   -4851.2304    159.55396   -4691.6764 
 1689400    903.88243   -4852.5096    165.20607   -4687.3036 
 1689600    888.46974   -4844.5257    162.38903   -4682.1367 
 1689800    920.60143   -4842.6515    168.26186   -4674.3896 
 1690000    882.24302   -4848.9603    161.25095   -4687.7093 
 1690200    870.69729   -4862.0158    159.14069   -4702.8751 
 1690400    913.80804   -4856.6034    167.02021   -4689.5832 
 1690600    899.11225   -4846.8399     164.3342   -4682.5057 
 1690800    900.87382    -4851.011    164.65617   -4686.3548 
 1691000    888.46803   -4848.7305    162.38872   -4686.3418 
 1691200    890.86258   -4847.8063    162.82638   -4684.9799 
 1691400    893.70204    -4849.186    163.34536   -4685.8407 
 1691600    923.79011   -4853.2308    168.84467   -4684.3861 
 1691800    914.01964   -4856.7327    167.05888   -4689.6738 
 1692000    869.12442   -4853.6566    158.85321   -4694.8034 
 1692200    896.23435    -4850.103     163.8082   -4686.2948 
 1692400    940.60772   -4852.2033    171.91849   -4680.2848 
 1692600     899.5202   -4853.4905    164.40877   -4689.0817 
 1692800    875.15979   -4854.8384    159.95632   -4694.8821 
 1693000    907.44541    -4854.842    165.85729   -4688.9847 
 1693200    895.91933   -4853.3257    163.75062    -4689.575 
 1693400    894.09842    -4851.517    163.41781   -4688.0992 
 1693600    908.10486   -4855.3493    165.97782   -4689.3715 
 1693800    893.28626   -4857.3943    163.26936   -4694.1249 
 1694000    903.47985    -4852.577    165.13249   -4687.4445 
 1694200    899.93823   -4853.2793    164.48517   -4688.7942 
 1694400    865.19503   -4847.8798    158.13502   -4689.7448 
 1694600    917.50045     -4851.03    167.69509   -4683.3349 
 1694800    878.21436   -4853.1985    160.51462   -4692.6839 
 1695000    901.03044   -4852.2056     164.6848   -4687.5208 
 1695200    883.50305   -4851.0104    161.48125   -4689.5291 
 1695400    892.99505   -4850.9032    163.21614   -4687.6871 
 1695600    878.57549   -4844.0652    160.58062   -4683.4846 
 1695800    888.48525   -4853.6158    162.39187   -4691.2239 
 1696000     867.2355   -4854.3404    158.50797   -4695.8324 
 1696200    943.01271   -4852.3481    172.35806     -4679.99 
 1696400    881.41715   -4844.0015        161.1   -4682.9015 
 1696600    912.16895   -4851.1636    166.72063    -4684.443 
 1696800    907.28959   -4854.1774    165.82881   -4688.3486 
 1697000     857.8973   -4848.5231    156.80119    -4691.722 
 1697200     873.3633   -4846.6962    159.62797   -4687.0683 
 1697400    930.92997   -4849.5742    170.14965   -4679.4246 
 1697600    866.82528   -4855.1828    158.43299   -4696.7498 
 1697800    883.45218   -4854.8116    161.47195   -4693.3397 
 1698000    907.86096    -4847.486    165.93324   -4681.5528 
 1698200    907.92508   -4853.9135    165.94496   -4687.9686 
 1698400    894.02715   -4853.9117    163.40478    -4690.507 
 1698600     913.2012   -4854.2147    166.90929   -4687.3054 
 1698800    913.45642   -4854.2044    166.95594   -4687.2485 
 1699000    931.68503   -4859.0184    170.28765   -4688.7307 
 1699200    878.00559   -4849.5812    160.47646   -4689.1047 
 1699400    878.07963   -4845.9714    160.48999   -4685.4814 
 1699600    905.53496   -4848.6577    165.50811   -4683.1496 
 1699800    895.98745   -4848.8252    163.76307   -4685.0622 
 1700000    880.44937   -4853.1376    160.92312   -4692.2145 
 1700200    884.22106   -4851.8492    161.61248   -4690.2367 
 1700400    927.39923   -4851.7186    169.50432   -4682.2143 
 1700600    881.39691   -4849.3858     161.0963   -4688.2895 
 1700800    880.53719   -4848.1366    160.93917   -4687.1974 
 1701000    914.76919    -4850.529    167.19588   -4683.3331 
 1701200    889.90442   -4850.9539    162.65125   -4688.3026 
 1701400    906.14606   -4854.2544     165.6198   -4688.6346 
 1701600    901.28931    -4853.621    164.73211   -4688.8889 
 1701800    894.56898   -4849.4033    163.50381   -4685.8995 
 1702000    925.90647   -4854.1625    169.23148    -4684.931 
 1702200    885.44561   -4853.4262     161.8363   -4691.5899 
 1702400    899.33864   -4853.3617    164.37558   -4688.9861 
 1702600    929.39267   -4854.4835    169.86867   -4684.6148 
 1702800    899.60913   -4851.6899    164.42502   -4687.2649 
 1703000    903.32337   -4856.7702    165.10389   -4691.6663 
 1703200    870.58692   -4853.5137    159.12052   -4694.3932 
 1703400    905.71122   -4854.6922    165.54032   -4689.1518 
 1703600    923.38893    -4855.145    168.77135   -4686.3737 
 1703800    898.31764    -4861.721    164.18897   -4697.5321 
 1704000     878.3802    -4852.478    160.54493    -4691.933 
 1704200    893.96049   -4847.1551     163.3926   -4683.7625 
 1704400    891.55531   -4856.0418    162.95299   -4693.0888 
 1704600    901.67573    -4855.603    164.80274   -4690.8003 
 1704800    899.72022   -4854.7935    164.44532   -4690.3482 
 1705000    866.14722    -4853.894    158.30906   -4695.5849 
 1705200    914.74444   -4855.4017    167.19136   -4688.2103 
 1705400    903.68436    -4855.197    165.16986   -4690.0271 
 1705600    895.18019   -4855.0893    163.61553   -4691.4738 
 1705800      918.432   -4853.5973    167.86535    -4685.732 
 1706000    902.09641   -4853.8091    164.87963   -4688.9295 
 1706200    886.83663   -4852.0044    162.09054   -4689.9138 
 1706400    922.00138   -4851.3791    168.51774   -4682.8614 
 1706600    886.77439   -4850.7147    162.07916   -4688.6355 
 1706800    898.36203   -4852.2955    164.19708   -4688.0984 
 1707000    919.81295   -4848.9298    168.11775   -4680.8121 
 1707200    871.81518   -4849.9115    159.34501   -4690.5665 
 1707400    875.44789   -4844.4713    160.00898   -4684.4623 
 1707600    921.38076    -4845.641    168.40431   -4677.2367 
 1707800    894.57875    -4847.481     163.5056   -4683.9754 
 1708000    864.20721   -4846.1226    157.95447   -4688.1681 
 1708200    941.98663   -4852.0869    172.17052   -4679.9164 
 1708400    900.53736    -4851.671    164.59468   -4687.0763 
 1708600    904.20819   -4852.1796    165.26561    -4686.914 
 1708800     889.5719   -4842.4985    162.59048    -4679.908 
 1709000    915.70786   -4850.2097    167.36745   -4682.8423 
 1709200    889.83906   -4854.0895    162.63931   -4691.4501 
 1709400    911.95025   -4852.7165    166.68065   -4686.0359 
 1709600    887.36381    -4847.785    162.18689   -4685.5981 
 1709800    887.45422   -4848.5694    162.20342    -4686.366 
 1710000    916.31018   -4851.6594    167.47753   -4684.1819 
 1710200     925.2481   -4856.3999    169.11115   -4687.2887 
 1710400    909.92753   -4852.1004    166.31095   -4685.7895 
 1710600    928.34498   -4850.6686    169.67718   -4680.9914 
 1710800    908.48669   -4850.3168     166.0476   -4684.2692 
 1711000    905.31379   -4853.3099    165.46768   -4687.8422 
 1711200    869.41233   -4845.3594    158.90584   -4686.4536 
 1711400    907.95216   -4850.8708    165.94991   -4684.9209 
 1711600    915.38189   -4849.4445    167.30787   -4682.1366 
 1711800    916.03979   -4852.2236    167.42811   -4684.7955 
 1712000    860.45033   -4850.0927    157.26782   -4692.8248 
 1712200    889.11041   -4849.2906    162.50613   -4686.7844 
 1712400    904.61354   -4851.5766     165.3397   -4686.2369 
 1712600    919.35317   -4856.2604    168.03371   -4688.2267 
 1712800    904.38987   -4853.2345    165.29881   -4687.9357 
 1713000    869.36894   -4846.2345     158.8979   -4687.3366 
 1713200    880.62682   -4841.5842    160.95555   -4680.6287 
 1713400    901.79191   -4847.3228    164.82397   -4682.4989 
 1713600    881.42366   -4846.8171    161.10119   -4685.7159 
 1713800    901.99181   -4840.2566    164.86051   -4675.3961 
 1714000    908.00138   -4845.3914     165.9589   -4679.4325 
 1714200    905.74072   -4850.1829    165.54571   -4684.6372 
 1714400    904.59681   -4845.4176    165.33664    -4680.081 
 1714600      906.977   -4842.9473    165.77167   -4677.1757 
 1714800    904.44977   -4847.8296    165.30976   -4682.5198 
 1715000    925.16797   -4841.9415    169.09651    -4672.845 
 1715200    889.08083   -4845.9003    162.50072   -4683.3996 
 1715400    917.32773   -4853.5801    167.66352   -4685.9166 
 1715600    869.83981   -4842.4638    158.98397   -4683.4799 
 1715800    878.19382   -4844.3897    160.51086   -4683.8788 
 1716000    889.79398   -4848.1516    162.63107   -4685.5205 
 1716200    900.76905   -4848.6898    164.63702   -4684.0528 
 1716400    885.31975   -4849.8715     161.8133   -4688.0582 
 1716600    895.85224   -4850.9743    163.73836    -4687.236 
 1716800    920.86392   -4851.3864    168.30984   -4683.0766 
 1717000    896.13802   -4853.0831    163.79059   -4689.2925 
 1717200    910.31438   -4851.9278    166.38166   -4685.5462 
 1717400       887.47   -4845.1557     162.2063   -4682.9494 
 1717600    910.44092   -4852.5236    166.40479   -4686.1188 
 1717800    871.05111   -4850.9813    159.20536   -4691.7759 
 1718000    879.59078   -4853.2745    160.76619   -4692.5083 
 1718200     927.6582     -4853.44    169.55166   -4683.8883 
 1718400    897.32293    -4856.797    164.00716   -4692.7899 
 1718600     881.6002   -4848.7669    161.13346   -4687.6334 
 1718800    915.21492   -4851.5729    167.27735   -4684.2956 
 1719000    905.43986   -4860.5159    165.49072   -4695.0251 
 1719200     879.3137   -4848.1784    160.71555   -4687.4629 
 1719400     925.1774   -4849.3145    169.09823   -4680.2163 
 1719600     918.2117    -4855.271    167.82508   -4687.4459 
 1719800    877.82905   -4845.3433    160.44419   -4684.8991 
 1720000    893.28503   -4851.4388    163.26914   -4688.1697 
 1720200    876.40349   -4860.5924    160.18364   -4700.4087 
 1720400    924.22802   -4853.2141    168.92471   -4684.2894 
 1720600    917.23576   -4848.1976    167.64671   -4680.5509 
 1720800    893.05896   -4849.7246    163.22782   -4686.4968 
 1721000    890.57317   -4854.6184    162.77348    -4691.845 
 1721200    881.84698   -4855.2351    161.17856   -4694.0566 
 1721400     899.0839   -4849.8425    164.32902   -4685.5135 
 1721600    911.30023   -4849.0159    166.56185   -4682.4541 
 1721800    866.85977   -4846.0736    158.43929   -4687.6343 
 1722000    894.20714   -4854.1909    163.43768   -4690.7532 
 1722200    911.55939   -4856.7279    166.60922   -4690.1187 
 1722400    881.57092   -4842.1552    161.12811   -4681.0271 
 1722600    897.31052   -4847.0066    164.00489   -4683.0017 
 1722800    916.18347   -4852.6551    167.45438   -4685.2007 
 1723000      899.904   -4844.5067    164.47891   -4680.0278 
 1723200      916.713   -4847.8977    167.55116   -4680.3466 
 1723400    903.42942   -4843.7388    165.12327   -4678.6155 
 1723600    893.89051   -4845.2389    163.37981   -4681.8591 
 1723800    871.50172   -4848.8447    159.28772    -4689.557 
 1724000    909.79253   -4851.6739    166.28628   -4685.3876 
 1724200    891.37136    -4842.964    162.91937   -4680.0447 
 1724400    889.69539   -4846.3565    162.61305   -4683.7434 
 1724600    916.06425   -4849.1323    167.43258   -4681.6997 
 1724800    936.00574   -4852.7595    171.07737   -4681.6821 
 1725000    929.61722    -4852.525    169.90971   -4682.6153 
 1725200    917.69261   -4850.3652    167.73021    -4682.635 
 1725400    910.15329   -4844.5747    166.35222   -4678.2225 
 1725600     909.4294   -4842.0028    166.21991   -4675.7829 
 1725800    907.03421   -4850.4771    165.78213    -4684.695 
 1726000    903.07255   -4851.9426    165.05804   -4686.8846 
 1726200    937.52006   -4853.3167    171.35415   -4681.9625 
 1726400    889.67476   -4845.1425    162.60928   -4682.5333 
 1726600    917.01969   -4850.8317    167.60721   -4683.2245 
 1726800    895.08393   -4847.6238    163.59793   -4684.0258 
 1727000     872.9216   -4843.0599    159.54724   -4683.5127 
 1727200    914.89026   -4843.8817    167.21801   -4676.6637 
 1727400    933.98492   -4846.5808    170.70801   -4675.8728 
 1727600    896.40501   -4851.8405    163.83939   -4688.0011 
 1727800    903.09317   -4849.2979    165.06181   -4684.2361 
 1728000     925.1647    -4838.417    169.09591    -4669.321 
 1728200    931.87849   -4853.1018    170.32301   -4682.7788 
 1728400    889.66833   -4859.1105     162.6081   -4696.5024 
 1728600    910.39143   -4841.2428    166.39574   -4674.8471 
 1728800    904.44892   -4838.2473    165.30961   -4672.9377 
 1729000     874.8516   -4846.8481    159.89999   -4686.9481 
 1729200    925.15012   -4846.9039    169.09324   -4677.8107 
 1729400    920.28004   -4850.4744    168.20312   -4682.2713 
 1729600    893.44771   -4849.6465    163.29887   -4686.3476 
 1729800    917.07948   -4834.2807    167.61814   -4666.6625 
 1730000    893.01791   -4842.2153    163.22032    -4678.995 
 1730200     860.3463   -4848.8472     157.2488   -4691.5984 
 1730400    946.69712   -4841.6171    173.03147   -4668.5856 
 1730600    907.31019   -4847.0654    165.83257   -4681.2328 
 1730800    872.94079   -4846.4725    159.55074   -4686.9217 
 1731000    959.20057   -4840.4191    175.31678   -4665.1024 
 1731200    865.20052   -4848.4847    158.13603   -4690.3487 
 1731400    876.93882   -4846.3758    160.28148   -4686.0943 
 1731600    948.74206   -4834.1171    173.40523   -4660.7118 
 1731800    879.34692   -4845.0609    160.72162   -4684.3393 
 1732000    877.31957   -4847.9003    160.35107   -4687.5492 
 1732200    947.25846   -4840.3982    173.13407   -4667.2642 
 1732400    898.28724   -4844.5652    164.18341   -4680.3818 
 1732600    893.36775   -4850.7363    163.28426    -4687.452 
 1732800    918.84491   -4838.9174    167.94082   -4670.9765 
 1733000    900.28043   -4836.9845    164.54772   -4672.4368 
 1733200    908.39014   -4852.9173    166.02996   -4686.8874 
 1733400    899.10642    -4850.114    164.33314   -4685.7809 
 1733600    946.39582   -4849.0323     172.9764   -4676.0559 
 1733800    906.68363    -4844.356    165.71805   -4678.6379 
 1734000     917.5198   -4844.9465    167.69862   -4677.2479 
 1734200    937.56969   -4850.4293    171.36322    -4679.066 
 1734400    890.77462   -4852.4069     162.8103   -4689.5966 
 1734600    894.54813   -4844.1298        163.5   -4680.6298 
 1734800    922.92907   -4840.2109    168.68729   -4671.5236 
 1735000    892.39129    -4850.324    163.10579   -4687.2182 
 1735200    896.87035   -4852.6666    163.92444   -4688.7421 
 1735400    941.24406   -4846.6928     172.0348    -4674.658 
 1735600    879.00914   -4850.2659    160.65988    -4689.606 
 1735800    887.70299   -4850.8383    162.24889   -4688.5894 
 1736000    926.16151   -4847.0093     169.2781   -4677.7312 
 1736200    918.99113   -4845.9959    167.96754   -4678.0284 
 1736400    868.11825   -4846.6547    158.66931   -4687.9854 
 1736600    909.77287   -4853.2225    166.28269   -4686.9398 
 1736800    894.91176   -4844.6708    163.56646   -4681.1043 
 1737000    933.40796   -4845.4633    170.60256   -4674.8608 
 1737200    921.08445   -4844.9312    168.35015   -4676.5811 
 1737400    914.53801   -4841.1392    167.15363   -4673.9856 
 1737600    909.49751   -4845.5795    166.23236   -4679.3471 
 1737800      877.348   -4847.5432    160.35627    -4687.187 
 1738000    949.87174   -4842.4376    173.61171   -4668.8259 
 1738200    899.16479   -4842.3759    164.34381   -4678.0321 
 1738400    919.63195   -4854.5871    168.08467   -4686.5024 
 1738600     928.6672   -4843.3116    169.73607   -4673.5755 
 1738800    886.97333    -4840.726    162.11553   -4678.6104 
 1739000    915.06368   -4848.8699    167.24971   -4681.6202 
 1739200    928.87192   -4845.9823    169.77349   -4676.2088 
 1739400    898.51764   -4844.8129    164.22552   -4680.5874 
 1739600    887.47394   -4847.2031    162.20702   -4684.9961 
 1739800    899.55377   -4842.9708     164.4149   -4678.5559 
 1740000    927.70394   -4840.3142    169.56002   -4670.7542 
 1740200    896.96687   -4840.8063    163.94208   -4676.8642 
 1740400    908.85394   -4848.8649    166.11473   -4682.7502 
 1740600    926.41586   -4847.5437    169.32459   -4678.2191 
 1740800     928.3396    -4846.758     169.6762   -4677.0818 
 1741000    911.82854   -4851.4759    166.65841   -4684.8175 
 1741200     945.5755   -4846.4792    172.82647   -4673.6528 
 1741400    887.70666   -4838.7326    162.24956    -4676.483 
 1741600    878.29003    -4842.651    160.52845   -4682.1226 
 1741800    914.27904   -4847.0997     167.1063   -4679.9934 
 1742000    915.66065   -4843.4241    167.35882   -4676.0653 
 1742200    933.11951   -4844.6095    170.54984   -4674.0597 
 1742400    897.16863   -4838.9851    163.97896   -4675.0061 
 1742600    936.39474   -4841.2532    171.14847   -4670.1047 
 1742800    898.45418   -4840.6995    164.21393   -4676.4856 
 1743000    926.56334   -4845.7636    169.35155   -4676.4121 
 1743200    895.75603   -4842.1425    163.72077   -4678.4217 
 1743400    893.77259   -4842.8282    163.35825   -4679.4699 
 1743600    887.09749   -4835.7914    162.13822   -4673.6532 
 1743800    900.09521   -4844.4191    164.51386   -4679.9053 
 1744000    914.08511   -4853.9829    167.07085    -4686.912 
 1744200    903.63878   -4839.9181    165.16154   -4674.7566 
 1744400    896.27372   -4834.2612    163.81539   -4670.4458 
 1744600    901.54278   -4842.7401    164.77844   -4677.9617 
 1744800    913.48621   -4855.1475    166.96139   -4688.1861 
 1745000    893.02092   -4842.4541    163.22087   -4679.2332 
 1745200    949.65753   -4842.8477    173.57256   -4669.2751 
 1745400    918.54491   -4844.8164    167.88599   -4676.9304 
 1745600    910.60624   -4851.1746      166.435   -4684.7396 
 1745800    931.74981   -4853.5272     170.2995   -4683.2277 
 1746000    919.82298   -4848.1361    168.11958   -4680.0165 
 1746200    932.98961   -4843.0004     170.5261   -4672.4743 
 1746400    894.72583   -4846.2422    163.53248   -4682.7097 
 1746600    921.47345   -4857.7217    168.42125   -4689.3005 
 1746800    941.30694   -4847.9394    172.04629   -4675.8931 
 1747000    889.89365   -4843.1779    162.64928   -4680.5286 
 1747200    902.20159   -4850.3407    164.89885   -4685.4418 
 1747400    882.95283   -4838.5566    161.38068   -4677.1759 
 1747600    895.21153   -4847.9016    163.62125   -4684.2804 
 1747800    917.88603   -4847.8425    167.76556    -4680.077 
 1748000    910.90275   -4839.0891     166.4892   -4672.5999 
 1748200    907.12584   -4847.7662    165.79888   -4681.9673 
 1748400    889.67702   -4849.4655    162.60969   -4686.8558 
 1748600    934.48915   -4848.6555    170.80018   -4677.8553 
 1748800    894.90573   -4845.2538    163.56536   -4681.6885 
 1749000    900.90673   -4849.4727    164.66219   -4684.8105 
 1749200    911.59869   -4845.3576     166.6164   -4678.7412 
 1749400     909.1287   -4845.6655    166.16495   -4679.5006 
 1749600    862.50371   -4848.7389    157.64312   -4691.0958 
 1749800    919.70132   -4849.7233    168.09735    -4681.626 
 1750000    908.39833   -4844.7742    166.03146   -4678.7428 
 1750200    922.57086   -4848.8082    168.62182   -4680.1864 
 1750400    911.89789   -4843.8416    166.67108   -4677.1705 
 1750600    928.39084   -4848.3282    169.68556   -4678.6426 
 1750800    894.23315    -4849.029    163.44243   -4685.5865 
 1751000    902.85154    -4845.391    165.01765   -4680.3734 
 1751200    940.76988   -4845.6478    171.94813   -4673.6997 
 1751400     905.7951   -4855.9882    165.55565   -4690.4326 
 1751600    898.60638   -4849.4053    164.24174   -4685.1636 
 1751800    938.99603   -4846.9804    171.62392   -4675.3565 
 1752000    890.05956   -4851.5088    162.67961   -4688.8292 
 1752200    903.30736   -4849.6099    165.10096    -4684.509 
 1752400    915.20233   -4845.6654    167.27505   -4678.3903 
 1752600    899.99878   -4854.1149    164.49624   -4689.6187 
 1752800    927.92725   -4846.6537    169.60083   -4677.0528 
 1753000    939.31762   -4846.0171    171.68269   -4674.3344 
 1753200    871.74482   -4849.8147    159.33215   -4690.4826 
 1753400    919.00987   -4844.2163    167.97097   -4676.2454 
 1753600    928.77014   -4843.5063    169.75489   -4673.7514 
 1753800    880.81043   -4857.9426    160.98911   -4696.9535 
 1754000    939.00095    -4850.871    171.62481   -4679.2462 
 1754200    943.70322   -4848.8286    172.48427   -4676.3443 
 1754400    880.88417   -4856.1389    161.00259   -4695.1364 
 1754600    954.59051    -4849.892    174.47418   -4675.4178 
 1754800    931.31092   -4850.6356    170.21928   -4680.4164 
 1755000    870.65619   -4852.2477    159.13318   -4693.1146 
 1755200    944.67085   -4846.5819    172.66112   -4673.9208 
 1755400    907.19152   -4844.1582    165.81088   -4678.3473 
 1755600    889.95933   -4849.4894    162.66129   -4686.8281 
 1755800    928.18566   -4840.8223    169.64806   -4671.1743 
 1756000    918.64765   -4846.1979    167.90476   -4678.2932 
 1756200    888.34128   -4844.1458    162.36555   -4681.7802 
 1756400    904.08328   -4839.7583    165.24278   -4674.5155 
 1756600    941.76633   -4851.5009    172.13025   -4679.3706 
 1756800    895.03634   -4845.4063    163.58923   -4681.8171 
 1757000    931.33213     -4842.82    170.22315   -4672.5968 
 1757200    918.82019   -4851.9213     167.9363    -4683.985 
 1757400    900.58707   -4850.2744    164.60376   -4685.6707 
 1757600    928.98033   -4846.8699    169.79331   -4677.0766 
 1757800    909.99426   -4849.4025    166.32315   -4683.0793 
 1758000    892.77771   -4844.8269    163.17642   -4681.6504 
 1758200    937.89271   -4846.9807    171.42226   -4675.5584 
 1758400    886.74818   -4852.5012    162.07437   -4690.4268 
 1758600    912.56499   -4847.3117    166.79301   -4680.5187 
 1758800    947.00653   -4836.2744    173.08803   -4663.1864 
 1759000    907.30792   -4848.4964    165.83216   -4682.6642 
 1759200    892.20293   -4852.6859    163.07136   -4689.6145 
 1759400    918.21529   -4844.7356    167.82574   -4676.9098 
 1759600    915.94202   -4845.0136    167.41025   -4677.6034 
 1759800    915.16352   -4847.5376    167.26796   -4680.2696 
 1760000    906.84235   -4846.5808    165.74706   -4680.8338 
 1760200    921.71029   -4844.9939    168.46453   -4676.5294 
 1760400    921.18563   -4843.8914    168.36864   -4675.5228 
 1760600     903.0932   -4847.3358    165.06182   -4682.2739 
 1760800    898.37507   -4846.8825    164.19947    -4682.683 
 1761000    925.78656   -4843.5618    169.20957   -4674.3523 
 1761200     903.5769   -4845.0495    165.15022   -4679.8992 
 1761400    922.12374   -4848.9129     168.5401   -4680.3728 
 1761600    903.48833   -4850.8482    165.13404   -4685.7141 
 1761800    889.01432   -4848.0011    162.48857   -4685.5125 
 1762000    929.90039   -4841.7002    169.96147   -4671.7388 
 1762200    913.90643   -4841.7579    167.03819   -4674.7197 
 1762400    888.05519   -4839.8699    162.31326   -4677.5566 
 1762600    908.98173   -4846.1286    166.13809   -4679.9905 
 1762800    916.21748   -4848.2406    167.46059   -4680.7801 
 1763000    916.94837   -4846.3919    167.59418   -4678.7977 
 1763200     955.4347   -4850.1239    174.62847   -4675.4954 
 1763400    884.13419   -4843.3066    161.59661     -4681.71 
 1763600    911.27025   -4843.3763    166.55637   -4676.8199 
 1763800    928.91835   -4845.9881    169.78198   -4676.2061 
 1764000    887.68047   -4847.9654    162.24477   -4685.7206 
 1764200    940.38536   -4847.0204    171.87785   -4675.1426 
 1764400    935.29509   -4839.8985    170.94748    -4668.951 
 1764600    881.01024   -4840.8368    161.02563   -4679.8111 
 1764800    948.08162   -4852.0117    173.28452   -4678.7272 
 1765000    910.82211   -4843.1909    166.47446   -4676.7164 
 1765200    928.78853   -4845.8441    169.75825   -4676.0859 
 1765400    924.27245   -4851.1316    168.93283   -4682.1988 
 1765600    900.71475   -4840.3274     164.6271   -4675.7003 
 1765800    897.81807   -4839.0232    164.09766   -4674.9256 
 1766000    885.32281    -4839.362    161.81385   -4677.5482 
 1766200    955.64338   -4846.1388    174.66662   -4671.4722 
 1766400    935.26995   -4847.9444    170.94288   -4677.0015 
 1766600    947.83945   -4851.2307    173.24026   -4677.9905 
 1766800     893.2137   -4844.5189     163.2561   -4681.2628 
 1767000    912.37375   -4842.1859    166.75806   -4675.4278 
 1767200    900.46222   -4843.5425    164.58094   -4678.9616 
 1767400    917.94589   -4846.1538     167.7765   -4678.3773 
 1767600    911.56352   -4843.6003    166.60997   -4676.9903 
 1767800    915.94656   -4844.9353    167.41107   -4677.5242 
 1768000    944.16327   -4844.4278    172.56835   -4671.8595 
 1768200    902.76672   -4834.9742    165.00214   -4669.9721 
 1768400    912.25411   -4832.7072    166.73619    -4665.971 
 1768600    914.65192    -4845.256    167.17445   -4678.0816 
 1768800    887.61094   -4848.2666    162.23206   -4686.0346 
 1769000    945.70041   -4841.7902     172.8493   -4668.9409 
 1769200    909.21194   -4843.5614    166.18016   -4677.3813 
 1769400    916.27815   -4850.9621    167.47168   -4683.4905 
 1769600      939.492   -4845.0008    171.71457   -4673.2862 
 1769800     896.4808   -4836.2467    163.85324   -4672.3934 
 1770000    897.17959   -4835.1744    163.98096   -4671.1934 
 1770200    950.69241   -4843.5426    173.76171   -4669.7809 
 1770400    881.60369   -4848.0372     161.1341   -4686.9031 
 1770600    912.04149   -4841.7501    166.69733   -4675.0528 
 1770800    969.83427   -4835.9758    177.26034   -4658.7155 
 1771000    886.47001   -4843.7632    162.02353   -4681.7396 
 1771200    927.01991   -4855.8452    169.43499   -4686.4102 
 1771400    947.43672   -4846.5356    173.16665    -4673.369 
 1771600    910.68945   -4840.3859    166.45021   -4673.9356 
 1771800    935.96793   -4843.9099    171.07046   -4672.8394 
 1772000    918.25203   -4840.8958    167.83245   -4673.0634 
 1772200    910.43834   -4842.2777    166.40432   -4675.8734 
 1772400    919.05067   -4841.4624    167.97843    -4673.484 
 1772600    928.42559   -4839.3873    169.69192   -4669.6954 
 1772800    900.07087   -4845.6189    164.50941   -4681.1095 
 1773000    943.40566   -4847.9647    172.42988   -4675.5349 
 1773200    961.56915   -4846.5739    175.74969   -4670.8242 
 1773400    927.42394   -4847.8407    169.50884   -4678.3318 
 1773600    918.25333   -4848.1558    167.83269   -4680.3231 
 1773800    931.32108   -4849.1135    170.22113   -4678.8924 
 1774000    933.62762   -4845.0556    170.64271   -4674.4129 
 1774200    942.29733   -4843.7098    172.22731   -4671.4825 
 1774400    916.83385   -4845.5754    167.57325   -4678.0022 
 1774600    945.10975   -4847.6801    172.74134   -4674.9388 
 1774800     899.5046   -4837.1252    164.40591   -4672.7193 
 1775000    931.98797   -4845.9903    170.34302   -4675.6472 
 1775200    914.48533   -4838.8332      167.144   -4671.6892 
 1775400    931.78044    -4847.022    170.30509   -4676.7169 
 1775600    922.36581   -4847.8321    168.58435   -4679.2477 
 1775800    913.98002   -4846.9112    167.05164   -4679.8595 
 1776000    952.48134   -4844.1233    174.08868   -4670.0347 
 1776200    922.01089   -4840.6975    168.51948    -4672.178 
 1776400    913.32268   -4847.1114     166.9315   -4680.1799 
 1776600    899.36006   -4843.1487     164.3795   -4678.7692 
 1776800    902.43769   -4839.6231    164.94201   -4674.6811 
 1777000     921.7754   -4850.4903    168.47643   -4682.0139 
 1777200    931.38964   -4844.8791    170.23367   -4674.6454 
 1777400     922.3537    -4838.742    168.58213   -4670.1599 
 1777600    939.30698   -4849.5172    171.68075   -4677.8365 
 1777800     905.4614   -4841.3363    165.49466   -4675.8416 
 1778000    923.28221   -4840.7589    168.75184   -4672.0071 
 1778200    914.87146   -4845.5123    167.21457   -4678.2978 
 1778400    916.91992   -4844.0098    167.58898   -4676.4208 
 1778600    929.63773   -4838.8067    169.91346   -4668.8932 
 1778800    906.17732   -4845.5137    165.62551   -4679.8882 
 1779000    920.20809    -4845.127    168.18997   -4676.9371 
 1779200     946.8874   -4837.2603    173.06625   -4664.1941 
 1779400     913.4425   -4844.4073     166.9534   -4677.4539 
 1779600    906.69975   -4841.7998      165.721   -4676.0788 
 1779800    940.37198   -4841.7007     171.8754   -4669.8253 
 1780000    903.97577   -4841.2297    165.22313   -4676.0066 
 1780200    881.90918   -4841.6199    161.18993     -4680.43 
 1780400    926.64762   -4834.6619    169.36695    -4665.295 
 1780600    967.33514   -4846.8414    176.80356   -4670.0379 
 1780800    893.58697   -4846.9173    163.32433    -4683.593 
 1781000    940.54849   -4834.1799    171.90766   -4662.2722 
 1781200     940.7006   -4843.1047    171.93546   -4671.1693 
 1781400    927.09096   -4847.0399    169.44798   -4677.5919 
 1781600    982.02663   -4843.2868    179.48878    -4663.798 
 1781800    912.96264   -4850.8092    166.86569   -4683.9435 
 1782000    917.69097   -4847.5774    167.72991   -4679.8474 
 1782200    969.72713   -4833.2715    177.24076   -4656.0307 
 1782400    909.18379   -4846.0776    166.17502   -4679.9026 
 1782600    925.39791   -4848.0278    169.13853   -4678.8893 
 1782800    960.34177   -4839.7054    175.52536   -4664.1801 
 1783000     903.3328   -4843.7301    165.10561   -4678.6245 
 1783200    931.81705   -4847.8243    170.31179   -4677.5126 
 1783400    904.39044   -4840.4456    165.29892   -4675.1467 
 1783600    919.20637   -4841.9598    168.00688   -4673.9529 
 1783800    906.74345   -4837.3815    165.72899   -4671.6525 
 1784000    926.24132   -4839.0913    169.29269   -4669.7986 
 1784200    893.02854   -4842.3313    163.22226   -4679.1091 
 1784400    928.69853   -4848.4989     169.7418   -4678.7571 
 1784600    907.90117   -4837.8262    165.94059   -4671.8856 
 1784800    936.96716   -4842.5512    171.25309   -4671.2981 
 1785000    906.97384   -4844.1485     165.7711   -4678.3774 
 1785200    949.80944   -4847.2489    173.60032   -4673.6486 
 1785400    931.58991   -4845.6053    170.27027   -4675.3351 
 1785600    933.10628   -4845.3396    170.54742   -4674.7922 
 1785800    944.71788   -4838.5373    172.66972   -4665.8676 
 1786000    921.35916   -4841.9228    168.40036   -4673.5224 
 1786200    920.40863   -4843.9758    168.22662   -4675.7492 
 1786400    925.12078   -4830.3922    169.08788   -4661.3043 
 1786600    933.57708   -4838.1867    170.63347   -4667.5533 
 1786800    903.17755   -4853.0594    165.07723   -4687.9821 
 1787000    964.92357   -4851.2585    176.36279   -4674.8957 
 1787200    934.59055   -4833.3899    170.81871   -4662.5711 
 1787400    920.44601   -4841.4645    168.23346    -4673.231 
 1787600    913.71942   -4842.4152    167.00401   -4675.4112 
 1787800     909.6327    -4839.731    166.25707   -4673.4739 
 1788000    950.55164   -4840.5398    173.73598   -4666.8039 
 1788200    948.20484   -4843.2011    173.30704   -4669.8941 
 1788400    915.25693   -4844.5487    167.28503   -4677.2636 
 1788600    950.46478   -4846.2169     173.7201   -4672.4968 
 1788800    906.28734   -4841.2566    165.64562    -4675.611 
 1789000     947.5921     -4841.74    173.19505   -4668.5449 
 1789200    950.32092   -4845.1659    173.69381   -4671.4721 
 1789400    911.18945   -4851.2154     166.5416   -4684.6738 
 1789600    921.96092   -4843.8079    168.51034   -4675.2976 
 1789800    959.10596   -4847.7891    175.29948   -4672.4896 
 1790000    909.44667   -4843.5984    166.22306   -4677.3753 
 1790200    928.64056   -4846.4118    169.73121   -4676.6806 
 1790400    931.41905   -4846.6494    170.23904   -4676.4103 
 1790600    930.87955   -4846.3644    170.14044   -4676.2239 
 1790800    945.44731   -4838.7815    172.80304   -4665.9785 
 1791000    918.35532   -4846.1645    167.85133   -4678.3131 
 1791200    883.03668   -4844.4359    161.39601   -4683.0399 
 1791400    920.52088   -4830.5969    168.24714   -4662.3497 
 1791600    923.64697   -4827.9111    168.81851   -4659.0926 
 1791800    882.44269   -4839.5641    161.28744   -4678.2766 
 1792000    926.67091   -4842.9809    169.37121   -4673.6097 
 1792200    916.99222   -4839.2909    167.60219   -4671.6887 
 1792400     943.0873    -4843.065    172.37169   -4670.6933 
 1792600    920.12089   -4833.3603    168.17403   -4665.1863 
 1792800    936.27329   -4836.9309    171.12627   -4665.8047 
 1793000    889.05858    -4844.305    162.49666   -4681.8083 
 1793200    960.80797   -4837.3241    175.61057   -4661.7136 
 1793400    932.28898   -4830.5397    170.39804   -4660.1416 
 1793600    919.45854   -4843.0424    168.05297   -4674.9895 
 1793800    962.20876    -4841.444    175.86659   -4665.5774 
 1794000    921.95347   -4836.9064    168.50898   -4668.3974 
 1794200    906.05016   -4834.9069    165.60227   -4669.3046 
 1794400    926.68531    -4831.983    169.37384   -4662.6092 
 1794600    919.23461   -4835.8979    168.01204   -4667.8858 
 1794800     920.0828   -4837.5906    168.16707   -4669.4235 
 1795000    938.90054     -4833.69    171.60646   -4662.0835 
 1795200    923.95501   -4840.8333    168.87481   -4671.9585 
 1795400    888.99133   -4841.1295    162.48436   -4678.6451 
 1795600    917.79034   -4832.0125    167.74807   -4664.2644 
 1795800    946.26577   -4830.4591    172.95263   -4657.5065 
 1796000    897.13407   -4839.3429    163.97264   -4675.3703 
 1796200      942.246   -4840.4854    172.21792   -4668.2675 
 1796400    946.94472   -4835.2793    173.07673   -4662.2026 
 1796600    897.07323   -4837.5844    163.96152   -4673.6228 
 1796800    946.45802   -4845.9682    172.98777   -4672.9805 
 1797000    911.10387   -4834.0502    166.52596   -4667.5242 
 1797200    920.00013   -4841.3259    168.15196    -4673.174 
 1797400    911.17243   -4832.2754    166.53849   -4665.7369 
 1797600    944.15016   -4833.3153    172.56595   -4660.7493 
 1797800    895.02726   -4839.7026    163.58757    -4676.115 
 1798000     946.9532   -4839.8342    173.07828   -4666.7559 
 1798200    929.41445   -4833.0536    169.87265    -4663.181 
 1798400    919.92641   -4841.2091    168.13849   -4673.0706 
 1798600    948.75463   -4847.0549    173.40753   -4673.6474 
 1798800    937.63063   -4842.5315    171.37436   -4671.1572 
 1799000    933.63949   -4838.8618    170.64488   -4668.2169 
 1799200     972.4311   -4833.0207    177.73497   -4655.2857 
 1799400    953.37647   -4845.5485    174.25228   -4671.2963 
 1799600    883.70816   -4850.4415    161.51874   -4688.9227 
 1799800     960.1958    -4836.764    175.49868   -4661.2654 
 1800000    966.19389   -4831.7659    176.59497   -4655.1709 
 1800200    918.51901   -4848.5306    167.88125   -4680.6494 
 1800400    905.90748   -4838.0331    165.57619   -4672.4569 
 1800600    961.87265   -4839.9715    175.80516   -4664.1664 
 1800800     882.8977   -4835.0343    161.37061   -4673.6637 
 1801000    954.35176   -4837.8528    174.43054   -4663.4222 
 1801200    922.79873   -4838.5696    168.66347   -4669.9061 
 1801400    893.23334   -4840.5616    163.25969   -4677.3019 
 1801600    952.59719   -4839.5036    174.10985   -4665.3938 
 1801800     942.3108    -4838.745    172.22977   -4666.5152 
 1802000    929.54288   -4847.1187    169.89613   -4677.2226 
 1802200    891.99516   -4836.6464    163.03338    -4673.613 
 1802400    943.02653   -4832.0479    172.36059   -4659.6873 
 1802600    913.16749   -4834.1792    166.90313   -4667.2761 
 1802800    920.06122   -4842.3264    168.16313   -4674.1633 
 1803000    971.67982   -4844.2433    177.59766   -4666.6457 
 1803200    903.01645   -4835.6425    165.04779   -4670.5947 
 1803400    962.83248    -4832.283    175.98059   -4656.3024 
 1803600    942.55472   -4833.3034    172.27435    -4661.029 
 1803800    915.35492     -4843.28    167.30294   -4675.9771 
 1804000    955.27555    -4845.277    174.59938   -4670.6776 
 1804200    920.78312   -4824.1562    168.29507   -4655.8612 
 1804400     907.8439   -4834.1757    165.93012   -4668.2456 
 1804600    887.13904   -4839.3977    162.14581   -4677.2519 
 1804800    973.38563   -4830.5539    177.90943   -4652.6445 
 1805000    917.02057   -4831.6607    167.60738   -4664.0534 
 1805200    934.48908    -4846.046    170.80016   -4675.2458 
 1805400    944.41708   -4840.2004    172.61474   -4667.5857 
 1805600    896.16291   -4837.3372    163.79514    -4673.542 
 1805800    936.24343   -4838.7523    171.12081   -4667.6315 
 1806000    951.36441   -4835.9707    173.88453   -4662.0862 
 1806200    926.89888   -4843.3809    169.41287    -4673.968 
 1806400    882.58806   -4841.1715    161.31401   -4679.8575 
 1806600    978.24437   -4836.9387    178.79748   -4658.1413 
 1806800     944.5046   -4834.9412    172.63074   -4662.3104 
 1807000    908.79824   -4846.2348    166.10455   -4680.1303 
 1807200    958.45261   -4850.6384    175.18007   -4675.4583 
 1807400    950.28581   -4839.5395    173.68739   -4665.8521 
 1807600    939.46648    -4836.731     171.7099   -4665.0211 
 1807800    958.30516   -4844.0696    175.15312   -4668.9165 
 1808000    944.13326   -4843.5668    172.56287   -4671.0039 
 1808200    947.10567   -4842.8504    173.10614   -4669.7443 
 1808400    929.79486   -4837.4632    169.94218    -4667.521 
 1808600    964.65642   -4840.2266    176.31396   -4663.9126 
 1808800    924.87857   -4840.0567    169.04361   -4671.0131 
 1809000     915.6862   -4844.3304    167.36349   -4676.9669 
 1809200    934.98448    -4844.307    170.89071   -4673.4163 
 1809400    909.73832   -4837.1254    166.27637   -4670.8491 
 1809600    922.13038   -4838.7584    168.54132   -4670.2171 
 1809800    936.69528   -4843.0583     171.2034   -4671.8549 
 1810000    934.32892   -4842.9545    170.77089   -4672.1836 
 1810200     955.2402   -4838.3934    174.59292   -4663.8005 
 1810400    932.95897    -4838.181     170.5205   -4667.6605 
 1810600    907.41381   -4842.5032    165.85151   -4676.6517 
 1810800    960.78949   -4841.8267    175.60719   -4666.2196 
 1811000    943.16996   -4837.3655     172.3868   -4664.9787 
 1811200    925.46148   -4843.8214    169.15015   -4674.6712 
 1811400    961.16027   -4837.7842    175.67496   -4662.1093 
 1811600     938.4672    -4838.111    171.52726   -4666.5837 
 1811800    902.11119   -4835.2092    164.88233   -4670.3268 
 1812000    922.40791   -4826.1452    168.59204   -4657.5532 
 1812200    948.21611   -4832.0743     173.3091   -4658.7652 
 1812400    937.61702   -4835.4115    171.37187   -4664.0396 
 1812600    896.81488   -4835.3738     163.9143   -4671.4595 
 1812800     914.7086   -4835.3417    167.18481   -4668.1569 
 1813000    945.38078   -4838.8711    172.79088   -4666.0802 
 1813200    924.18818   -4843.1958    168.91743   -4674.2783 
 1813400    938.38551    -4838.436    171.51233   -4666.9237 
 1813600    934.90619   -4836.9093     170.8764   -4666.0329 
 1813800    917.20206   -4842.7226    167.64055   -4675.0821 
 1814000    936.03897   -4831.2552    171.08344   -4660.1718 
 1814200     941.2112   -4835.1732    172.02879   -4663.1445 
 1814400    917.74221   -4841.0037    167.73927   -4673.2644 
 1814600    967.45254   -4835.8187    176.82502   -4658.9937 
 1814800    960.50242   -4827.9372    175.55472   -4652.3825 
 1815000     906.8117    -4833.872    165.74146   -4668.1306 
 1815200    945.87108   -4841.3252    172.88049   -4668.4447 
 1815400    963.09353   -4842.2206    176.02831   -4666.1923 
 1815600    930.37932   -4843.1542      170.049   -4673.1052 
 1815800    930.52934   -4839.7169    170.07643   -4669.6404 
 1816000    934.86147   -4842.4196    170.86823   -4671.5514 
 1816200    942.55776   -4843.7793    172.27491   -4671.5043 
 1816400    920.86783   -4839.9011    168.31055   -4671.5906 
 1816600    932.50402   -4836.4567    170.43735   -4666.0194 
 1816800    940.32652   -4839.4511    171.86709    -4667.584 
 1817000    935.25231   -4845.3368    170.93966   -4674.3972 
 1817200    935.38352   -4838.0258    170.96364   -4667.0621 
 1817400    922.85712   -4831.9378    168.67414   -4663.2637 
 1817600    934.69495   -4837.0359    170.83779   -4666.1981 
 1817800    944.87602   -4840.4397    172.69862   -4667.7411 
 1818000    942.65073   -4840.0073     172.2919   -4667.7154 
 1818200    949.51331   -4838.7593     173.5462   -4665.2131 
 1818400    958.50696   -4844.3903       175.19   -4669.2003 
 1818600    923.91327   -4838.4858    168.86718   -4669.6187 
 1818800    944.66209   -4831.8284    172.65952   -4659.1689 
 1819000    963.55735   -4841.9167    176.11308   -4665.8036 
 1819200    931.59952   -4837.6366    170.27203   -4667.3645 
 1819400    952.45864   -4840.0303    174.08453   -4665.9458 
 1819600    912.30235   -4838.7355    166.74501   -4671.9905 
 1819800     957.3351   -4835.2767    174.97582   -4660.3008 
 1820000    940.93559   -4835.5017    171.97842   -4663.5232 
 1820200    925.03659   -4847.6658    169.07249   -4678.5933 
 1820400    918.85118   -4840.5342    167.94196   -4672.5922 
 1820600    941.83647    -4828.615    172.14307   -4656.4719 
 1820800    911.42734   -4839.6475    166.58508   -4673.0624 
 1821000    942.26824    -4842.501    172.22199    -4670.279 
 1821200    972.86016   -4842.8712    177.81339   -4665.0578 
 1821400    927.69793   -4841.9127    169.55892   -4672.3537 
 1821600    949.39354   -4840.8145    173.52431   -4667.2902 
 1821800    934.47524   -4838.3244    170.79763   -4667.5268 
 1822000    920.91633    -4840.643    168.31942   -4672.3235 
 1822200    928.82002   -4835.3327    169.76401   -4665.5687 
 1822400    919.55305   -4839.7214    168.07025   -4671.6511 
 1822600     934.3387   -4847.5746    170.77268   -4676.8019 
 1822800    952.37569   -4839.3687    174.06937   -4665.2993 
 1823000    904.85853   -4841.4381    165.38447   -4676.0536 
 1823200    921.54413   -4843.7509    168.43416   -4675.3167 
 1823400    1007.6139   -4845.6917    184.16547   -4661.5262 
 1823600    914.26384    -4842.736    167.10352   -4675.6325 
 1823800    912.70029   -4838.0473    166.81774   -4671.2295 
 1824000     959.2358   -4837.1276    175.32321   -4661.8044 
 1824200     920.1507   -4842.3741    168.17948   -4674.1947 
 1824400    924.65009   -4842.8873    169.00185   -4673.8855 
 1824600    953.45127   -4834.8034    174.26595   -4660.5374 
 1824800     924.6707   -4837.5346    169.00562    -4668.529 
 1825000    933.47464   -4843.1156    170.61475   -4672.5008 
 1825200    981.65978   -4843.6307    179.42173    -4664.209 
 1825400     954.8577   -4844.3292    174.52301   -4669.8062 
 1825600    951.19272   -4836.6678    173.85315   -4662.8146 
 1825800    963.74782    -4841.711    176.14789   -4665.5632 
 1826000    942.20254   -4842.3454    172.20998   -4670.1354 
 1826200    922.09352   -4832.0961    168.53458   -4663.5615 
 1826400    938.86042   -4834.8165    171.59913   -4663.2173 
 1826600    951.96924    -4838.271    173.99508    -4664.276 
 1826800    899.99642   -4834.3931    164.49581   -4669.8973 
 1827000    938.17448   -4829.2271    171.47376   -4657.7533 
 1827200    930.32032   -4833.4119    170.03822   -4663.3737 
 1827400    928.14085   -4842.7018    169.63987   -4673.0619 
 1827600    903.53904   -4834.0282     165.1433   -4668.8849 
 1827800    962.38926   -4830.3158    175.89959   -4654.4162 
 1828000    924.94614   -4844.7164    169.05596   -4675.6604 
 1828200    913.51754   -4845.9035    166.96711   -4678.9364 
 1828400    964.59112   -4836.3291    176.30203    -4660.027 
 1828600    921.26987   -4837.0301    168.38404    -4668.646 
 1828800    928.67862   -4841.2798    169.73816   -4671.5416 
 1829000    953.94684   -4838.7968    174.35653   -4664.4402 
 1829200    946.89447   -4841.9652    173.06754   -4668.8976 
 1829400     922.2408   -4846.6717     168.5615   -4678.1102 
 1829600    928.50966   -4842.9609    169.70728   -4673.2536 
 1829800    945.60537   -4838.5752    172.83193   -4665.7433 
 1830000    924.51137   -4836.5206     168.9765   -4667.5441 
 1830200    940.71741   -4836.1494    171.93854   -4664.2109 
 1830400    949.71911   -4848.0102    173.58381   -4674.4264 
 1830600    909.34557   -4844.7743    166.20459   -4678.5697 
 1830800    971.15497   -4836.3162    177.50173   -4658.8145 
 1831000    929.96907   -4835.8803    169.97402   -4665.9062 
 1831200    899.55584   -4846.3058    164.41528   -4681.8905 
 1831400    952.49592    -4842.245    174.09134   -4668.1537 
 1831600    981.91677   -4839.1897     179.4687    -4659.721 
 1831800    917.16038   -4844.8077    167.63293   -4677.1748 
 1832000    959.32591   -4843.2691    175.33969   -4667.9294 
 1832200    963.02937   -4838.5681    176.01658   -4662.5515 
 1832400    905.11946   -4842.1707    165.43216   -4676.7385 
 1832600     975.6893   -4844.9484    178.33048    -4666.618 
 1832800    977.88892   -4837.8792    178.73252   -4659.1467 
 1833000    927.99549   -4846.1625     169.6133   -4676.5492 
 1833200    924.87976   -4847.2395    169.04383   -4678.1957 
 1833400    985.37882   -4841.7764    180.10148   -4661.6749 
 1833600    930.59839   -4835.1948    170.08905   -4665.1058 
 1833800    903.61951   -4841.9118    165.15801   -4676.7537 
 1834000    981.43555   -4845.7326    179.38075   -4666.3518 
 1834200    945.09137   -4844.0614    172.73798   -4671.3234 
 1834400    907.80423   -4844.7036    165.92287   -4678.7807 
 1834600    961.48613   -4834.5437    175.73452   -4658.8091 
 1834800    955.88927   -4841.0349    174.71156   -4666.3233 
 1835000    920.79414   -4846.0637    168.29709   -4677.7666 
 1835200     961.5298   -4838.2535     175.7425    -4662.511 
 1835400    960.03679   -4837.0013    175.46962   -4661.5317 
 1835600    937.60369   -4845.8055    171.36943   -4674.4361 
 1835800    914.16047   -4845.0693    167.08462   -4677.9847 
 1836000    944.40977   -4837.0574     172.6134    -4664.444 
 1836200      926.047   -4837.1475    169.25717   -4667.8903 
 1836400    975.85294   -4847.1562    178.36039   -4668.7958 
 1836600    948.30059   -4839.1118    173.32454   -4665.7873 
 1836800    938.72258    -4835.239    171.57394    -4663.665 
 1837000    937.03319   -4838.8906    171.26516   -4667.6254 
 1837200     933.4042   -4841.0212    170.60187   -4670.4193 
 1837400    935.68811   -4831.1799    171.01931   -4660.1605 
 1837600    960.63938   -4839.7979    175.57975   -4664.2182 
 1837800     924.8117   -4841.3518    169.03139   -4672.3204 
 1838000    963.65916   -4835.3317    176.13169      -4659.2 
 1838200    940.89704   -4840.3758    171.97137   -4668.4045 
 1838400    912.45262    -4843.633    166.77247   -4676.8606 
 1838600    963.67437    -4833.848    176.13447   -4657.7135 
 1838800    969.30761   -4838.3236    177.16408   -4661.1595 
 1839000    900.80708   -4839.6303    164.64397   -4674.9864 
 1839200    910.91897   -4833.2397    166.49216   -4666.7475 
 1839400    943.30266   -4832.3832    172.41105   -4659.9722 
 1839600     948.7609   -4839.5171    173.40868   -4666.1084 
 1839800     949.5683   -4845.5534    173.55625   -4671.9971 
 1840000    943.84455   -4839.5862     172.5101   -4667.0761 
 1840200    958.57578    -4839.119    175.20258   -4663.9164 
 1840400    961.15655    -4847.601    175.67428   -4671.9267 
 1840600    947.61008   -4849.5939    173.19834   -4676.3956 
 1840800    950.13969   -4841.8633    173.66068   -4668.2026 
 1841000    949.85614   -4837.2364    173.60886   -4663.6275 
 1841200    935.12401   -4836.1135    170.91621   -4665.1973 
 1841400    929.43118   -4836.8203    169.87571   -4666.9446 
 1841600    933.50456   -4840.1854    170.62022   -4669.5651 
 1841800    917.40807   -4839.0762     167.6782    -4671.398 
 1842000    980.14758   -4841.7196    179.14534   -4662.5743 
 1842200    927.98362   -4841.8496    169.61113   -4672.2385 
 1842400    910.82966   -4842.3067    166.47584   -4675.8308 
 1842600    960.14092   -4837.6494    175.48865   -4662.1608 
 1842800    941.46837   -4838.4956    172.07579   -4666.4198 
 1843000    927.88319   -4841.2117    169.59278   -4671.6189 
 1843200    977.19638   -4840.9084    178.60594   -4662.3025 
 1843400    960.84933   -4837.6925    175.61813   -4662.0744 
 1843600    940.16722   -4842.7585    171.83798   -4670.9205 
 1843800    929.27018   -4832.2806    169.84628   -4662.4344 
 1844000    931.66066   -4832.4845     170.2832   -4662.2013 
 1844200    944.49653   -4845.2729    172.62926   -4672.6437 
 1844400    917.14587   -4837.9669    167.63028   -4670.3366 
 1844600    974.77616    -4839.481    178.16359   -4661.3175 
 1844800    930.69162    -4842.716    170.10609   -4672.6099 
 1845000     923.3376   -4834.9975    168.76196   -4666.2355 
 1845200    989.63385   -4838.9914    180.87918   -4658.1122 
 1845400    913.53115   -4841.5625     166.9696   -4674.5929 
 1845600    969.00777   -4842.9677    177.10928   -4665.8584 
 1845800    940.27126   -4832.6333    171.85699   -4660.7763 
 1846000    950.08776    -4844.697    173.65119   -4671.0458 
 1846200    986.54262   -4845.1245    180.31419   -4664.8103 
 1846400    954.50041   -4841.4173    174.45771   -4666.9596 
 1846600    916.95203   -4842.4175    167.59485   -4674.8226 
 1846800    959.70608   -4831.8797    175.40917   -4656.4706 
 1847000    960.95855   -4833.1115    175.63809   -4657.4735 
 1847200    936.10594   -4840.4617    171.09568   -4669.3661 
 1847400    935.39049   -4837.2101    170.96492   -4666.2452 
 1847600    950.73974   -4840.8876    173.77036   -4667.1173 
 1847800    920.82731    -4837.774    168.30315   -4669.4709 
 1848000    939.34641   -4828.8651    171.68795   -4657.1772 
 1848200    974.76533   -4841.0199    178.16161   -4662.8583 
 1848400    940.28112   -4840.0205     171.8588   -4668.1617 
 1848600     959.2855   -4837.8183     175.3323    -4662.486 
 1848800    936.05477   -4835.6009    171.08633   -4664.5146 
 1849000    950.39409   -4837.2079    173.70718   -4663.5007 
 1849200    960.45173   -4835.3857    175.54546   -4659.8403 
 1849400     906.5108     -4833.97    165.68647   -4668.2836 
 1849600    954.20225   -4836.5309    174.40321   -4662.1277 
 1849800    955.82685   -4830.1727    174.70015   -4655.4726 
 1850000    955.58604   -4833.0498    174.65613   -4658.3936 
 1850200    929.88661   -4839.5945    169.95895   -4669.6356 
 1850400    928.22818   -4832.8481    169.65583   -4663.1923 
 1850600    948.76553   -4829.2391    173.40952   -4655.8295 
 1850800    916.36361   -4831.3258     167.4873   -4663.8385 
 1851000    959.22021   -4837.1815    175.32037   -4661.8611 
 1851200     942.7466   -4833.4579    172.30942   -4661.1485 
 1851400    941.07846   -4835.5263    172.00453   -4663.5217 
 1851600     984.7575   -4841.5861    179.98792   -4661.5982 
 1851800     946.2732   -4836.6782    172.95399   -4663.7242 
 1852000    952.52941   -4838.6427    174.09746   -4664.5453 
 1852200    957.46881   -4827.2081    175.00026   -4652.2079 
 1852400    962.35586   -4835.9651    175.89348   -4660.0716 
 1852600    916.27307   -4838.5571    167.47075   -4671.0864 
 1852800    982.40811   -4835.0507    179.55851   -4655.4922 
 1853000    950.33669   -4835.3309    173.69669   -4661.6342 
 1853200    952.47371    -4839.695    174.08728   -4665.6077 
 1853400    937.10043   -4836.8064    171.27745    -4665.529 
 1853600    956.37861   -4834.4128      174.801   -4659.6118 
 1853800     977.5525   -4830.4565    178.67103   -4651.7855 
 1854000    946.20564    -4830.466    172.94164   -4657.5243 
 1854200    939.40867   -4838.9843    171.69934    -4667.285 
 1854400    958.80027   -4838.6395    175.24361   -4663.3959 
 1854600    942.97397    -4833.534    172.35098    -4661.183 
 1854800    968.79744   -4838.1143    177.07083   -4661.0435 
 1855000    919.26109   -4834.5948    168.01688   -4666.5779 
 1855200    963.63418   -4835.5522    176.12712   -4659.4251 
 1855400    956.88704   -4833.6946    174.89392   -4658.8007 
 1855600    946.80138   -4840.5766    173.05053   -4667.5261 
 1855800    968.50909   -4840.1508    177.01813   -4663.1327 
 1856000    956.79145    -4834.914    174.87645   -4660.0376 
 1856200    951.10369   -4836.9242    173.83688   -4663.0873 
 1856400    975.89462   -4836.8886    178.36801   -4658.5206 
 1856600    908.96192    -4839.986    166.13446   -4673.8515 
 1856800    929.31245   -4834.7334    169.85401   -4664.8794 
 1857000    1002.8063   -4835.4076    183.28676   -4652.1208 
 1857200    946.53422   -4845.0035     173.0017   -4672.0018 
 1857400    908.71956   -4837.3026    166.09017   -4671.2124 
 1857600    962.02295   -4831.2474    175.83263   -4655.4148 
 1857800    962.23824   -4839.3233    175.87198   -4663.4513 
 1858000    926.21907   -4839.0385    169.28862   -4669.7499 
 1858200    964.23826   -4831.4776    176.23753   -4655.2401 
 1858400    933.47436   -4829.4709     170.6147   -4658.8562 
 1858600    950.58038     -4832.65    173.74123   -4658.9088 
 1858800    962.95303   -4830.9078    176.00263   -4654.9052 
 1859000    954.05637   -4833.7348    174.37655   -4659.3583 
 1859200    915.16062   -4837.2256    167.26743   -4669.9581 
 1859400    919.05879   -4832.0345    167.97991   -4664.0546 
 1859600    990.67466   -4830.4351    181.06942   -4649.3656 
 1859800    934.84451   -4835.1966    170.86513   -4664.3314 
 1860000    948.17118   -4836.0294    173.30089   -4662.7285 
 1860200    944.26319   -4831.1641    172.58661   -4658.5775 
 1860400    965.60956   -4833.8851    176.48817    -4657.397 
 1860600    947.70737   -4829.8324    173.21612   -4656.6163 
 1860800    937.48772   -4827.9403    171.34824   -4656.5921 
 1861000    970.24986   -4838.2906     177.3363   -4660.9543 
 1861200    939.73744   -4831.2947    171.75943   -4659.5353 
 1861400    980.19782   -4835.8645    179.15453     -4656.71 
 1861600    934.34409   -4834.6262    170.77366   -4663.8526 
 1861800    950.04517   -4836.1201    173.64341   -4662.4766 
 1862000    958.35873   -4826.8481    175.16291   -4651.6852 
 1862200     966.5981   -4829.1946    176.66885   -4652.5258 
 1862400    916.01861   -4825.0572    167.42424    -4657.633 
 1862600    941.45351   -4832.9694    172.07308   -4660.8963 
 1862800    899.83044    -4823.806    164.46547   -4659.3405 
 1863000     960.6959    -4828.215    175.59008   -4652.6249 
 1863200    918.90182   -4828.4219    167.95122   -4660.4706 
 1863400    951.89535   -4833.7869    173.98157   -4659.8053 
 1863600    976.49319    -4837.811    178.47742   -4659.3336 
 1863800    936.04521   -4833.4364    171.08458   -4662.3519 
 1864000    970.29798   -4829.8567    177.34509   -4652.5116 
 1864200    989.04589   -4832.5222    180.77172   -4651.7505 
 1864400    940.91686   -4836.6565    171.97499   -4664.6815 
 1864600    954.36862   -4832.6755    174.43362   -4658.2419 
 1864800    942.25783   -4821.1425    172.22009   -4648.9224 
 1865000    948.30582   -4826.6424     173.3255   -4653.3169 
 1865200    978.11852    -4840.592    178.77448   -4661.8175 
 1865400    939.95523   -4835.6028    171.79923   -4663.8036 
 1865600    948.07724   -4829.6073    173.28372   -4656.3235 
 1865800     969.5951   -4829.0885    177.21662   -4651.8719 
 1866000    948.57153   -4838.6552    173.37407   -4665.2812 
 1866200    946.44315   -4840.6171    172.98505    -4667.632 
 1866400    940.54658   -4832.5962    171.90731   -4660.6889 
 1866600    943.32177   -4826.1221    172.41455   -4653.7076 
 1866800     929.8629   -4830.3529    169.95462   -4660.3983 
 1867000    933.12247   -4835.8349    170.55038   -4665.2845 
 1867200    962.73219   -4829.7468    175.96226   -4653.7845 
 1867400    963.03411   -4830.4792    176.01745   -4654.4618 
 1867600    915.28965   -4833.1082    167.29101   -4665.8172 
 1867800    965.76722   -4834.9058    176.51699   -4658.3888 
 1868000    956.75379    -4833.527    174.86957   -4658.6575 
 1868200    978.27552   -4840.7793    178.80318   -4661.9761 
 1868400    957.27301   -4829.1506    174.96447   -4654.1862 
 1868600    946.18538   -4827.2734    172.93794   -4654.3355 
 1868800    940.50712   -4833.8769     171.9001   -4661.9768 
 1869000    932.31766   -4825.0571    170.40328   -4654.6538 
 1869200    941.92027   -4826.1012    172.15839   -4653.9428 
 1869400    949.01331   -4830.1496    173.45481   -4656.6948 
 1869600    947.79722   -4829.2489    173.23254   -4656.0164 
 1869800    968.57781   -4828.4557    177.03069    -4651.425 
 1870000    965.68162   -4829.5829    176.50134   -4653.0816 
 1870200    958.70552   -4831.6389    175.22629   -4656.4126 
 1870400     993.8929   -4827.3074    181.65763   -4645.6497 
 1870600    958.81482   -4828.2724    175.24627   -4653.0261 
 1870800    932.48582   -4836.2665    170.43402   -4665.8325 
 1871000     973.6561   -4830.1638    177.95887    -4652.205 
 1871200    989.02953   -4829.1886    180.76873   -4648.4198 
 1871400    938.54775   -4835.6646    171.54198   -4664.1226 
 1871600    945.79961   -4831.3927    172.86743   -4658.5252 
 1871800    955.70797   -4826.3197    174.67842   -4651.6412 
 1872000    937.75501   -4835.8094    171.39709   -4664.4124 
 1872200    965.85882   -4833.3426    176.53373   -4656.8089 
 1872400    950.42223   -4828.2452    173.71233   -4654.5329 
 1872600    953.06488   -4831.7911    174.19533   -4657.5957 
 1872800    941.33585   -4827.0402    172.05157   -4654.9886 
 1873000    953.24263   -4831.5659    174.22782   -4657.3381 
 1873200    945.69824   -4832.5115     172.8489   -4659.6626 
 1873400    972.54144   -4830.5176    177.75514   -4652.7625 
 1873600    944.72603      -4825.7    172.67121   -4653.0288 
 1873800    986.68076    -4835.962    180.33944   -4655.6226 
 1874000    945.55901   -4833.9745    172.82346    -4661.151 
 1874200    975.30233    -4835.826    178.25976   -4657.5663 
 1874400    956.19716   -4828.9243    174.76783   -4654.1565 
 1874600    971.90634   -4835.8273    177.63906   -4658.1882 
 1874800    955.09389   -4835.6958    174.56618   -4661.1297 
 1875000    993.22144   -4836.6226     181.5349   -4655.0877 
 1875200    949.02054   -4829.5645    173.45613   -4656.1083 
 1875400    941.16501   -4832.3773    172.02035   -4660.3569 
 1875600    962.16894   -4836.9861    175.85932   -4661.1268 
 1875800    940.08653   -4830.6203    171.82323   -4658.7971 
 1876000    977.04577   -4841.6317    178.57841   -4663.0533 
 1876200    946.27203     -4840.34    172.95378   -4667.3862 
 1876400    983.08348   -4838.8144    179.68195   -4659.1324 
 1876600    974.43735   -4833.5214    178.10166   -4655.4197 
 1876800    938.42991   -4834.6377    171.52044   -4663.1172 
 1877000    984.21748   -4833.9892    179.88921   -4654.0999 
 1877200    964.88155   -4832.3965    176.35511   -4656.0414 
 1877400    969.90259   -4838.6449    177.27283   -4661.3721 
 1877600    972.97588   -4835.1085    177.83454    -4657.274 
 1877800    967.31091   -4832.0423    176.79913   -4655.2432 
 1878000    921.44451   -4829.8976    168.41596   -4661.4817 
 1878200    933.79254   -4827.6309    170.67285    -4656.958 
 1878400    973.81017   -4827.9933    177.98703   -4650.0063 
 1878600    967.18468   -4833.3228    176.77606   -4656.5467 
 1878800    941.12007   -4830.9299    172.01213   -4658.9177 
 1879000     961.5352   -4831.8351    175.74349   -4656.0916 
 1879200    970.21321   -4837.9766     177.3296    -4660.647 
 1879400    959.90758   -4837.3045      175.446   -4661.8585 
 1879600     974.2854    -4833.578    178.07389   -4655.5041 
 1879800    1003.6104   -4836.5006    183.43373   -4653.0668 
 1880000    945.15913    -4836.472    172.75037   -4663.7217 
 1880200    963.30241   -4831.9447    176.06649   -4655.8782 
 1880400    954.86294   -4830.2011    174.52397   -4655.6771 
 1880600    923.92705   -4834.5573     168.8697   -4665.6876 
 1880800    945.71572   -4829.6171     172.8521    -4656.765 
 1881000    970.01276   -4830.9854    177.29296   -4653.6925 
 1881200    968.10585   -4837.2693    176.94443   -4660.3249 
 1881400    939.51421   -4830.1736    171.71862    -4658.455 
 1881600    992.94868   -4837.1108    181.48505   -4655.6257 
 1881800    960.37121   -4837.0433    175.53074   -4661.5126 
 1882000    975.28737   -4830.5623    178.25702   -4652.3053 
 1882200    970.93113   -4834.8538    177.46082    -4657.393 
 1882400    958.83803   -4840.1933    175.25051   -4664.9428 
 1882600    937.50758   -4828.1895    171.35187   -4656.8376 
 1882800    986.83136   -4832.3416    180.36696   -4651.9746 
 1883000    933.32157    -4837.935    170.58677   -4667.3482 
 1883200    945.38203   -4835.1396    172.79111   -4662.3485 
 1883400    955.60321   -4829.6238    174.65927   -4654.9645 
 1883600    940.01008   -4831.3908    171.80926   -4659.5816 
 1883800    939.15183   -4822.3627    171.65239   -4650.7103 
 1884000    952.76615   -4827.8511    174.14073   -4653.7104 
 1884200    942.11428   -4835.8258    172.19385   -4663.6319 
 1884400    992.91802   -4840.4534    181.47944   -4658.9739 
 1884600    984.40254   -4832.0877    179.92304   -4652.1646 
 1884800    956.12047    -4835.748    174.75382   -4660.9941 
 1885000    989.55573   -4834.9351    180.86491   -4654.0702 
 1885200    991.00006   -4834.2748    181.12889   -4653.1459 
 1885400    938.86249   -4838.8372    171.59951   -4667.2376 
 1885600    992.54897   -4833.5131    181.41199   -4652.1011 
 1885800    992.91331   -4831.0177    181.47858   -4649.5391 
 1886000    925.47954   -4832.0261    169.15345   -4662.8727 
 1886200     957.4859   -4831.4938    175.00338   -4656.4904 
 1886400    961.77989    -4832.532    175.78821   -4656.7438 
 1886600    933.61916   -4830.9129    170.64116   -4660.2717 
 1886800    968.79665   -4832.8942    177.07069   -4655.8236 
 1887000    960.05106   -4826.9163    175.47222   -4651.4441 
 1887200    960.99698   -4834.6951    175.64511     -4659.05 
 1887400    911.30683   -4831.4799    166.56305   -4664.9168 
 1887600    1006.4126   -4831.8476     183.9459   -4647.9017 
 1887800    940.88248   -4833.3089    171.96871   -4661.3402 
 1888000    913.96911   -4835.5057    167.04965    -4668.456 
 1888200    979.13287   -4834.0256    178.95988   -4655.0657 
 1888400    967.64747   -4835.4809    176.86065   -4658.6203 
 1888600    960.43197   -4842.9602    175.54184   -4667.4184 
 1888800    982.15856   -4840.2935     179.5129   -4660.7806 
 1889000    977.13899    -4834.645    178.59545   -4656.0496 
 1889200    941.99088   -4828.3695     172.1713   -4656.1982 
 1889400    1003.9369   -4834.9989     183.4934   -4651.5055 
 1889600    988.54593   -4839.7179    180.68034   -4659.0376 
 1889800    912.37374   -4833.7581    166.75806        -4667 
 1890000    981.38041    -4833.103    179.37067   -4653.7324 
 1890200     985.6117   -4832.9065    180.14404   -4652.7625 
 1890400    932.82295    -4834.656    170.49564   -4664.1603 
 1890600    985.30057   -4829.6079    180.08717   -4649.5208 
 1890800    970.56782   -4828.7187    177.39441   -4651.3243 
 1891000    947.46224   -4832.7647    173.17132   -4659.5933 
 1891200    945.37152   -4833.6133    172.78919   -4660.8241 
 1891400     970.5028   -4842.1264    177.38253   -4664.7439 
 1891600    967.13533   -4839.9165    176.76704   -4663.1495 
 1891800     1004.069   -4832.8555    183.51756    -4649.338 
 1892000     947.9686   -4831.4048    173.26387   -4658.1409 
 1892200    957.76364   -4834.6185    175.05414   -4659.5644 
 1892400    955.68577   -4830.1342    174.67436   -4655.4599 
 1892600    958.91209   -4833.5626    175.26405   -4658.2985 
 1892800    959.14362   -4838.4243    175.30637    -4663.118 
 1893000     946.0065   -4830.9052    172.90524   -4657.9999 
 1893200    953.65898   -4829.8811    174.30392   -4655.5772 
 1893400    955.20359   -4839.0905    174.58623   -4664.5042 
 1893600    961.91671   -4840.3763    175.81322   -4664.5631 
 1893800    1017.9772   -4838.3161    186.05961   -4652.2565 
 1894000    986.90801   -4839.8571    180.38097   -4659.4761 
 1894200    956.19366   -4843.2944    174.76719   -4668.5272 
 1894400     957.9476   -4829.5265    175.08777   -4654.4387 
 1894600    955.83268   -4826.9927    174.70121   -4652.2915 
 1894800    983.67611   -4835.0551    179.79027   -4655.2649 
 1895000     998.8222   -4839.6792    182.55857   -4657.1206 
 1895200    970.03318   -4835.2414    177.29669   -4657.9447 
 1895400    931.75657   -4835.6718    170.30073    -4665.371 
 1895600    987.00889   -4832.6902    180.39941   -4652.2908 
 1895800    976.23877   -4826.1656    178.43091   -4647.7347 
 1896000    878.08558   -4830.2435    160.49108   -4669.7525 
 1896200    981.14654   -4835.4897    179.32793   -4656.1617 
 1896400    979.10449   -4830.8578    178.95469   -4651.9031 
 1896600     972.3305   -4840.9789    177.71658   -4663.2623 
 1896800    972.62366   -4834.8801    177.77017     -4657.11 
 1897000    998.70047    -4838.616    182.53633   -4656.0797 
 1897200    927.04152   -4835.3622    169.43894   -4665.9233 
 1897400    958.37224   -4826.8806    175.16538   -4651.7152 
 1897600    973.91928   -4836.9384    178.00697   -4658.9314 
 1897800     936.8957    -4839.768    171.24003    -4668.528 
 1898000    1003.9801    -4835.823    183.50131   -4652.3217 
 1898200    958.51134    -4830.002     175.1908   -4654.8112 
 1898400    968.41381   -4837.5497    177.00072    -4660.549 
 1898600    987.52116    -4837.081    180.49304   -4656.5879 
 1898800    936.17418   -4844.9518    171.10815   -4673.8436 
 1899000     990.2765   -4831.8992    180.99664   -4650.9025 
 1899200    987.84836    -4826.767    180.55284   -4646.2142 
 1899400    930.51694   -4840.7472    170.07416   -4670.6731 
 1899600    974.43604   -4836.7823    178.10142   -4658.6809 
 1899800    993.12308   -4838.2048    181.51692   -4656.6879 
 1900000    945.43508   -4843.4398     172.8008    -4670.639 
 1900200    989.34364   -4840.9802    180.82614    -4660.154 
 1900400    956.56691    -4836.009    174.83541   -4661.1736 
 1900600     946.1815    -4836.576    172.93723   -4663.6388 
 1900800    926.01207   -4827.5986    169.25079   -4658.3479 
 1901000    1004.4865   -4839.0876    183.59386   -4655.4937 
 1901200    914.28102   -4839.8029    167.10666   -4672.6962 
 1901400    976.42333   -4842.3409    178.46465   -4663.8763 
 1901600    981.04594   -4831.3534    179.30954   -4652.0439 
 1901800    958.83657   -4833.1453    175.25025   -4657.8951 
 1902000    985.59033   -4840.8812    180.14013   -4660.7411 
 1902200    979.91198   -4843.2172    179.10228   -4664.1149 
 1902400    949.18048   -4843.2865    173.48537   -4669.8011 
 1902600    989.08806   -4840.8555    180.77943    -4660.076 
 1902800    982.38917   -4835.1035    179.55505   -4655.5484 
 1903000    933.49232   -4835.7236    170.61798   -4665.1057 
 1903200    940.48798   -4839.6644     171.8966   -4667.7678 
 1903400    972.21138   -4841.5484    177.69481   -4663.8536 
 1903600    978.26423     -4837.76    178.80112   -4658.9589 
 1903800    980.23299   -4846.6606    179.16095   -4667.4996 
 1904000    967.31337   -4845.5806    176.79958    -4668.781 
 1904200    968.83609   -4836.4509     177.0779    -4659.373 
 1904400    955.74754   -4841.6093    174.68565   -4666.9237 
 1904600    963.19281   -4843.4145    176.04645    -4667.368 
 1904800    957.64301   -4833.8657    175.03209   -4658.8336 
 1905000    953.30744   -4835.2272    174.23967   -4660.9875 
 1905200    958.42413    -4833.225    175.17486   -4658.0502 
 1905400    993.57203   -4837.8061    181.59898   -4656.2071 
 1905600    985.63248   -4840.3867    180.14784   -4660.2389 
 1905800    948.09764   -4841.7906    173.28745   -4668.5031 
 1906000    982.88202    -4835.523    179.64513   -4655.8779 
 1906200    984.70448   -4834.5901    179.97822   -4654.6119 
 1906400    965.53022   -4845.8452    176.47367   -4669.3716 
 1906600    975.32186   -4841.9693    178.26333    -4663.706 
 1906800    1012.2128   -4844.6166    185.00602   -4659.6105 
 1907000    984.21538   -4847.3837    179.88883   -4667.4948 
 1907200    978.39035    -4841.902    178.82417   -4663.0778 
 1907400    968.96478   -4841.3826    177.10142   -4664.2812 
 1907600    972.19127   -4836.1313    177.69114   -4658.4402 
 1907800    954.92712   -4842.2793     174.5357   -4667.7436 
 1908000     948.8641    -4847.304    173.42754   -4673.8765 
 1908200    971.66258   -4841.8597    177.59451   -4664.2652 
 1908400    998.77588   -4839.3537    182.55011   -4656.8036 
 1908600     961.5719   -4843.1239    175.75019   -4667.3737 
 1908800    940.14029   -4841.4668    171.83306   -4669.6337 
 1909000    973.45808   -4837.8338    177.92268   -4659.9112 
 1909200    940.31749    -4833.038    171.86544   -4661.1725 
 1909400    979.36814   -4840.5186    179.00288   -4661.5157 
 1909600    960.12663   -4835.2331    175.48604   -4659.7471 
 1909800    981.95138   -4843.8606    179.47503   -4664.3855 
 1910000    961.03077   -4839.3801    175.65129   -4663.7288 
 1910200    990.46694   -4835.6496    181.03145   -4654.6181 
 1910400    984.64849   -4839.7542    179.96799   -4659.7862 
 1910600    953.67405   -4844.7247    174.30667   -4670.4181 
 1910800    964.07223   -4842.9261    176.20719   -4666.7189 
 1911000     976.9051   -4841.0441     178.5527   -4662.4914 
 1911200    938.96382   -4839.1447    171.61803   -4667.5267 
 1911400    970.24332   -4838.0167     177.3351   -4660.6816 
 1911600    967.13318   -4834.1794    176.76665   -4657.4128 
 1911800    969.44426   -4841.7981    177.18906   -4664.6091 
 1912000    976.73137   -4845.4879    178.52095    -4666.967 
 1912200    984.46894   -4845.7538    179.93517   -4665.8187 
 1912400     952.3477   -4843.6658    174.06425   -4669.6016 
 1912600    988.00031   -4834.7407    180.58062   -4654.1601 
 1912800    973.41562   -4842.6769    177.91492    -4664.762 
 1913000    930.80844   -4849.6811    170.12744   -4679.5537 
 1913200    1000.7208   -4851.9485    182.90559   -4669.0429 
 1913400     984.0085   -4846.6745    179.85102   -4666.8234 
 1913600    958.42578   -4844.0079    175.17517   -4668.8327 
 1913800    975.99103   -4847.4139    178.38563   -4669.0283 
 1914000    1000.9269   -4840.9841    182.94326   -4658.0409 
 1914200    969.35899   -4842.2653    177.17347   -4665.0919 
 1914400    933.17038   -4850.3892    170.55914     -4679.83 
 1914600    1010.2346   -4847.9577    184.64446   -4663.3133 
 1914800    942.08447   -4839.0359     172.1884   -4666.8475 
 1915000    946.03266    -4841.929    172.91003    -4669.019 
 1915200    997.40495   -4836.1995    182.29954      -4653.9 
 1915400    940.31117   -4843.2078    171.86429   -4671.3435 
 1915600    955.18844    -4851.334    174.58346   -4676.7506 
 1915800    982.50008   -4835.4917    179.57532   -4655.9164 
 1916000    982.79798   -4848.0959    179.62976   -4668.4661 
 1916200    965.02896   -4853.6301    176.38205    -4677.248 
 1916400    1013.1333   -4845.9346    185.17427   -4660.7603 
 1916600    964.23648   -4836.8187    176.23721   -4660.5815 
 1916800    947.56878   -4843.7036    173.19079   -4670.5128 
 1917000    993.21386   -4845.2872    181.53352   -4663.7537 
 1917200    992.59961   -4839.3029    181.42125   -4657.8817 
 1917400    958.84177   -4836.5701     175.2512   -4661.3189 
 1917600    978.27551   -4843.4672    178.80318   -4664.6641 
 1917800    969.63012   -4841.8542    177.22303   -4664.6312 
 1918000    943.74395    -4839.211    172.49171   -4666.7193 
 1918200    950.36786   -4837.4888    173.70239   -4663.7864 
 1918400    967.07531   -4839.3794    176.75607   -4662.6233 
 1918600    969.13817   -4835.6602    177.13311   -4658.5271 
 1918800    954.11573   -4833.5864     174.3874    -4659.199 
 1919000    969.92901   -4842.7803    177.27765   -4665.5027 
 1919200    950.61275   -4838.9131    173.74715    -4665.166 
 1919400    1011.6634   -4837.8162    184.90561   -4652.9106 
 1919600    963.40959   -4841.8938    176.08608   -4665.8077 
 1919800    953.25896   -4844.7389    174.23081   -4670.5081 
 1920000    974.47241   -4841.5215    178.10807   -4663.4134 
 1920200    993.93252   -4836.6968    181.66487    -4655.032 
 1920400    953.69053   -4845.5987    174.30969    -4671.289 
 1920600    976.79158    -4842.848    178.53195   -4664.3161 
 1920800    1015.5296   -4840.3507    185.61225   -4654.7384 
 1921000     939.2771   -4835.7189    171.67529   -4664.0437 
 1921200    961.93441    -4838.669    175.81645   -4662.8526 
 1921400    988.83297    -4836.945     180.7328   -4656.2122 
 1921600    953.08122   -4842.6166    174.19832   -4668.4183 
 1921800    953.04104    -4838.751    174.19098     -4664.56 
 1922000    995.16175   -4843.7815    181.88954   -4661.8919 
 1922200    942.40005   -4839.6075    172.24608   -4667.3615 
 1922400    992.04077   -4842.9977    181.31911   -4661.6786 
 1922600    968.86935   -4839.8364    177.08398   -4662.7524 
 1922800    936.15465   -4838.5676    171.10459    -4667.463 
 1923000    989.43961   -4841.6853    180.84368   -4660.8417 
 1923200    979.29878   -4839.1177     178.9902   -4660.1275 
 1923400     962.8331    -4839.885    175.98071   -4663.9043 
 1923600    980.51746    -4841.512    179.21295   -4662.2991 
 1923800    954.51431   -4841.9013    174.46025   -4667.4411 
 1924000    982.22284   -4837.3964    179.52464   -4657.8717 
 1924200    966.04614   -4831.6827    176.56797   -4655.1148 
 1924400    972.99707   -4846.6776    177.83842   -4668.8392 
 1924600    982.85573   -4844.6754    179.64032   -4665.0351 
 1924800     995.8404   -4843.6978    182.01358   -4661.6843 
 1925000    945.15234   -4841.9269    172.74913   -4669.1778 
 1925200    980.28084   -4843.3281     179.1697   -4664.1584 
 1925400    981.36753   -4839.8652    179.36832   -4660.4969 
 1925600    960.66557   -4842.5366    175.58454   -4666.9521 
 1925800    989.48126   -4843.1123    180.85129    -4662.261 
 1926000    990.30109   -4840.5777    181.00114   -4659.5765 
 1926200    979.60137   -4845.0355    179.04551     -4665.99 
 1926400     955.9965   -4835.9766    174.73116   -4661.2454 
 1926600    1011.2814    -4831.848     184.8358   -4647.0122 
 1926800      959.003   -4842.1171    175.28067   -4666.8364 
 1927000    953.53412   -4846.6252     174.2811   -4672.3441 
 1927200    1029.4515   -4838.2916    188.15681   -4650.1348 
 1927400    972.03847   -4838.9141    177.66321   -4661.2508 
 1927600    949.24943   -4847.4216    173.49797   -4673.9236 
 1927800    982.36358   -4833.2468    179.55037   -4653.6965 
 1928000    970.60208   -4841.2579    177.40067   -4663.8572 
 1928200     949.4074   -4845.4109    173.52684    -4671.884 
 1928400    997.69537   -4838.5391    182.35262   -4656.1865 
 1928600    958.49118   -4838.5087    175.18712   -4663.3216 
 1928800     970.7647   -4839.8003     177.4304   -4662.3699 
 1929000    963.76788   -4833.2274    176.15156   -4657.0759 
 1929200    993.28611   -4840.8758    181.54672   -4659.3291 
 1929400    992.16851   -4843.1421    181.34245   -4661.7997 
 1929600    963.46086   -4832.6355    176.09545     -4656.54 
 1929800    957.00568   -4830.8068    174.91561   -4655.8912 
 1930000    980.17149   -4848.7437    179.14971    -4669.594 
 1930200    958.39678   -4844.3273    175.16986   -4669.1575 
 1930400     999.2637    -4835.273    182.63927   -4652.6337 
 1930600    1011.1724   -4842.6539    184.81586   -4657.8381 
 1930800    969.15388   -4852.7672    177.13598   -4675.6312 
 1931000    984.81286   -4845.3356    179.99803   -4665.3375 
 1931200    1003.0662   -4837.0291    183.33428   -4653.6948 
 1931400    954.89084   -4836.4764    174.52907   -4661.9474 
 1931600    993.70619   -4846.7326     181.6235   -4665.1091 
 1931800     969.3686   -4842.2237    177.17523   -4665.0485 
 1932000    962.70756   -4840.8757    175.95776   -4664.9179 
 1932200     990.1948   -4840.8328    180.98171   -4659.8511 
 1932400    969.93612   -4841.8009    177.27895   -4664.5219 
 1932600    968.49484   -4846.6901    177.01553   -4669.6745 
 1932800    965.00612   -4837.3844    176.37788   -4661.0065 
 1933000    997.57848   -4836.8384    182.33126   -4654.5072 
 1933200    976.36922   -4847.5645    178.45476   -4669.1098 
 1933400    973.85041   -4843.3275    177.99438   -4665.3331 
 1933600    986.00035   -4840.5557    180.21508   -4660.3406 
 1933800    991.15776   -4843.1089    181.15772   -4661.9512 
 1934000    982.63452   -4838.9799    179.59989     -4659.38 
 1934200    983.61722   -4843.6388     179.7795   -4663.8593 
 1934400    952.22277   -4847.9617    174.04142   -4673.9203 
 1934600    980.24054   -4842.5276    179.16233   -4663.3653 
 1934800    995.52866   -4835.4629     181.9566   -4653.5063 
 1935000    945.72338   -4840.6473     172.8535   -4667.7938 
 1935200    974.49594     -4844.95    178.11237   -4666.8376 
 1935400    968.21633   -4839.1666    176.96462   -4662.2019 
 1935600    994.63293   -4841.7022    181.79288   -4659.9093 
 1935800     983.8037   -4836.0456    179.81358    -4656.232 
 1936000    960.07931   -4844.0162    175.47739   -4668.5388 
 1936200    925.51851   -4841.8264    169.16058   -4672.6659 
 1936400    990.37489    -4834.914    181.01463   -4653.8994 
 1936600    998.72499   -4835.7636    182.54081   -4653.2228 
 1936800    957.60324   -4842.4485    175.02483   -4667.4236 
 1937000    995.45633   -4844.9007    181.94338   -4662.9574 
 1937200    984.74249   -4839.0632    179.98517    -4659.078 
 1937400    966.85684   -4837.6674    176.71614   -4660.9513 
 1937600     971.6819   -4842.4509    177.59804   -4664.8529 
 1937800    977.17984   -4840.0034    178.60292   -4661.4005 
 1938000    976.78802   -4845.4422     178.5313   -4666.9109 
 1938200    979.88437   -4841.8204    179.09723   -4662.7231 
 1938400    1006.4502   -4836.8653    183.95277   -4652.9125 
 1938600    942.45906   -4843.6587    172.25687   -4671.4018 
 1938800    964.44421   -4839.9153    176.27518   -4663.6401 
 1939000    987.04407   -4826.5706    180.40584   -4646.1648 
 1939200     985.5552   -4842.9266    180.13371   -4662.7929 
 1939400     954.0016   -4840.6164    174.36654   -4666.2498 
 1939600    990.69998   -4840.1563    181.07404   -4659.0823 
 1939800    990.55682   -4839.5828    181.04788   -4658.5349 
 1940000     988.4037   -4839.4204    180.65434   -4658.7661 
 1940200    963.98979    -4837.441    176.19212   -4661.2489 
 1940400    971.06578    -4842.558    177.48543   -4665.0726 
 1940600    1016.1605   -4839.4311    185.72755   -4653.7036 
 1940800    980.72442   -4842.3688    179.25077    -4663.118 
 1941000    965.49281   -4840.2581    176.46683   -4663.7912 
 1941200    993.16928   -4837.9705    181.52537   -4656.4451 
 1941400    961.00615   -4843.6547    175.64679   -4668.0079 
 1941600    956.07595    -4840.433    174.74568   -4665.6874 
 1941800    1005.8596   -4835.8755    183.84483   -4652.0307 
 1942000     1005.585   -4846.6955    183.79464   -4662.9009 
 1942200    981.00055   -4839.0705    179.30124   -4659.7692 
 1942400    967.30376   -4829.1633    176.79783   -4652.3654 
 1942600    979.00314   -4837.3484    178.93617   -4658.4122 
 1942800    985.27389   -4847.3336     180.0823   -4667.2513 
 1943000    991.75732   -4843.7223     181.2673    -4662.455 
 1943200    981.19122   -4840.6067    179.33609   -4661.2706 
 1943400    995.65059   -4843.0787    181.97889   -4661.0998 
 1943600    999.02238   -4844.7218    182.59516   -4662.1267 
 1943800    990.24991   -4843.0922    180.99178   -4662.1004 
 1944000    979.09743    -4841.914     178.9534   -4662.9606 
 1944200     974.8209   -4836.1139    178.17176   -4657.9421 
 1944400    980.69627    -4832.494    179.24563   -4653.2484 
 1944600    993.82345   -4840.9031    181.64493   -4659.2581 
 1944800    963.27104   -4840.5008    176.06075     -4664.44 
 1945000    1002.9608   -4832.2288    183.31501   -4648.9138 
 1945200    962.19132   -4829.0381    175.86341   -4653.1747 
 1945400    982.53505   -4841.6303    179.58171   -4662.0485 
 1945600    1004.5085   -4838.1336    183.59787   -4654.5357 
 1945800    1023.2654   -4843.5157    187.02616   -4656.4895 
 1946000    967.04138    -4841.923    176.74987   -4665.1732 
 1946200    1009.9859   -4841.9419      184.599   -4657.3429 
 1946400    991.09518   -4834.2218    181.14628   -4653.0755 
 1946600    981.35872   -4839.9941    179.36671   -4660.6274 
 1946800    959.97108   -4835.0115     175.4576   -4659.5539 
 1947000    1000.3817   -4839.8766     182.8436    -4657.033 
 1947200    975.88149   -4839.6533    178.36561   -4661.2877 
 1947400    983.55885    -4841.749    179.76883   -4661.9802 
 1947600    971.77202   -4836.7263    177.61451   -4659.1118 
 1947800    1006.4682   -4838.5211    183.95606   -4654.5651 
 1948000    963.51493    -4834.814    176.10533   -4658.7087 
 1948200    979.56086   -4832.4402    179.03811   -4653.4021 
 1948400    986.29864   -4835.6398    180.26959   -4655.3702 
 1948600    938.76905   -4832.8188    171.58243   -4661.2364 
 1948800    1014.7221    -4838.923    185.46466   -4653.4583 
 1949000     1004.693   -4838.2889    183.63161   -4654.6573 
 1949200    988.35987   -4838.3156    180.64633   -4657.6693 
 1949400     976.5971   -4824.9977    178.49641   -4646.5013 
 1949600    1023.0498   -4831.8937    186.98675   -4644.9069 
 1949800    953.26106   -4833.5719    174.23119   -4659.3407 
 1950000    954.50354   -4834.6993    174.45828    -4660.241 
 1950200    999.11737   -4831.3658    182.61252   -4648.7532 
 1950400    962.54041   -4830.6432    175.92721    -4654.716 
 1950600    974.24024    -4839.662    178.06563   -4661.5964 
 1950800    977.72419   -4840.1176    178.70241   -4661.4152 
 1951000    1011.0045   -4832.6248    184.78518   -4647.8396 
 1951200    968.58742   -4836.5174    177.03245    -4659.485 
 1951400    962.51155   -4844.2579    175.92194    -4668.336 
 1951600     1014.628   -4836.5319    185.44746   -4651.0845 
 1951800    977.48938   -4829.3316    178.65949   -4650.6721 
 1952000     962.5141   -4833.7817     175.9224   -4657.8593 
 1952200    1000.5104   -4836.3942    182.86714   -4653.5271 
 1952400    965.35706   -4839.0798    176.44202   -4662.6378 
 1952600    1004.4102   -4836.8285    183.57992   -4653.2486 
 1952800    967.03198    -4833.466    176.74815   -4656.7179 
 1953000    958.24079   -4835.0766    175.14135   -4659.9353 
 1953200    964.24122   -4827.8957    176.23808   -4651.6577 
 1953400    999.88161   -4833.7545    182.75221   -4651.0023 
 1953600    966.58531   -4836.1565    176.66651     -4659.49 
 1953800    973.81998    -4838.884    177.98882   -4660.8951 
 1954000    988.79928   -4838.2449    180.72665   -4657.5182 
 1954200    999.66962   -4831.3624    182.71346   -4648.6489 
 1954400    979.36985   -4830.9362    179.00319    -4651.933 
 1954600    953.35816   -4830.8136    174.24894   -4656.5647 
 1954800    983.90054    -4832.637    179.83128   -4652.8057 
 1955000    992.04985   -4835.4727    181.32077    -4654.152 
 1955200    1023.1001   -4839.7392    186.99594   -4652.7432 
 1955400    986.33283   -4835.7655    180.27584   -4655.4896 
 1955600    957.21226   -4838.9587    174.95337   -4664.0054 
 1955800    1000.9737   -4830.2155    182.95181   -4647.2637 
 1956000    1009.5357   -4833.1016    184.51673   -4648.5849 
 1956200    942.77527    -4840.618    172.31466   -4668.3033 
 1956400     1000.735   -4843.8591    182.90819   -4660.9509 
 1956600    1005.0236   -4831.5034    183.69202   -4647.8113 
 1956800    991.85069    -4837.414    181.28437   -4656.1297 
 1957000    947.35515   -4835.0841    173.15174   -4661.9323 
 1957200    977.39781   -4833.2624    178.64276   -4654.6196 
 1957400    983.62402   -4835.9431    179.78074   -4656.1623 
 1957600    973.63939   -4837.1018    177.95581    -4659.146 
 1957800    988.69592   -4834.2325    180.70775   -4653.5247 
 1958000    988.80653   -4840.5815    180.72797   -4659.8535 
 1958200    980.47448   -4840.7944    179.20509   -4661.5893 
 1958400    1030.6965   -4837.8228    188.38436   -4649.4384 
 1958600    987.28518   -4843.9437    180.44991   -4663.4938 
 1958800    958.04143   -4842.0775    175.10492   -4666.9726 
 1959000    1011.4691   -4834.1806     184.8701   -4649.3105 
 1959200    963.64281   -4831.5395     176.1287   -4655.4108 
 1959400    1016.6534   -4845.2649    185.81765   -4659.4472 
 1959600    984.06666   -4836.0951    179.86165   -4656.2335 
 1959800    991.98491   -4842.1089     181.3089      -4660.8 
 1960000    980.48923   -4835.7262    179.20779   -4656.5184 
 1960200    996.67105   -4822.2139     182.1654   -4640.0485 
 1960400    981.13611   -4829.8415    179.32602   -4650.5155 
 1960600    962.40871   -4847.7171    175.90314    -4671.814 
 1960800     999.7242   -4840.5342    182.72344   -4657.8107 
 1961000    991.14521   -4833.0174    181.15542    -4651.862 
 1961200    979.77431   -4832.6878    179.07712   -4653.6107 
 1961400    980.02676    -4829.442    179.12326   -4650.3187 
 1961600    1005.3083   -4832.9352    183.74407   -4649.1911 
 1961800    989.86274   -4843.2874    180.92102   -4662.3664 
 1962000    990.19057   -4835.4452    180.98094   -4654.4643 
 1962200    988.69025   -4823.8495    180.70672   -4643.1428 
 1962400    958.23071   -4834.5576    175.13951   -4659.4181 
 1962600    965.04861     -4834.02    176.38565   -4657.6344 
 1962800    987.43398   -4828.5723    180.47711   -4648.0952 
 1963000    989.52399    -4833.095    180.85911   -4652.2359 
 1963200    984.40045   -4834.1908    179.92265   -4654.2681 
 1963400    997.77205   -4836.6181    182.36663   -4654.2514 
 1963600    975.66589   -4834.3705    178.32621   -4656.0443 
 1963800    981.20215   -4838.2885    179.33809   -4658.9504 
 1964000    1014.0292   -4836.4532    185.33802   -4651.1151 
 1964200    978.30718   -4834.6973    178.80897   -4655.8884 
 1964400    988.88812   -4838.7469    180.74288    -4658.004 
 1964600    969.51612   -4822.7557    177.20219   -4645.5535 
 1964800    998.50498   -4832.8659    182.50059   -4650.3653 
 1965000    951.76708   -4836.0613    173.95813   -4662.1031 
 1965200    1003.8481   -4843.6253    183.47717   -4660.1481 
 1965400     989.2272   -4832.3814    180.80486   -4651.5765 
 1965600    988.73598   -4835.0434    180.71508   -4654.3283 
 1965800    995.33261   -4837.7584    181.92077   -4655.8377 
 1966000    1003.3097   -4840.8839    183.37878   -4657.5051 
 1966200    968.77141   -4839.3651    177.06608    -4662.299 
 1966400    989.90565   -4835.4941    180.92886   -4654.5652 
 1966600    975.65842   -4832.9826    178.32484   -4654.6577 
 1966800    977.31899   -4840.1765    178.62835   -4661.5482 
 1967000    960.95849   -4833.7503    175.63808   -4658.1123 
 1967200    994.13648   -4827.6813    181.70215   -4645.9791 
 1967400    1003.6601    -4829.612    183.44281   -4646.1692 
 1967600    970.66266   -4838.3967    177.41175   -4660.9849 
 1967800    979.03692   -4841.4325    178.94234   -4662.4902 
 1968000    1019.1638   -4835.2677    186.27648   -4648.9912 
 1968200    996.77267    -4836.374    182.18397   -4654.1901 
 1968400    984.20978    -4839.089    179.88781   -4659.2012 
 1968600    962.10415   -4834.4002    175.84747   -4658.5527 
 1968800    984.59708   -4836.2631    179.95859   -4656.3045 
 1969000    966.49737   -4833.4675    176.65044   -4656.8171 
 1969200    934.32393   -4823.1895    170.76998   -4652.4195 
 1969400    997.88345   -4835.1274    182.38699   -4652.7404 
 1969600    973.55375   -4840.7014    177.94016   -4662.7612 
 1969800     1034.242   -4843.9103    189.03239   -4654.8779 
 1970000    949.36785   -4835.8629    173.51961   -4662.3433 
 1970200    996.54054   -4835.4869    182.14155   -4653.3453 
 1970400    1004.2002   -4832.6967    183.54154   -4649.1552 
 1970600    939.62548   -4836.1187    171.73896   -4664.3797 
 1970800    990.78699   -4839.3787    181.08995   -4658.2888 
 1971000    1004.1411   -4835.7943    183.53072   -4652.2636 
 1971200    988.53804   -4841.8412     180.6789   -4661.1623 
 1971400    980.62594   -4837.9987    179.23277   -4658.7659 
 1971600    1009.5004    -4836.679    184.51027   -4652.1687 
 1971800    985.66272   -4837.4489    180.15337   -4657.2956 
 1972000    1006.4211   -4839.1056    183.94745   -4655.1581 
 1972200    982.86824   -4828.7355    179.64261   -4649.0929 
 1972400    972.35517   -4837.9544    177.72109   -4660.2333 
 1972600    961.14314    -4836.436    175.67183   -4660.7642 
 1972800    970.65359   -4830.6983    177.41009   -4653.2882 
 1973000    973.09594   -4840.2719    177.85649   -4662.4154 
 1973200    979.93108   -4831.1489    179.10577   -4652.0432 
 1973400    1032.6624   -4831.0144    188.74367   -4642.2707 
 1973600    983.50336   -4841.1832    179.75869   -4661.4245 
 1973800    990.42142   -4848.7734    181.02313   -4667.7503 
 1974000    1013.1251   -4837.3361    185.17278   -4652.1633 
 1974200    968.93342   -4830.8804    177.09569   -4653.7847 
 1974400    980.10131   -4835.3205    179.13689   -4656.1836 
 1974600    1022.2767   -4836.2929    186.84545   -4649.4475 
 1974800    954.82764   -4838.5619    174.51752   -4664.0444 
 1975000    985.59755   -4843.6579    180.14145   -4663.5164 
 1975200    997.05251   -4833.5842    182.23512   -4651.3491 
 1975400    1005.6144   -4838.1676    183.80001   -4654.3676 
 1975600    968.53569   -4840.9678    177.02299   -4663.9448 
 1975800    1017.8733   -4840.4467    186.04062   -4654.4061 
 1976000    991.93197   -4831.1067    181.29922   -4649.8075 
 1976200    979.44314   -4833.2088    179.01659   -4654.1922 
 1976400    992.81229   -4828.7868    181.46012   -4647.3267 
 1976600     957.4049   -4826.5458    174.98858   -4651.5572 
 1976800    980.72393   -4832.5444    179.25068   -4653.2937 
 1977000     1014.952   -4832.6672    185.50667   -4647.1605 
 1977200    970.89789   -4833.1415    177.45474   -4655.6868 
 1977400    945.31774   -4831.0587    172.77936   -4658.2793 
 1977600    1007.8141   -4832.0407    184.20205   -4647.8387 
 1977800    1000.9203   -4828.0786    182.94205   -4645.1365 
 1978000    973.57696   -4838.5389     177.9444   -4660.5945 
 1978200    996.18527    -4841.788    182.07661   -4659.7113 
 1978400    1017.3437   -4835.1157    185.94383   -4649.1719 
 1978600    1036.4583    -4841.625    189.43747   -4652.1876 
 1978800    937.86899   -4836.0629    171.41792    -4664.645 
 1979000    992.68242   -4839.3052    181.43638   -4657.8689 
 1979200    1040.4106   -4831.8517    190.15984   -4641.6919 
 1979400    979.75722   -4828.6766    179.07399   -4649.6026 
 1979600    978.08517   -4833.4492    178.76839   -4654.6808 
 1979800    1010.7604   -4836.1176    184.74056   -4651.3771 
 1980000    995.83845   -4837.0197    182.01322   -4655.0065 
 1980200    1003.7581    -4836.257    183.46072   -4652.7962 
 1980400    954.06872   -4831.6439    174.37881   -4657.2651 
 1980600    1009.3108   -4834.9458    184.47562   -4650.4702 
 1980800    1006.6235   -4837.7134    183.98444   -4653.7289 
 1981000    995.51082   -4842.8178    181.95334   -4660.8644 
 1981200      1021.42   -4835.8925    186.68886   -4649.2037 
 1981400    995.50316   -4834.4859    181.95194    -4652.534 
 1981600    952.42669   -4835.7782    174.07869   -4661.6996 
 1981800    1020.6235   -4831.7664    186.54328   -4645.2232 
 1982000    1008.3429   -4830.7234     184.2987   -4646.4247 
 1982200    920.58331   -4830.3379    168.25855   -4662.0794 
 1982400    1012.1666    -4833.504    184.99758   -4648.5064 
 1982600    1011.4685    -4837.207    184.86998    -4652.337 
 1982800    977.00809   -4838.2716    178.57153   -4659.7001 
 1983000    1016.6609   -4830.5687    185.81902   -4644.7497 
 1983200    997.06247    -4830.584    182.23694   -4648.3471 
 1983400    983.46121   -4842.1647    179.75099   -4662.4137 
 1983600    1019.3549   -4840.1676    186.31142   -4653.8562 
 1983800    1021.1073   -4824.8633    186.63171   -4638.2315 
 1984000    979.56718   -4841.7538    179.03926   -4662.7145 
 1984200    977.19976   -4840.6818    178.60656   -4662.0752 
 1984400    1053.3172    -4837.711    192.51884   -4645.1922 
 1984600     974.4486   -4841.5783    178.10372   -4663.4746 
 1984800    991.82421   -4843.1106    181.27952    -4661.831 
 1985000     1011.418   -4831.0795    184.86076   -4646.2188 
 1985200    981.18136   -4837.2771    179.33429   -4657.9428 
 1985400    959.50132    -4836.248    175.37175   -4660.8762 
 1985600    1033.6899   -4833.4551    188.93148   -4644.5236 
 1985800    968.68774   -4831.9413    177.05078   -4654.8906 
 1986000     977.9878   -4831.2507    178.75059   -4652.5001 
 1986200    1032.0938    -4831.168    188.63975   -4642.5283 
 1986400    969.28076   -4841.2612    177.15917    -4664.102 
 1986600    984.69758   -4839.1013    179.97696   -4659.1244 
 1986800    1018.3929   -4828.0689    186.13559   -4641.9333 
 1987000    1034.2719   -4841.4812    189.03785   -4652.4434 
 1987200    951.91903   -4844.9616     173.9859   -4670.9757 
 1987400    996.85405    -4827.496    182.19885   -4645.2972 
 1987600    1041.1552   -4833.5475    190.29593   -4643.2515 
 1987800    944.17876   -4836.7153    172.57118   -4664.1441 
 1988000    991.11541   -4830.7427    181.14998   -4649.5927 
 1988200     984.5175    -4831.365    179.94405   -4651.4209 
 1988400    959.93899   -4831.7308    175.45174   -4656.2791 
 1988600    1039.1788   -4825.7688    189.93471   -4635.8341 
 1988800    990.62618   -4829.9448    181.06056   -4648.8842 
 1989000    980.27884   -4845.9018    179.16933   -4666.7325 
 1989200    1032.6645   -4832.4737    188.74406   -4643.7296 
 1989400     979.8369   -4819.1293    179.08856   -4640.0408 
 1989600    988.47582   -4836.2427    180.66753   -4655.5752 
 1989800     993.7338   -4839.6099    181.62855   -4657.9814 
 1990000    1012.4849   -4838.7141    185.05575   -4653.6583 
 1990200     973.7185   -4834.3157    177.97027   -4656.3454 
 1990400    997.98103   -4833.4931    182.40483   -4651.0883 
 1990600    986.18453   -4833.8883    180.24874   -4653.6395 
 1990800    1004.5411   -4840.4508    183.60385    -4656.847 
 1991000    984.36365   -4826.5689    179.91593    -4646.653 
 1991200    1004.7577   -4824.4935    183.64343   -4640.8501 
 1991400    950.19248   -4834.4438    173.67033   -4660.7735 
 1991600     1008.604   -4832.6893    184.34643   -4648.3429 
 1991800    995.05968   -4824.1321    181.87088   -4642.2612 
 1992000    954.58825   -4823.7576    174.47377   -4649.2839 
 1992200    1013.1947    -4833.459    185.18548   -4648.2735 
 1992400     981.7974   -4825.7519    179.44689    -4646.305 
 1992600    1023.7103   -4833.1165    187.10747   -4646.0091 
 1992800    995.96129   -4833.1404    182.03567   -4651.1047 
 1993000    1007.9355   -4832.9772    184.22425    -4648.753 
 1993200    972.37845   -4833.5338    177.72535   -4655.8084 
 1993400     1020.475   -4829.7381    186.51615   -4643.2219 
 1993600      997.838   -4828.5058    182.37869   -4646.1271 
 1993800    958.04759   -4829.6383    175.10604   -4654.5323 
 1994000    1040.1659   -4835.1376    190.11511   -4645.0225 
 1994200     1014.788   -4828.4797     185.4767    -4643.003 
 1994400    1002.3026   -4830.8132     183.1947   -4647.6185 
 1994600     978.4154   -4830.7102    178.82875   -4651.8815 
 1994800    982.57526   -4827.2707    179.58906   -4647.6817 
 1995000    1019.8945   -4831.7214    186.41004   -4645.3113 
 1995200    957.64466   -4828.8985     175.0324   -4653.8662 
 1995400    994.18759   -4828.5071    181.71149   -4646.7956 
 1995600    998.62372   -4825.2003     182.5223    -4642.678 
 1995800    990.87634   -4835.0999    181.10628   -4653.9936 
 1996000    1013.1122   -4832.0797    185.17042   -4646.9093 
 1996200    980.61298   -4828.6235    179.23041   -4649.3931 
 1996400    977.08707   -4839.9225    178.58596   -4661.3365 
 1996600    1014.9964   -4836.6322     185.5148   -4651.1174 
 1996800    998.27535   -4829.2233    182.45862   -4646.7646 
 1997000    971.36301   -4838.6611    177.53975   -4661.1214 
 1997200    998.48855   -4838.7383    182.49759   -4656.2407 
 1997400    1000.4311    -4830.987    182.85264   -4648.1343 
 1997600    981.78976   -4835.3186    179.44549   -4655.8731 
 1997800    993.69693   -4835.7731    181.62181   -4654.1513 
 1998000    994.43258   -4837.5037    181.75627   -4655.7475 
 1998200    1016.3389    -4837.924    185.76016   -4652.1638 
 1998400    977.89688   -4833.4423    178.73397   -4654.7083 
 1998600    997.20374   -4834.0597    182.26276   -4651.7969 
 1998800    1009.6648     -4836.92    184.54032   -4652.3797 
 1999000    986.83779   -4835.8308    180.36814   -4655.4627 
 1999200    1023.2375   -4835.7533    187.02104   -4648.7323 
 1999400    991.58169   -4837.5991     181.2352   -4656.3639 
 1999600    1023.6641    -4847.564    187.09903    -4660.465 
 1999800    988.52814   -4836.5327    180.67709   -4655.8556 
 2000000    1040.5098   -4839.2366    190.17797   -4649.0586 
Loop time of 23502.9 on 1 procs for 2000000 steps with 1415 atoms

Performance: 7.352 ns/day, 3.264 hours/ns, 85.096 timesteps/s
99.6% CPU use with 1 MPI tasks x 1 OpenMP threads

MPI task timing breakdown:
Section |  min time  |  avg time  |  max time  |%varavg| %total
---------------------------------------------------------------
Pair    | 23297      | 23297      | 23297      |   0.0 | 99.12
Neigh   | 67.198     | 67.198     | 67.198     |   0.0 |  0.29
Comm    | 1.3914     | 1.3914     | 1.3914     |   0.0 |  0.01
Output  | 35.656     | 35.656     | 35.656     |   0.0 |  0.15
Modify  | 90.329     | 90.329     | 90.329     |   0.0 |  0.38
Other   |            | 11.81      |            |       |  0.05

Nlocal:    1415 ave 1415 max 1415 min
Histogram: 1 0 0 0 0 0 0 0 0 0
Nghost:    0 ave 0 max 0 min
Histogram: 1 0 0 0 0 0 0 0 0 0
Neighs:    28991 ave 28991 max 28991 min
Histogram: 1 0 0 0 0 0 0 0 0 0
FullNghs:  57982 ave 57982 max 57982 min
Histogram: 1 0 0 0 0 0 0 0 0 0

Total # of neighbors = 57982
Ave neighs/atom = 40.9767
Neighbor list builds = 16610
Dangerous builds = 0
All done!
Total wall time: 6:31:43
