LAMMPS (22 Aug 2018)
OMP_NUM_THREADS environment is not set. Defaulting to 1 thread. (src/comm.cpp:87)
  using 1 OpenMP thread(s) per MPI task
Reading data file ...
  orthogonal box = (-0 -0 -0) to (100 100 100)
  1 by 1 by 1 MPI processor grid
  reading atoms ...
  561 atoms
WARNING: The pair_style meam command is unsupported. Please use pair_style meam/c instead (src/MEAM/pair_meam.cpp:51)
Reading potential file library.meam with DATE: 2012-06-29
Neighbor list info ...
  update every 1 steps, delay 10 steps, check yes
  max neighbors/atom: 2000, page size: 100000
  master list distance cutoff = 6
  ghost atom cutoff = 6
  binsize = 3, bins = 34 34 34
  2 neighbor lists, perpetual/occasional/extra = 2 0 0
  (1) pair meam, perpetual
      attributes: full, newton on
      pair build: full/bin/atomonly
      stencil: full/bin/3d
      bin: standard
  (2) pair meam, perpetual, half/full from (1)
      attributes: half, newton on
      pair build: halffull/newton
      stencil: none
      bin: none
Setting up Verlet run ...
  Unit style    : metal
  Current step  : 0
  Time step     : 0.0001
Per MPI rank memory allocation (min/avg/max) = 9.723 | 9.723 | 9.723 Mbytes
Step Temp PotEng KinEng TotEng 
       0          600   -2952.8017    43.431409   -2909.3703 
     200    512.30818   -2946.2838    37.083777      -2909.2 
     400    421.89569   -2938.0961    30.539207   -2907.5569 
     600      465.287   -2936.8244    33.680117   -2903.1443 
     800    629.67772    -2940.682     45.57965   -2895.1023 
    1000    783.70104   -2941.9898    56.728733   -2885.2611 
    1200    764.67554   -2934.8513     55.35156   -2879.4997 
    1400    719.06729   -2930.7833    52.050176   -2878.7332 
    1600    706.41802   -2932.5121     51.13455   -2881.3775 
    1800    668.59152     -2935.11    48.396453   -2886.7135 
    2000     601.3684   -2936.7607    43.530462   -2893.2302 
    2200    543.13648   -2938.4625    39.315304   -2899.1472 
    2400    521.00358   -2941.2493    37.713199   -2903.5361 
    2600    533.55527   -2944.9668    38.621761   -2906.3451 
    2800    553.21566   -2947.9095    40.044892   -2907.8646 
    3000    577.28159   -2950.2178    41.786921   -2908.4309 
    3200    584.91049   -2950.8099    42.339144   -2908.4708 
    3400     573.6395    -2949.662    41.523286   -2908.1387 
    3600    588.30302   -2949.8588    42.584715   -2907.2741 
    3800    628.47319   -2951.6464     45.49246   -2906.1539 
    4000    646.96361   -2952.4528    46.830901   -2905.6219 
    4200    652.62592   -2953.4772    47.240772   -2906.2364 
    4400    630.97256    -2953.738    45.673378   -2908.0646 
    4600    624.12903   -2955.8479    45.178005   -2910.6699 
    4800    588.30422   -2956.2653    42.584802   -2913.6805 
    5000    539.12077   -2955.2224    39.024624   -2916.1978 
    5200    541.12303   -2956.5997    39.169559   -2917.4301 
    5400    569.80346   -2958.7246    41.245611    -2917.479 
    5600    590.95299   -2959.6185    42.776535    -2916.842 
    5800     586.0809   -2958.3554    42.423865   -2915.9316 
    6000    573.03998   -2956.2015    41.479889   -2914.7216 
    6200    566.64974   -2953.9844    41.017328   -2912.9671 
    6400    584.82497   -2952.8399    42.332954    -2910.507 
    6600    629.42307   -2953.1696    45.561217   -2907.6084 
    6800     659.3653   -2952.9559    47.728607   -2905.2273 
    7000    670.00179   -2952.7632    48.498536   -2904.2647 
    7200    636.87545   -2951.0798    46.100663   -2904.9791 
    7400    627.64939   -2952.0723    45.432829   -2906.6395 
    7600    618.25811   -2953.6813    44.753034   -2908.9283 
    7800    612.65119   -2955.9962    44.347174    -2911.649 
    8000    585.82603   -2956.9374    42.405416   -2914.5319 
    8200     572.1534   -2958.4504    41.415714   -2917.0347 
    8400    553.51195   -2958.9095     40.06634   -2918.8432 
    8600    554.90473   -2959.8394    40.167157   -2919.6723 
    8800    558.46599   -2959.9575    40.424941   -2919.5326 
    9000    570.53869   -2959.8029    41.298832    -2918.504 
    9200    587.64225   -2959.3332    42.536885   -2916.7964 
    9400    594.02844   -2957.7518    42.999153   -2914.7527 
    9600    597.97943    -2955.842    43.285149   -2912.5569 
    9800    604.47498   -2954.0564    43.755333   -2910.3011 
   10000    647.70072   -2955.0369    46.884258   -2908.1527 
   10200     646.0386   -2953.7536    46.763944   -2906.9897 
   10400    606.73399   -2950.8377    43.918853   -2906.9189 
   10600    571.01539   -2948.3458    41.333338   -2907.0125 
   10800     583.5984   -2948.8006    42.244168   -2906.5564 
   11000    639.96657   -2952.1086    46.324416   -2905.7841 
   11200    656.30189   -2953.3708    47.506859   -2905.8639 
   11400    644.31108    -2953.955    46.638896   -2907.3162 
   11600    613.72886   -2954.1597    44.425182   -2909.7345 
   11800    606.30419   -2956.3595    43.887742   -2912.4718 
   12000     579.8081   -2957.2113    41.969804   -2915.2415 
   12200    544.76482   -2956.8416    39.433173   -2917.4084 
   12400    540.84582   -2957.5339    39.149493   -2918.3844 
   12600    563.94047   -2958.9905    40.821215   -2918.1693 
   12800    585.26209      -2959.5    42.364595   -2917.1354 
   13000    610.70578   -2959.9374    44.206354   -2915.7311 
   13200    611.08935   -2958.7348    44.234119   -2914.5007 
   13400    615.74435   -2958.1237    44.571074   -2913.5527 
   13600    619.38567   -2957.8111    44.834654   -2912.9764 
   13800    602.36236     -2956.41     43.60241   -2912.8075 
   14000    603.43412   -2956.4265    43.679989   -2912.7465 
   14200    587.73337    -2955.245     42.54348   -2912.7015 
   14400    602.32608   -2956.0468    43.599784    -2912.447 
   14600    628.50077   -2957.7618    45.494456   -2912.2674 
   14800    621.47672   -2957.6887    44.986016   -2912.7026 
   15000    597.63023   -2956.8536    43.259871   -2913.5938 
   15200     595.9587   -2957.6062    43.138877   -2914.4674 
   15400    596.87187   -2958.4395    43.204977   -2915.2345 
   15600     611.0687   -2960.2365    44.232624   -2916.0039 
   15800    595.32335   -2960.0454    43.092886   -2916.9525 
   16000    571.59462   -2959.1274    41.375266   -2917.7522 
   16200    564.25148   -2958.7875    40.843728   -2917.9437 
   16400    576.71642   -2959.1382    41.746011   -2917.3922 
   16600    589.82576   -2958.9986     42.69494   -2916.3037 
   16800    603.33298   -2958.6227    43.672669     -2914.95 
   17000    607.17714   -2957.5751    43.950931   -2913.6242 
   17200    621.05637   -2957.4322    44.955588   -2912.4766 
   17400    623.97041   -2956.9617    45.166523   -2911.7952 
   17600    598.97505   -2954.9828    43.357217   -2911.6256 
   17800    597.49108   -2954.7475    43.249799   -2911.4977 
   18000    614.82655   -2955.8478    44.504638   -2911.3432 
   18200    624.27828   -2956.7145    45.188809   -2911.5257 
   18400     594.5577   -2955.2288    43.037464   -2912.1913 
   18600    577.88023   -2954.5577    41.830254   -2912.7274 
   18800    602.01477   -2956.4299    43.577249   -2912.8526 
   19000    612.12258   -2957.3007     44.30891   -2912.9918 
   19200    600.37281   -2956.8166    43.458395   -2913.3582 
   19400    613.24092   -2958.1857    44.389862   -2913.7959 
   19600    612.60764   -2958.8773    44.344021   -2914.5332 
   19800    593.06547   -2958.4349    42.929448   -2915.5054 
   20000    579.90892   -2958.2787    41.977102   -2916.3016 
   20200    585.16777   -2959.0391    42.357767   -2916.6814 
   20400    595.12371   -2959.8135    43.078435   -2916.7351 
   20600    594.70026   -2959.7034    43.047784   -2916.6556 
   20800    598.27812   -2959.7725    43.306769   -2916.4658 
   21000    589.14076   -2958.8424    42.645355    -2916.197 
   21200    596.08079   -2958.8666    43.147714   -2915.7189 
   21400     610.9021   -2959.3764    44.220565   -2915.1558 
   21600    614.15806   -2959.2656    44.456249   -2914.8093 
   21800      625.978   -2960.1306    45.311844   -2914.8187 
   22000    611.31796   -2959.6483    44.250667   -2915.3977 
   22200    575.48156   -2957.8267    41.656625   -2916.1701 
   22400    552.15278   -2956.3477    39.967955   -2916.3797 
   22600    566.79955   -2956.6569    41.028171   -2915.6287 
   22800    592.01452   -2956.9802    42.853374   -2914.1268 
   23000    597.44065   -2955.6022    43.246148   -2912.3561 
   23200    606.35377   -2954.4234     43.89133   -2910.5321 
   23400    617.22255   -2953.4965    44.678075   -2908.8184 
   23600    628.42597    -2952.976    45.489042    -2907.487 
   23800      661.234    -2954.748    47.863873   -2906.8841 
   24000    651.64712   -2954.8823    47.169921   -2907.7123 
   24200    614.48352    -2954.194    44.479808   -2909.7142 
   24400    601.11906   -2955.5323    43.512412   -2912.0199 
   24600    584.91906   -2956.6416    42.339765   -2914.3018 
   24800    560.30402   -2956.7023    40.557988   -2916.1443 
   25000    555.66504   -2957.3458    40.222192   -2917.1236 
   25200    574.39302   -2958.7743     41.57783   -2917.1964 
   25400    591.24636   -2959.4808     42.79777    -2916.683 
   25600    598.09622   -2959.2416    43.293603    -2915.948 
   25800    584.67715   -2957.4538    42.322254   -2915.1315 
   26000    587.60816   -2956.5453    42.534417   -2914.0109 
   26200    624.55165   -2957.8454    45.208596   -2912.6368 
   26400    642.31114   -2958.2465    46.494129   -2911.7524 
   26600    613.89561   -2956.2239    44.437252   -2911.7866 
   26800    597.37389   -2955.4298    43.241316   -2912.1885 
   27000    605.26252   -2956.3841     43.81234   -2912.5717 
   27200    606.23777   -2956.9452    43.882934   -2913.0622 
   27400    596.43152   -2956.8432    43.173102   -2913.6701 
   27600    588.87708   -2956.8163    42.626269     -2914.19 
   27800    593.44892    -2957.445    42.957205   -2914.4878 
   28000    599.08899   -2958.0031    43.365465   -2914.6376 
   28200    594.92601    -2957.801    43.064125   -2914.7369 
   28400    593.19838   -2957.6635    42.939069   -2914.7245 
   28600    606.93976   -2958.5246    43.933748   -2914.5909 
   28800    629.74275   -2960.2398    45.584358   -2914.6554 
   29000    607.79271   -2959.3139     43.99549   -2915.3184 
   29200    586.62697   -2958.6012    42.463393   -2916.1378 
   29400    593.52297   -2959.6603    42.962564   -2916.6977 
   29600    608.09802    -2961.157    44.017589   -2917.1395 
   29800    595.13738   -2960.7833    43.079424   -2917.7039 
   30000    588.08179   -2960.7369    42.568701   -2918.1682 
   30200    579.16427   -2960.2742      41.9232    -2918.351 
   30400    559.43251   -2958.5502    40.494904   -2918.0553 
   30600    573.17766    -2958.439    41.489855   -2916.9492 
   30800    618.30151   -2959.9821    44.756176   -2915.2259 
   31000    626.41896   -2959.1162    45.343763   -2913.7725 
   31200    607.28246   -2956.8692    43.958555   -2912.9107 
   31400    607.28116   -2956.2431     43.95846   -2912.2846 
   31600    618.71962    -2956.624    44.786441   -2911.8375 
   31800    617.82439   -2956.5192    44.721639   -2911.7975 
   32000    607.20756   -2956.1264    43.953133   -2912.1732 
   32200    578.80734   -2954.5519    41.897364   -2912.6546 
   32400    582.38669   -2954.8621    42.156457   -2912.7056 
   32600     616.4475   -2957.0518    44.621972   -2912.4298 
   32800     617.4904   -2957.1517    44.697463   -2912.4542 
   33000    618.63045   -2957.6867    44.779987   -2912.9067 
   33200    611.12743   -2958.0209    44.236875    -2913.784 
   33400    595.97292   -2958.0035    43.139905   -2914.8636 
   33600    615.21623   -2960.4809    44.532846    -2915.948 
   33800    604.19375   -2961.0688    43.734976   -2917.3339 
   34000    588.35398   -2961.3691    42.588404   -2918.7807 
   34200    574.89957    -2961.548    41.614497   -2919.9335 
   34400    572.87092   -2962.0019    41.467652   -2920.5342 
   34600    581.96121   -2962.6829    42.125659   -2920.5573 
   34800    582.37281   -2962.3092    42.155453   -2920.1537 
   35000    591.02059   -2962.1545    42.781428   -2919.3731 
   35200    598.98575   -2961.7201    43.357991   -2918.3621 
   35400    612.84628   -2961.6896    44.361296   -2917.3283 
   35600    624.94472   -2961.8192     45.23705   -2916.5822 
   35800    637.04917   -2962.5559    46.113238   -2916.4427 
   36000    606.79812   -2960.9993    43.923496   -2917.0759 
   36200    588.95256   -2960.5186    42.631732   -2917.8869 
   36400    571.13409   -2959.7517     41.34193   -2918.4098 
   36600    579.60021   -2960.2999    41.954756   -2918.3452 
   36800    597.92688   -2961.1022    43.281345   -2917.8208 
   37000    612.56357   -2961.5829    44.340831    -2917.242 
   37200     593.7141   -2959.8463      42.9764   -2916.8699 
   37400    607.39936   -2960.3965    43.967016   -2916.4295 
   37600    623.98292   -2961.3379    45.167429   -2916.1704 
   37800    602.64097   -2960.0152    43.622577   -2916.3926 
   38000    595.01492   -2959.7855    43.070561    -2916.715 
   38200    588.92542   -2959.5442    42.629768   -2916.9145 
   38400    614.31881   -2961.3946    44.467886   -2916.9267 
   38600    628.17681   -2962.7331    45.471006   -2917.2621 
   38800    586.02833   -2960.5454     42.42006   -2918.1254 
   39000     560.1518   -2959.2154    40.546969   -2918.6685 
   39200    579.64336   -2960.3742    41.957879   -2918.4163 
   39400    606.71613   -2961.6196     43.91756    -2917.702 
   39600    615.63025   -2961.6587    44.562815   -2917.0959 
   39800    605.57901   -2960.6415    43.835249   -2916.8063 
   40000    630.37474   -2962.3816    45.630105   -2916.7515 
   40200    647.31791   -2964.2766    46.856548     -2917.42 
   40400    606.76993   -2963.0248    43.921455   -2919.1034 
   40600     553.6091   -2960.8324    40.073372   -2920.7591 
   40800    569.28363   -2962.6954    41.207983   -2921.4874 
   41000    606.71544   -2965.5198    43.917511   -2921.6023 
   41200    608.50775   -2965.8569    44.047248   -2921.8097 
   41400    582.12586   -2964.2631    42.137577   -2922.1256 
   41600    582.17755    -2964.252    42.141319   -2922.1107 
   41800    575.20949   -2963.3011    41.636931   -2921.6642 
   42000    582.25132   -2962.8466    42.146658   -2920.6999 
   42200    592.15742   -2962.1988    42.863718   -2919.3351 
   42400    618.50461   -2962.5363    44.770877   -2917.7654 
   42600    637.91313   -2962.7374    46.175777   -2916.5617 
   42800    634.16274   -2962.1377    45.904302   -2916.2334 
   43000     630.8031   -2962.4178    45.661112   -2916.7566 
   43200    611.34701   -2962.2211     44.25277   -2917.9683 
   43400    583.44866    -2961.592    42.233329   -2919.3587 
   43600    583.32741   -2962.6329    42.224552   -2920.4083 
   43800    591.21734   -2963.8854     42.79567   -2921.0897 
   44000    604.20607   -2965.3336    43.735868   -2921.5977 
   44200    598.28868    -2965.483    43.307534   -2922.1755 
   44400    564.66202      -2963.5    40.873445   -2922.6266 
   44600    559.08562   -2962.8275    40.469793   -2922.3577 
   44800    574.18722   -2962.7862    41.562933   -2921.2232 
   45000    603.85266   -2963.2119    43.710286   -2919.5016 
   45200    610.57176   -2961.9387    44.196653    -2917.742 
   45400    634.53866   -2962.1946    45.931513   -2916.2631 
   45600    640.57688   -2961.9078    46.368594   -2915.5392 
   45800    632.34976   -2961.5558    45.773068   -2915.7828 
   46000    623.37118   -2961.9336    45.123148   -2916.8104 
   46200    604.49725   -2962.1002    43.756946   -2918.3432 
   46400    590.30299   -2962.6653    42.729484   -2919.9358 
   46600    587.73996   -2963.8587    42.543957   -2921.3148 
   46800    581.55216   -2964.4833    42.096049   -2922.3873 
   47000    582.88317   -2965.2536    42.192395   -2923.0612 
   47200    587.37153   -2965.8795    42.517289   -2923.3622 
   47400     595.0188   -2966.4536    43.070841   -2923.3827 
   47600    608.60708   -2967.3552    44.054438   -2923.3008 
   47800    597.97444   -2966.6549    43.284787   -2923.3701 
   48000    575.60289   -2965.0349    41.665407   -2923.3695 
   48200    586.76143   -2965.3631    42.473126     -2922.89 
   48400    608.52751   -2966.1629    44.048679   -2922.1142 
   48600    597.29469   -2964.6874    43.235583   -2921.4519 
   48800    582.57463   -2962.9121    42.170062    -2920.742 
   49000    586.19124   -2962.1197    42.431852   -2919.6878 
   49200    597.69171   -2961.5781    43.264322   -2918.3138 
   49400    640.27932   -2963.2431    46.347055   -2916.8961 
   49600    661.50473    -2964.245    47.883471   -2916.3615 
   49800    627.31602   -2962.6374    45.408697   -2917.2287 
   50000    600.79789   -2962.2115    43.489164   -2918.7223 
   50200    594.39314   -2963.2765    43.025552   -2920.2509 
   50400     580.2473    -2963.618    42.001596   -2921.6164 
   50600    577.40459   -2964.3321    41.795825   -2922.5362 
   50800    584.80811   -2965.3024    42.331733   -2922.9707 
   51000    588.56384   -2965.6601    42.603594   -2923.0565 
   51200    603.36905   -2966.5881     43.67528   -2922.9128 
   51400    596.32163   -2965.9632    43.165147   -2922.7981 
   51600     570.6714   -2963.8735    41.308438   -2922.5651 
   51800    588.02017    -2964.334     42.56424   -2921.7698 
   52000    624.94051   -2965.9298    45.236744   -2920.6931 
   52200    626.66709   -2965.4685    45.361724   -2920.1067 
   52400     614.3504   -2964.6178    44.470172   -2920.1476 
   52600    595.68328   -2963.6228     43.11894   -2920.5038 
   52800    590.86354   -2963.5523     42.77006   -2920.7822 
   53000    589.00518   -2963.4836    42.635541   -2920.8481 
   53200    596.64885   -2963.8793    43.188834   -2920.6905 
   53400    606.93513   -2964.3851    43.933413   -2920.4517 
   53600    621.39538   -2965.3678    44.980128   -2920.3877 
   53800     609.9139    -2964.923    44.149033    -2920.774 
   54000    593.15098   -2964.3121    42.935638   -2921.3765 
   54200    592.88382   -2964.7758    42.916299   -2921.8595 
   54400    596.73391   -2965.3829    43.194991   -2922.1879 
   54600    605.89059   -2966.3131    43.857803   -2922.4553 
   54800    605.24555   -2966.6531    43.811112    -2922.842 
   55000    603.05405        -2967    43.652478   -2923.3475 
   55200    595.36343    -2967.006    43.095787   -2923.9102 
   55400    570.93093   -2965.6455    41.327225   -2924.3183 
   55600    567.27083   -2965.1834    41.062286   -2924.1211 
   55800    597.74167   -2966.5215    43.267938   -2923.2536 
   56000    623.87756   -2967.4381    45.159802   -2922.2783 
   56200    612.71033   -2966.1386    44.351455   -2921.7871 
   56400    606.44579    -2965.532    43.897992    -2921.634 
   56600    604.35142   -2965.3782    43.746389   -2921.6318 
   56800    605.96296   -2965.6081    43.863042    -2921.745 
   57000    613.51002   -2966.4305     44.40934   -2922.0212 
   57200    606.60044   -2966.4932    43.909186    -2922.584 
   57400    594.91502    -2966.345    43.063329   -2923.2817 
   57600    581.07243    -2965.898    42.061324   -2923.8366 
   57800    586.83118   -2966.4783    42.478175   -2924.0001 
   58000    603.59966   -2967.5829    43.691973   -2923.8909 
   58200    605.78894   -2967.6925    43.850445   -2923.8421 
   58400    590.97776   -2966.6615    42.778328   -2923.8832 
   58600    588.27713   -2966.3168    42.582841    -2923.734 
   58800    621.59943   -2968.3819    44.994898    -2923.387 
   59000    636.12171   -2969.5533    46.046103   -2923.5072 
   59200    604.63688    -2968.156    43.767052    -2924.389 
   59400    572.78584   -2966.8003    41.461493   -2925.3388 
   59600    577.90518   -2967.5559     41.83206   -2925.7238 
   59800    602.21407   -2969.2535    43.591676   -2925.6618 
   60000    597.90852   -2968.8642    43.280015   -2925.5842 
   60200    597.78114   -2968.7417    43.270795   -2925.4709 
   60400    614.25943   -2969.8058    44.463588   -2925.3422 
   60600    622.51146    -2970.604    45.060916   -2925.5431 
   60800    593.65405   -2969.1549    42.972053   -2926.1828 
   61000    569.32039    -2967.874    41.210645   -2926.6634 
   61200    572.69208   -2967.9628    41.454706   -2926.5081 
   61400    598.66457   -2969.1154    43.334743   -2925.7807 
   61600    605.79806   -2968.8089    43.851106   -2924.9578 
   61800    598.98003   -2967.6009    43.357578   -2924.2433 
   62000    603.23666   -2967.2088    43.665697   -2923.5431 
   62200    603.30554   -2966.5664    43.670683   -2922.8957 
   62400    613.88238   -2966.7844    44.436294   -2922.3481 
   62600    612.85348   -2966.4394    44.361817   -2922.0776 
   62800    628.75347   -2967.6809    45.512748   -2922.1682 
   63000    642.21851   -2969.4561    46.487424   -2922.9686 
   63200    619.28807   -2969.5145    44.827589   -2924.6869 
   63400    604.58318   -2970.5976    43.763165   -2926.8344 
   63600    595.25355   -2972.1587    43.087834   -2929.0708 
   63800    586.69018   -2973.6384    42.467968   -2931.1704 
   64000    561.51816   -2973.5217    40.645875   -2932.8759 
   64200    553.51669   -2973.7953    40.066682   -2933.7286 
   64400    575.33633   -2975.2763    41.646112   -2933.6302 
   64600    594.81949   -2976.0267    43.056414   -2932.9703 
   64800    591.35809   -2974.9485    42.805858   -2932.1426 
   65000    589.34625   -2973.7879     42.66023   -2931.1277 
   65200    597.79648   -2973.1465    43.271906   -2929.8746 
   65400    615.86661   -2973.1504    44.579924   -2928.5705 
   65600    608.22571   -2971.5902    44.026832   -2927.5633 
   65800    605.60491   -2970.6142    43.837124    -2926.777 
   66000    622.16124   -2971.2032    45.035565   -2926.1676 
   66200     614.5876    -2970.497    44.487342   -2926.0097 
   66400    613.81746   -2970.6725    44.431595   -2926.2409 
   66600    586.83272   -2969.1861    42.478286   -2926.7078 
   66800    587.48001    -2969.473    42.525141   -2926.9478 
   67000    590.38164   -2969.6257    42.735177   -2926.8906 
   67200    605.19479   -2970.4498    43.807437   -2926.6424 
   67400    620.29474    -2971.415    44.900458   -2926.5145 
   67600    622.33215    -2971.894    45.047936   -2926.8461 
   67800    601.97176   -2971.2277    43.574136   -2927.6535 
   68000    592.29323    -2971.391    42.873549   -2928.5174 
   68200    581.13934   -2971.2448    42.066167   -2929.1786 
   68400     578.4808   -2971.2958    41.873727   -2929.4221 
   68600    600.55237    -2972.701    43.471392   -2929.2297 
   68800    620.57546   -2973.9581    44.920777   -2929.0374 
   69000    616.74122   -2973.9222    44.643233   -2929.2789 
   69200    592.31929   -2972.7382    42.875435   -2929.8628 
   69400     582.2068   -2972.4291    42.143436   -2930.2857 
   69600    593.72155   -2973.3295    42.976939   -2930.3525 
   69800    598.37352   -2973.5778    43.313675   -2930.2641 
   70000    602.85068   -2973.7814    43.637757   -2930.1436 
   70200    589.17005   -2972.6922    42.647476   -2930.0447 
   70400    585.81824   -2972.1333    42.404852   -2929.7284 
   70600    609.66021   -2973.2674     44.13067   -2929.1367 
   70800    607.73626   -2972.6947    43.991403   -2928.7033 
   71000    587.98094   -2970.9866    42.561401   -2928.4252 
   71200    584.35195   -2970.2137    42.298714    -2927.915 
   71400    605.11671   -2970.8939    43.801785   -2927.0922 
   71600    623.64576   -2971.4906    45.143023   -2926.3476 
   71800    630.14094   -2971.7441    45.613181    -2926.131 
   72000    623.07471   -2971.7228    45.101687   -2926.6211 
   72200    593.68365   -2970.5637    42.974196   -2927.5895 
   72400    571.86102   -2969.7824    41.394549   -2928.3879 
   72600    578.05339   -2970.4506    41.842789   -2928.6078 
   72800    591.18182   -2971.1417    42.793099   -2928.3486 
   73000    608.68133   -2971.9557    44.059813   -2927.8959 
   73200    607.36727   -2971.5452    43.964693   -2927.5805 
   73400    607.95567   -2971.4692    44.007285    -2927.462 
   73600    598.37834   -2970.8039    43.314024   -2927.4899 
   73800     611.3973   -2971.8016     44.25641   -2927.5452 
   74000    620.38437   -2972.7681    44.906945   -2927.8611 
   74200    601.50341   -2972.1395    43.540234   -2928.5993 
   74400    577.34618   -2971.1124    41.791597   -2929.3208 
   74600    592.29204    -2972.488    42.873463   -2929.6145 
   74800    592.50795   -2972.5823    42.889092   -2929.6932 
   75000    575.70945   -2971.2441    41.673121   -2929.5709 
   75200    583.77163   -2971.2268    42.256707   -2928.9701 
   75400    603.17536   -2971.6442     43.66126   -2927.9829 
   75600    631.20072   -2972.7498    45.689894   -2927.0599 
   75800    633.09623   -2972.6374    45.827102   -2926.8103 
   76000    613.67661   -2971.7294    44.421399    -2927.308 
   76200    603.70265   -2971.8419    43.699428   -2928.1424 
   76400    606.12324    -2972.977    43.874644   -2929.1023 
   76600    575.89796   -2971.7885    41.686766   -2930.1017 
   76800    564.58123   -2971.4386    40.867597   -2930.5711 
   77000    592.12734   -2973.1981    42.861541   -2930.3366 
   77200    601.96651   -2973.4421    43.573756   -2929.8683 
   77400      603.893    -2973.148    43.713206   -2929.4348 
   77600    626.60838   -2974.5011    45.357475   -2929.1437 
   77800     635.2917   -2975.4414    45.986023   -2929.4554 
   78000    603.03083   -2974.1648    43.650797    -2930.514 
   78200    572.39955   -2973.0312    41.433531   -2931.5976 
   78400    560.78766   -2972.6627    40.592997   -2932.0697 
   78600    563.05213   -2972.4722    40.756912   -2931.7152 
   78800    578.26536   -2972.4284    41.858132   -2930.5703 
   79000    599.85961   -2972.3193    43.421246   -2928.8981 
   79200    630.93334   -2972.8532    45.670539   -2927.1826 
   79400    623.77533   -2971.2257    45.152402   -2926.0733 
   79600    625.31607     -2970.83     45.26393   -2925.5661 
   79800    643.11738   -2972.2623     46.55249   -2925.7099 
   80000    634.37897   -2972.7698    45.919954   -2926.8499 
   80200    616.10748   -2973.3855     44.59736   -2928.7882 
   80400    580.61907   -2972.9971    42.028507   -2930.9686 
   80600    555.93174   -2972.8683    40.241498   -2932.6268 
   80800    556.98888   -2973.6711    40.318019   -2933.3531 
   81000    569.86885   -2974.4271    41.250345   -2933.1768 
   81200    586.54021   -2974.7876    42.457113   -2932.3305 
   81400    604.55748   -2974.9158    43.761305   -2931.1545 
   81600    611.31408    -2974.281    44.250386   -2930.0306 
   81800    612.85367   -2973.5217     44.36183   -2929.1599 
   82000    596.64997   -2971.7479    43.188914    -2928.559 
   82200    606.58224   -2971.8447    43.907868   -2927.9368 
   82400    649.23876   -2974.5385     46.99559   -2927.5429 
   82600    624.08091   -2973.3419    45.174522   -2928.1674 
   82800    592.41315   -2972.1989    42.882229   -2929.3167 
   83000    592.13417    -2973.181    42.862035    -2930.319 
   83200    601.92946   -2974.7522    43.571074   -2931.1812 
   83400    581.59184   -2974.1215    42.098922   -2932.0226 
   83600    549.40758   -2972.1551    39.769242   -2932.3859 
   83800    579.09548   -2973.7043    41.918221   -2931.7861 
   84000    607.55956    -2974.632    43.978613   -2930.6534 
   84200     595.6035   -2972.7051    43.113165   -2929.5919 
   84400     614.9961   -2973.0352    44.516912   -2928.5183 
   84600    637.18439   -2973.8834    46.123026   -2927.7604 
   84800    624.55229   -2973.0373    45.208643   -2927.8286 
   85000    604.91421   -2972.2519    43.787127   -2928.4647 
   85200    589.75294   -2971.8945    42.689668   -2929.2049 
   85400    604.60741    -2973.536    43.764919   -2929.7711 
   85600     612.2038   -2974.7713    44.314789   -2930.4565 
   85800    592.40875   -2974.2248    42.881911   -2931.3429 
   86000    590.99093   -2974.8626    42.779281   -2932.0834 
   86200    583.83147   -2974.8665    42.261039   -2932.6055 
   86400     577.8295   -2974.5843    41.826582   -2932.7577 
   86600    586.55251   -2974.9077    42.458003   -2932.4497 
   86800     588.3635   -2974.4013    42.589092   -2931.8122 
   87000    598.71678   -2974.2592    43.338522   -2930.9207 
   87200    619.29993   -2974.8339    44.828447   -2930.0055 
   87400    622.40583   -2974.5297     45.05327   -2929.4764 
   87600    638.89299   -2975.7852    46.246704   -2929.5385 
   87800    625.79576   -2975.7848    45.298652   -2930.4861 
   88000     579.8977   -2973.8995     41.97629   -2931.9232 
   88200    550.34761   -2972.6964    39.837287   -2932.8591 
   88400    566.11866   -2973.7791    40.978885   -2932.8002 
   88600    591.46159   -2974.8094     42.81335    -2931.996 
   88800    596.77583   -2974.1327    43.198025   -2930.9347 
   89000    592.29488   -2972.6547    42.873669   -2929.7811 
   89200    612.52109    -2972.834    44.337756   -2928.4962 
   89400    640.05158   -2973.8015     46.33057    -2927.471 
   89600    627.93663   -2972.7639    45.453621   -2927.3103 
   89800    624.73092   -2973.0932    45.221574   -2927.8716 
   90000    604.90988   -2972.7484    43.786814   -2928.9615 
   90200    582.91346   -2972.3139    42.194588   -2930.1193 
   90400    571.38959    -2972.252    41.360425   -2930.8915 
   90600    567.68482   -2972.1208    41.092253   -2931.0285 
   90800    594.98906   -2973.5866    43.068689   -2930.5179 
   91000    620.34978   -2974.7785    44.904441    -2929.874 
   91200    611.20813   -2973.8659    44.242717   -2929.6231 
   91400    597.38871   -2972.8715    43.242389   -2929.6291 
   91600    611.39677   -2973.8932    44.256372   -2929.6369 
   91800    617.09316   -2974.5691    44.668709   -2929.9004 
   92000    606.91016   -2974.4489    43.931605   -2930.5173 
   92200    609.37091   -2975.4467    44.109728   -2931.3369 
   92400    596.16699   -2975.4756    43.153954   -2932.3217 
   92600    583.80465    -2975.449    42.259097   -2933.1899 
   92800    574.00665   -2975.2385    41.549862   -2933.6886 
   93000    568.28729   -2974.7473    41.135862   -2933.6115 
   93200     578.4027   -2974.7349    41.868073   -2932.8669 
   93400    589.91794   -2974.3266    42.701612    -2931.625 
   93600    579.20715   -2972.0246    41.926304   -2930.0983 
   93800    580.46231    -2970.178     42.01716   -2928.1608 
   94000      628.904   -2971.3102    45.523644   -2925.7866 
   94200    664.28042   -2972.0064    48.084391    -2923.922 
   94400    662.04509   -2971.4955    47.922585   -2923.5729 
   94600    622.82942     -2969.76    45.083932   -2924.6761 
   94800    609.81682   -2970.4829    44.142006   -2926.3409 
   95000     602.1722   -2971.8133    43.588645   -2928.2247 
   95200    595.25668   -2973.2254     43.08806   -2930.1373 
   95400    602.61954     -2975.59    43.621026    -2931.969 
   95600    596.91475   -2977.0594    43.208081   -2933.8513 
   95800    553.72254   -2975.5873    40.081583   -2935.5057 
   96000    530.04298   -2974.4956    38.367522   -2936.1281 
   96200    562.38246   -2976.1031    40.708438   -2935.3947 
   96400    587.88249   -2976.3086    42.554274   -2933.7544 
   96600    594.48439   -2974.7886    43.032158   -2931.7564 
   96800    613.54134   -2974.0318    44.411608   -2929.6202 
   97000     638.4646   -2973.9505    46.215695   -2927.7348 
   97200    644.45614   -2973.3602    46.649397   -2926.7108 
   97400    609.23901   -2970.7937    44.100181   -2926.6935 
   97600    596.47122   -2970.1335    43.175976   -2926.9575 
   97800     602.9786   -2970.8211    43.647017   -2927.1741 
   98000      620.477   -2972.4048     44.91365   -2927.4911 
   98200    620.12543   -2973.1515    44.888202   -2928.2633 
   98400    598.78401    -2972.781    43.343388   -2929.4376 
   98600    582.32746   -2972.7153     42.15217   -2930.5632 
   98800     578.1085   -2973.1413    41.846777   -2931.2945 
   99000    582.57945   -2973.7188     42.17041   -2931.5484 
   99200    596.41912   -2974.6095    43.172204   -2931.4373 
   99400    611.66941   -2975.5193    44.276107   -2931.2432 
   99600    620.63797   -2976.2484    44.925302   -2931.3231 
   99800    596.82088   -2975.0024    43.201286   -2931.8011 
  100000    585.93176   -2974.6486     42.41307   -2932.2356 
Loop time of 503.781 on 1 procs for 100000 steps with 561 atoms

Performance: 1.715 ns/day, 13.994 hours/ns, 198.499 timesteps/s
99.6% CPU use with 1 MPI tasks x 1 OpenMP threads

MPI task timing breakdown:
Section |  min time  |  avg time  |  max time  |%varavg| %total
---------------------------------------------------------------
Pair    | 500.88     | 500.88     | 500.88     |   0.0 | 99.42
Neigh   | 0.027464   | 0.027464   | 0.027464   |   0.0 |  0.01
Comm    | 0.021827   | 0.021827   | 0.021827   |   0.0 |  0.00
Output  | 0.73213    | 0.73213    | 0.73213    |   0.0 |  0.15
Modify  | 1.8471     | 1.8471     | 1.8471     |   0.0 |  0.37
Other   |            | 0.2712     |            |       |  0.05

Nlocal:    561 ave 561 max 561 min
Histogram: 1 0 0 0 0 0 0 0 0 0
Nghost:    0 ave 0 max 0 min
Histogram: 1 0 0 0 0 0 0 0 0 0
Neighs:    12164 ave 12164 max 12164 min
Histogram: 1 0 0 0 0 0 0 0 0 0
FullNghs:  24328 ave 24328 max 24328 min
Histogram: 1 0 0 0 0 0 0 0 0 0

Total # of neighbors = 24328
Ave neighs/atom = 43.3654
Neighbor list builds = 19
Dangerous builds = 0
All done!
Total wall time: 0:08:23
