LAMMPS (22 Aug 2018)
OMP_NUM_THREADS environment is not set. Defaulting to 1 thread. (src/comm.cpp:87)
  using 1 OpenMP thread(s) per MPI task
Reading data file ...
  orthogonal box = (-0 -0 -0) to (100 100 100)
  1 by 1 by 1 MPI processor grid
  reading atoms ...
  561 atoms
WARNING: The pair_style meam command is unsupported. Please use pair_style meam/c instead (src/MEAM/pair_meam.cpp:51)
Reading potential file library.meam with DATE: 2012-06-29
Neighbor list info ...
  update every 1 steps, delay 10 steps, check yes
  max neighbors/atom: 2000, page size: 100000
  master list distance cutoff = 6
  ghost atom cutoff = 6
  binsize = 3, bins = 34 34 34
  2 neighbor lists, perpetual/occasional/extra = 2 0 0
  (1) pair meam, perpetual
      attributes: full, newton on
      pair build: full/bin/atomonly
      stencil: full/bin/3d
      bin: standard
  (2) pair meam, perpetual, half/full from (1)
      attributes: half, newton on
      pair build: halffull/newton
      stencil: none
      bin: none
Setting up Verlet run ...
  Unit style    : metal
  Current step  : 0
  Time step     : 0.0005
Per MPI rank memory allocation (min/avg/max) = 9.723 | 9.723 | 9.723 Mbytes
Step Temp PotEng KinEng TotEng 
       0         1200    -1726.413    86.862817   -1639.5502 
     200    1236.8635    -1729.082    89.531207   -1639.5507 
     400    1491.3903   -1747.5064    107.95531   -1639.5511 
     600    1055.8071    -1715.978    76.425319   -1639.5527 
     800    1388.2741   -1740.0424    100.49116   -1639.5512 
    1000    1151.8964   -1722.9309    83.380803   -1639.5501 
    1200    843.25551   -1700.5887    61.039624   -1639.5491 
    1400    1152.8372   -1722.9984    83.448905   -1639.5495 
    1600    1291.5458     -1733.04    93.489423   -1639.5506 
    1800    1156.1946   -1723.2408    83.691936   -1639.5489 
    2000    1278.2845   -1732.0792    92.529492   -1639.5497 
    2200     1096.338   -1718.9083    79.359175   -1639.5491 
    2400    919.41898   -1706.1029    66.552769   -1639.5502 
    2600    1019.2499   -1713.3299      73.7791   -1639.5508 
    2800    1110.1547     -1719.91    80.359304   -1639.5507 
    3000    1092.4038   -1718.6251     79.07439   -1639.5508 
    3200    1138.7503   -1721.9805    82.429218   -1639.5513 
    3400    1117.7602   -1720.4604    80.909836   -1639.5506 
    3600    1013.8902   -1712.9418     73.39113   -1639.5507 
    3800    983.26766   -1710.7239    71.174499   -1639.5494 
    4000     1129.554   -1721.3135    81.763533     -1639.55 
    4200    1061.6129   -1716.3952    76.845572   -1639.5497 
    4400    1096.6702   -1718.9344    79.383216   -1639.5511 
    4600    1092.4114   -1718.6268    79.074947   -1639.5518 
    4800     1054.969   -1715.9156    76.364648    -1639.551 
    5000    1019.9039   -1713.3777    73.826438   -1639.5512 
    5200    1059.3522    -1716.234    76.681927   -1639.5521 
    5400    1036.9102   -1714.6097    75.057455   -1639.5523 
    5600    1060.3041   -1716.3028    76.750832   -1639.5519 
    5800    1008.2588   -1712.5346    72.983497   -1639.5511 
    6000     1011.781   -1712.7888    73.238456   -1639.5504 
    6200    967.17704   -1709.5598    70.009769   -1639.5501 
    6400    943.94918   -1707.8774    68.328404    -1639.549 
    6600    1046.5485   -1715.3047    75.755124   -1639.5495 
    6800    1007.8168    -1712.502    72.951504   -1639.5505 
    7000    998.41414   -1711.8212    72.270887   -1639.5503 
    7200    979.27437   -1710.4353    70.885442   -1639.5499 
    7400    958.35038    -1708.921    69.370845   -1639.5502 
    7600    999.60446   -1711.9067     72.35705   -1639.5497 
    7800    966.43836   -1709.5057    69.956299   -1639.5494 
    8000    983.07735   -1710.7105    71.160723   -1639.5498 
    8200    1026.1908   -1713.8311    74.281518   -1639.5496 
    8400    1040.6085   -1714.8742    75.325158    -1639.549 
    8600    948.17181    -1708.183    68.634062   -1639.5489 
    8800     1031.923   -1714.2461    74.696446   -1639.5496 
    9000    999.99929   -1711.9353     72.38563   -1639.5497 
    9200    1006.2608   -1712.3884    72.838876   -1639.5495 
    9400    1009.0806   -1712.5925    73.042986   -1639.5495 
    9600    960.03597   -1709.0414    69.492858   -1639.5486 
    9800     973.9821   -1710.0502    70.502358   -1639.5478 
   10000    983.33952   -1710.7287    71.179701    -1639.549 
   10200    944.18399    -1707.895    68.345402   -1639.5496 
   10400    945.10843   -1707.9625    68.412317   -1639.5502 
   10600    993.25454   -1711.4469    71.897407   -1639.5495 
   10800    987.55925   -1711.0347    71.485149   -1639.5495 
   11000    953.81489   -1708.5923    69.042541   -1639.5498 
   11200    971.11002   -1709.8435     70.29446   -1639.5491 
   11400    930.41331   -1706.8978    67.348602   -1639.5492 
   11600    1006.2494   -1712.3868     72.83805   -1639.5487 
   11800    977.03979   -1710.2723    70.723691   -1639.5486 
   12000    982.75485   -1710.6868    71.137379   -1639.5495 
   12200    970.72625   -1709.8172    70.266681   -1639.5505 
   12400      1001.69   -1712.0577    72.508015   -1639.5497 
   12600    937.23051   -1707.3922    67.842069   -1639.5501 
   12800     974.9316   -1710.1215    70.571088   -1639.5504 
   13000     994.9382   -1711.5689     72.01928   -1639.5496 
   13200    1016.3477   -1713.1185    73.569022   -1639.5495 
   13400    1007.8209   -1712.5007    72.951802   -1639.5489 
   13600    987.83211   -1711.0535      71.5049   -1639.5486 
   13800    1001.2545   -1712.0253    72.476489   -1639.5488 
   14000    994.87399   -1711.5643    72.014631   -1639.5497 
   14200    933.57715   -1707.1271    67.577618   -1639.5495 
   14400    969.17879   -1709.7044    70.154667   -1639.5497 
   14600    1038.4381   -1714.7198    75.168049   -1639.5517 
   14800    1036.6587    -1714.591    75.039243   -1639.5517 
   15000    962.16723   -1709.1989    69.647131   -1639.5518 
   15200    958.28058   -1708.9178    69.365793    -1639.552 
   15400    931.51423   -1706.9794    67.428292   -1639.5511 
   15600    944.22607   -1707.9001    68.348447   -1639.5516 
   15800    934.21787   -1707.1758    67.623997   -1639.5518 
   16000    945.09486   -1707.9621    68.411335   -1639.5508 
   16200    916.16874   -1705.8686    66.317498   -1639.5511 
   16400    948.85324    -1708.234    68.683388   -1639.5506 
   16600    954.67528   -1708.6556    69.104821   -1639.5508 
   16800    933.67521   -1707.1346    67.584716   -1639.5498 
   17000    978.33118   -1710.3675    70.817169   -1639.5503 
   17200    942.86664   -1707.8001    68.250044     -1639.55 
   17400     945.6103        -1708    68.448646   -1639.5513 
   17600     992.9702   -1711.4285    71.876824   -1639.5517 
   17800     956.4268   -1708.7831    69.231605   -1639.5515 
   18000    968.41909   -1709.6517    70.099676    -1639.552 
   18200    971.16399     -1709.85    70.298367   -1639.5516 
   18400    1016.0245   -1713.0971    73.545622   -1639.5515 
   18600    1019.0813   -1713.3184    73.766892   -1639.5515 
   18800    968.85584   -1709.6826     70.13129   -1639.5514 
   19000     1000.282   -1711.9583    72.406095   -1639.5522 
   19200    889.50388   -1703.9385    64.387344   -1639.5511 
   19400    907.79513    -1705.262    65.711369   -1639.5506 
   19600    964.47908   -1709.3658    69.814475   -1639.5514 
   19800    961.44744   -1709.1458    69.595028   -1639.5508 
   20000    944.36973   -1707.9094    68.358846   -1639.5506 
Loop time of 98.8761 on 1 procs for 20000 steps with 561 atoms

Performance: 8.738 ns/day, 2.747 hours/ns, 202.273 timesteps/s
99.6% CPU use with 1 MPI tasks x 1 OpenMP threads

MPI task timing breakdown:
Section |  min time  |  avg time  |  max time  |%varavg| %total
---------------------------------------------------------------
Pair    | 98.12      | 98.12      | 98.12      |   0.0 | 99.24
Neigh   | 0.16602    | 0.16602    | 0.16602    |   0.0 |  0.17
Comm    | 0.01325    | 0.01325    | 0.01325    |   0.0 |  0.01
Output  | 0.15048    | 0.15048    | 0.15048    |   0.0 |  0.15
Modify  | 0.33648    | 0.33648    | 0.33648    |   0.0 |  0.34
Other   |            | 0.08952    |            |       |  0.09

Nlocal:    561 ave 561 max 561 min
Histogram: 1 0 0 0 0 0 0 0 0 0
Nghost:    0 ave 0 max 0 min
Histogram: 1 0 0 0 0 0 0 0 0 0
Neighs:    14070 ave 14070 max 14070 min
Histogram: 1 0 0 0 0 0 0 0 0 0
FullNghs:  28140 ave 28140 max 28140 min
Histogram: 1 0 0 0 0 0 0 0 0 0

Total # of neighbors = 28140
Ave neighs/atom = 50.1604
Neighbor list builds = 106
Dangerous builds = 0
All done!
Total wall time: 0:01:39
