LAMMPS (22 Aug 2018)
OMP_NUM_THREADS environment is not set. Defaulting to 1 thread. (src/comm.cpp:87)
  using 1 OpenMP thread(s) per MPI task
Reading data file ...
  orthogonal box = (-0 -0 -0) to (100 100 100)
  1 by 1 by 1 MPI processor grid
  reading atoms ...
  561 atoms
WARNING: The pair_style meam command is unsupported. Please use pair_style meam/c instead (src/MEAM/pair_meam.cpp:51)
Reading potential file library.meam with DATE: 2012-06-29
Neighbor list info ...
  update every 1 steps, delay 10 steps, check yes
  max neighbors/atom: 2000, page size: 100000
  master list distance cutoff = 6
  ghost atom cutoff = 6
  binsize = 3, bins = 34 34 34
  2 neighbor lists, perpetual/occasional/extra = 2 0 0
  (1) pair meam, perpetual
      attributes: full, newton on
      pair build: full/bin/atomonly
      stencil: full/bin/3d
      bin: standard
  (2) pair meam, perpetual, half/full from (1)
      attributes: half, newton on
      pair build: halffull/newton
      stencil: none
      bin: none
Setting up Verlet run ...
  Unit style    : metal
  Current step  : 0
  Time step     : 0.0001
Per MPI rank memory allocation (min/avg/max) = 9.723 | 9.723 | 9.723 Mbytes
Step Temp PotEng KinEng TotEng 
       0          600   -2952.8017    43.431409   -2909.3703 
     200    556.61745   -2946.1696    40.291133   -2905.8785 
     400    662.46777   -2935.8834    47.953181   -2887.9302 
     600    556.95081   -2928.5758    40.315264   -2888.2605 
     800    675.02467   -2932.5924     48.86212   -2883.7303 
    1000    523.59872   -2936.5996     37.90105   -2898.6985 
    1200    659.89958   -2937.6186    47.767281   -2889.8513 
    1400       559.51   -2937.6354    40.500513   -2897.1349 
    1600    626.49635   -2939.7832    45.349365   -2894.4339 
    1800    589.39138   -2943.0426    42.663496   -2900.3791 
    2000    582.07443   -2945.8037    42.133854   -2903.6698 
    2200    622.56507   -2946.7793    45.064797   -2901.7145 
    2400    565.99514   -2947.1567    40.969944   -2906.1868 
    2600     643.3847   -2948.1822     46.57184   -2901.6103 
    2800    554.44414   -2949.2247    40.133817   -2909.0909 
    3000    646.32063   -2950.9533    46.784359    -2904.169 
    3200    550.87107   -2950.6748    39.875178   -2910.7996 
    3400    646.12723   -2949.7374     46.77036   -2902.9671 
    3600    563.66856   -2948.1259    40.801533   -2907.3243 
    3800    639.45519   -2949.2044      46.2874    -2902.917 
    4000    569.77717   -2950.9372    41.243708   -2909.6935 
    4200    623.59861   -2953.6675     45.13961   -2908.5279 
    4400    579.04158   -2955.2103    41.914319    -2913.296 
    4600    605.31189   -2955.6657    43.815914   -2911.8498 
    4800    601.16384   -2954.7079    43.515654   -2911.1923 
    5000    596.37675   -2954.9057    43.169138   -2911.7366 
    5200    602.61968   -2954.9726    43.621036   -2911.3515 
    5400     595.9063   -2954.4554    43.135084   -2911.3203 
    5600    611.20196    -2955.949     44.24227   -2911.7068 
    5800    568.01375   -2955.6072    41.116062   -2914.4912 
    6000    644.26454   -2954.8989    46.635528   -2908.2633 
    6200    553.26797   -2954.2414    40.048679   -2914.1927 
    6400    654.25227    -2954.633    47.358496   -2907.2745 
    6600    553.71671   -2955.4864    40.081161   -2915.4052 
    6800    637.43477   -2956.8455     46.14115   -2910.7043 
    7000    564.83053   -2955.5416    40.885643   -2914.6559 
    7200    635.91331   -2956.0413    46.031018   -2910.0102 
    7400    567.61815   -2956.2055    41.087426    -2915.118 
    7600    627.50197   -2957.1853    45.422158   -2911.7631 
    7800    575.12404   -2957.3149    41.630746   -2915.6842 
    8000    614.23709   -2957.2084     44.46197   -2912.7465 
    8200    592.86264   -2956.6799    42.914766   -2913.7652 
    8400    598.09803   -2957.1348    43.293734    -2913.841 
    8600    609.14461   -2957.9484    44.093348   -2913.8551 
    8800    575.44191   -2957.8184    41.653755   -2916.1646 
    9000    635.57787   -2957.7683    46.006737   -2911.7616 
    9200    558.72643   -2958.0743    40.443793   -2917.6305 
    9400    636.72947   -2957.4876    46.090097   -2911.3975 
    9600    564.30299   -2954.7913    40.847456   -2913.9438 
    9800    638.33962   -2953.8055    46.206648   -2907.5988 
   10000    563.24003   -2951.3429    40.770513   -2910.5724 
   10200    645.69096   -2951.3788     46.73878     -2904.64 
   10400    558.34899   -2951.1615    40.416472    -2910.745 
   10600    648.94972   -2953.7007    46.974667    -2906.726 
   10800    555.96465   -2956.2531     40.24388   -2916.0092 
   11000    629.88016   -2957.8361    45.594305   -2912.2418 
   11200    574.32536   -2957.2694    41.572932   -2915.6964 
   11400    621.67762   -2957.7576    45.000558    -2912.757 
   11600    583.27246   -2958.1285    42.220575   -2915.9079 
   11800    605.77748   -2958.5559    43.849615   -2914.7063 
   12000    602.62876   -2959.3225    43.621693   -2915.7008 
   12200    581.99881   -2959.5437     42.12838   -2917.4153 
   12400    627.31892   -2959.1698    45.408907   -2913.7609 
   12600    567.83111   -2959.3563    41.102842   -2918.2535 
   12800    633.53775   -2959.6696    45.859061   -2913.8106 
   13000    562.27403   -2958.9057    40.700589   -2918.2051 
   13200    635.64264   -2957.1972    46.011425   -2911.1857 
   13400    571.39803   -2955.1794    41.361035   -2913.8183 
   13600    632.21251   -2955.2337    45.763133   -2909.4705 
   13800    573.99295   -2955.5333    41.548871   -2913.9844 
   14000    623.89901   -2957.2161    45.161355   -2912.0548 
   14200    580.47942    -2958.665    42.018398   -2916.6466 
   14400    612.50751   -2959.6047    44.336773   -2915.2679 
   14600    595.78946   -2961.7972    43.126626   -2918.6706 
   14800    581.61629   -2962.1286    42.100691   -2920.0279 
   15000    619.07423   -2960.1682     44.81211   -2915.3561 
   15200    575.49702   -2957.6892    41.657744   -2916.0315 
   15400    636.52932   -2956.9181    46.075608   -2910.8425 
   15600    560.95086   -2956.8671     40.60481   -2916.2623 
   15800    643.82734   -2957.1546    46.603881   -2910.5507 
   16000    554.56849   -2956.7718    40.142818   -2916.6289 
   16200    647.36499    -2956.933    46.859956   -2910.0731 
   16400    557.54888   -2956.4193    40.358555   -2916.0607 
   16600      634.224   -2956.2342    45.908736   -2910.3254 
   16800    571.20187   -2954.6231    41.346837   -2913.2763 
   17000    621.06121   -2953.8652    44.955939   -2908.9092 
   17200    586.85907    -2952.585    42.480194   -2910.1048 
   17400    604.12424   -2952.4897    43.729945   -2908.7597 
   17600    603.05326   -2951.8214    43.652421    -2908.169 
   17800    590.81363    -2952.111    42.766447   -2909.3446 
   18000    617.46079   -2953.0526     44.69532   -2908.3572 
   18200     572.8361   -2953.5497    41.465131   -2912.0846 
   18400    635.43237   -2954.3757    45.996205   -2908.3795 
   18600    563.22002   -2955.1541    40.769065    -2914.385 
   18800    639.28456   -2956.6003    46.275049   -2910.3253 
   19000    562.66264   -2957.4292    40.728718   -2916.7004 
   19200    638.59409   -2959.3754    46.225068   -2913.1503 
   19400    564.54279   -2961.2631    40.864815   -2920.3983 
   19600    619.12559   -2961.7233    44.815828   -2916.9075 
   19800    587.24207   -2960.2176    42.507918   -2917.7097 
   20000    608.55117   -2960.1685    44.050391   -2916.1181 
   20200    593.60714   -2959.5711    42.968657   -2916.6025 
   20400    593.20835   -2957.7836     42.93979   -2914.8439 
   20600    618.36957   -2956.7224    44.761102   -2911.9613 
   20800    572.90966   -2955.7922    41.470456   -2914.3217 
   21000     639.4307    -2956.152    46.285627   -2909.8663 
   21200    559.90221   -2957.5498    40.528903   -2917.0209 
   21400    639.95641    -2959.612    46.323681   -2913.2883 
   21600    553.71238   -2958.9243    40.080848   -2918.8435 
   21800    652.50003   -2958.8606    47.231659    -2911.629 
   22000    559.94818   -2959.6322     40.53223   -2919.0999 
   22200    630.32033   -2961.4205    45.626167   -2915.7944 
   22400    571.60069   -2961.3213    41.375705   -2919.9456 
   22600    620.78419   -2961.3459    44.935887   -2916.4101 
   22800    586.02034   -2961.0453    42.419482   -2918.6258 
   23000    595.56852   -2959.8225    43.110633   -2916.7119 
   23200    617.00071   -2958.5875    44.662017   -2913.9255 
   23400    575.37512   -2958.2149     41.64892    -2916.566 
   23600    629.89962   -2958.0028    45.595713   -2912.4071 
   23800    560.30053    -2956.618    40.557736   -2916.0603 
   24000    651.29748   -2956.2123    47.144612   -2909.0677 
   24200    549.99066   -2955.2094    39.811449   -2915.3979 
   24400    658.27429    -2956.479    47.649633   -2908.8294 
   24600    545.50428   -2957.0807    39.486699    -2917.594 
   24800     650.4299   -2958.1126    47.081812   -2911.0308 
   25000    558.18212   -2958.6452    40.404393   -2918.2409 
   25200    625.03163   -2958.6811     45.24334   -2913.4378 
   25400    581.18141   -2956.6316    42.069212   -2914.5624 
   25600    612.87679    -2955.806    44.363504   -2911.4425 
   25800    604.09767   -2957.7416    43.728021   -2914.0136 
   26000    577.07024    -2959.882    41.771623   -2918.1104 
   26200    628.06693   -2961.6709    45.463052   -2916.2079 
   26400    558.80216   -2961.9282    40.449275   -2921.4789 
   26600    642.50514   -2960.9102    46.508172    -2914.402 
   26800    561.49997   -2959.4452    40.644558   -2918.8006 
   27000    643.33534   -2960.3396    46.568267   -2913.7713 
   27200    554.13854   -2959.9454    40.111696   -2919.8337 
   27400    644.21008   -2959.3546    46.631586    -2912.723 
   27600    562.46177   -2958.1923    40.714178   -2917.4782 
   27800    640.22379   -2959.2444    46.343035   -2912.9013 
   28000    566.03047   -2960.0226    40.972501   -2919.0501 
   28200    626.50015   -2961.5578     45.34964   -2916.2082 
   28400    583.44935   -2962.8774    42.233378    -2920.644 
   28600    596.00555   -2963.5573    43.142267    -2920.415 
   28800     611.0119   -2962.2766    44.228512   -2918.0481 
   29000    586.10817   -2961.8839    42.425839   -2919.4581 
   29200      617.492   -2961.4174    44.697579   -2916.7198 
   29400    584.67297   -2962.1522    42.321951   -2919.8302 
   29600    612.09241   -2962.4768    44.306726     -2918.17 
   29800    586.93192   -2961.7655    42.485467     -2919.28 
   30000    609.10136   -2960.8901    44.090217   -2916.7999 
   30200    592.31762    -2959.268    42.875314   -2916.3927 
   30400    614.10045   -2959.2009    44.452079   -2914.7489 
   30600    582.83343   -2959.1472    42.188795   -2916.9584 
   30800    615.60494   -2958.8122    44.560983   -2914.2512 
   31000    592.90198   -2959.2451    42.917614   -2916.3275 
   31200    602.66254   -2960.6807    43.624138   -2917.0566 
   31400    594.88718   -2961.1845    43.061314   -2918.1232 
   31600    605.40607   -2961.3935    43.822731   -2917.5708 
   31800    600.00034   -2962.3891    43.431433   -2918.9577 
   32000    594.78517   -2963.1684    43.053929   -2920.1144 
   32200    605.02169   -2963.2672    43.794907   -2919.4723 
   32400    590.49014   -2962.5308    42.743031   -2919.7878 
   32600    613.46846    -2962.155    44.406332   -2917.7487 
   32800    584.38718   -2961.6631    42.301264   -2919.3618 
   33000    616.49405   -2961.6079    44.625342   -2916.9826 
   33200    582.59111   -2960.8109    42.171255   -2918.6397 
   33400    623.18339   -2961.3213    45.109554   -2916.2117 
   33600      578.998   -2962.0854    41.911165   -2920.1743 
   33800    619.90177    -2963.636    44.872012    -2918.764 
   34000     580.7306   -2964.2496     42.03658    -2922.213 
   34200    616.04456   -2965.1799    44.592805   -2920.5871 
   34400    584.59057    -2965.033    42.315987    -2922.717 
   34600    612.00616   -2964.7803    44.300483   -2920.4798 
   34800    592.18795   -2964.5831    42.865928   -2921.7172 
   35000    603.86513   -2964.2769    43.711189   -2920.5657 
   35200    598.18659   -2963.5653    43.300144   -2920.2652 
   35400    604.75579   -2963.9442     43.77566   -2920.1685 
   35600    590.24644   -2963.8305     42.72539   -2921.1051 
   35800    607.84952   -2963.0719    43.999602   -2919.0723 
   36000    597.22188    -2962.457    43.230313   -2919.2267 
   36200    604.39839   -2963.3012    43.749789   -2919.5514 
   36400    602.53162   -2965.7206    43.614662   -2922.1059 
   36600    582.31348   -2966.7226    42.151158   -2924.5714 
   36800    613.41381   -2964.7636    44.402377   -2920.3613 
   37000    596.00175   -2963.5138    43.141993   -2920.3718 
   37200    612.48637   -2965.3302    44.335243   -2920.9949 
   37400     580.4233   -2966.9842    42.014336   -2924.9699 
   37600    614.45024   -2966.7806    44.477399   -2922.3032 
   37800    588.40581   -2965.7673    42.592155   -2923.1751 
   38000    609.03238   -2965.5904    44.085224   -2921.5051 
   38200    586.23388   -2963.6536    42.434939   -2921.2187 
   38400    620.81961   -2962.5213     44.93845   -2917.5828 
   38600    585.50223   -2963.1426    42.381977   -2920.7606 
   38800    610.59486   -2964.4193    44.198325   -2920.2209 
   39000    592.02305   -2965.2506    42.853992   -2922.3966 
   39200    595.83557   -2964.6894    43.129964   -2921.5594 
   39400    610.36123   -2963.5706    44.181413   -2919.3892 
   39600    589.34771   -2963.2608    42.660336   -2920.6004 
   39800     620.6127   -2964.5661    44.923473   -2919.6426 
   40000     574.3585   -2966.1455    41.575331   -2924.5702 
   40200    619.03365   -2966.1016    44.809173   -2921.2924 
   40400     582.6538   -2964.9223    42.175792   -2922.7465 
   40600    620.21624   -2964.7754    44.894775   -2919.8806 
   40800    589.63839   -2966.0066    42.681376   -2923.3253 
   41000    605.86202   -2968.4624    43.855735   -2924.6067 
   41200    588.46502   -2968.9002    42.596442   -2926.3038 
   41400     604.7677    -2967.772    43.776522   -2923.9955 
   41600      599.502   -2966.5042    43.395361   -2923.1089 
   41800    602.67319   -2966.4685    43.624909   -2922.8436 
   42000    596.37291   -2966.4381    43.168859   -2923.2692 
   42200    601.30229   -2965.5568    43.525676   -2922.0311 
   42400    605.19039   -2966.2266    43.807119   -2922.4195 
   42600    589.22747   -2966.4863    42.651632   -2923.8347 
   42800    615.92151   -2967.7147    44.583898   -2923.1308 
   43000    575.44647   -2968.0574    41.654085   -2926.4033 
   43200    630.18168   -2968.1521     45.61613    -2922.536 
   43400    569.09209   -2968.3405    41.194119   -2927.1464 
   43600    631.11626   -2968.9991    45.683781   -2923.3153 
   43800    572.75677   -2969.1191    41.459389   -2927.6597 
   44000    623.97112   -2969.8755    45.166574   -2924.7089 
   44200    576.80226   -2969.5583    41.752225    -2927.806 
   44400    629.86053    -2970.139    45.592883   -2924.5462 
   44600    570.98939   -2971.5094    41.331456    -2930.178 
   44800    607.09418   -2970.5008    43.944926   -2926.5558 
   45000    600.77839    -2967.412    43.487753   -2923.9243 
   45200    606.34291   -2967.4167    43.890544   -2923.5261 
   45400    600.83009    -2969.719    43.491496   -2926.2275 
   45600    581.81623   -2970.4808    42.115164   -2928.3656 
   45800    622.67766   -2970.2184    45.072947   -2925.1454 
   46000    571.11636   -2969.6389    41.340647   -2928.2982 
   46200    635.73111   -2969.3981    46.017829   -2923.3803 
   46400    568.04224   -2969.6167    41.118125   -2928.4986 
   46600    635.77398   -2971.4749    46.020933    -2925.454 
   46800    564.88669   -2973.1938    40.889708   -2932.3041 
   47000    626.49303   -2974.0916    45.349125   -2928.7425 
   47200     575.0594   -2972.8301    41.626066   -2931.2041 
   47400    618.61556   -2971.7867    44.778909   -2927.0077 
   47600    588.75076   -2970.5538    42.617125   -2927.9367 
   47800    610.00754   -2970.4837    44.155811   -2926.3279 
   48000    596.26021   -2971.6002    43.160701   -2928.4395 
   48200    587.80642   -2971.3496    42.548768   -2928.8008 
   48400    624.63038   -2971.8347    45.214295   -2926.6204 
   48600    566.15557   -2972.2418    40.981556   -2931.2603 
   48800    645.08776   -2973.5195    46.695117   -2926.8244 
   49000    551.76788   -2975.0789    39.940094   -2935.1388 
   49200    644.47063   -2975.7866    46.650446   -2929.1362 
   49400    560.51573   -2975.3828    40.573313   -2934.8094 
   49600     635.7976   -2975.7498    46.022643   -2929.7272 
   49800    567.40531   -2974.8406     41.07202   -2933.7686 
   50000    628.12791   -2974.6458    45.467466   -2929.1783 
   50200    575.32663   -2973.8189     41.64541   -2932.1735 
   50400    611.03906   -2972.8997    44.230479   -2928.6692 
   50600     603.2635   -2971.6604    43.667639   -2927.9928 
   50800    589.93353   -2972.8498    42.702741   -2930.1471 
   51000    609.30284   -2972.4928    44.104801    -2928.388 
   51200    589.96383   -2972.4421    42.704933   -2929.7372 
   51400    614.36901   -2972.9675    44.471519   -2928.4959 
   51600     585.4452   -2973.7946     42.37785   -2931.4168 
   51800     616.4228   -2975.4101    44.620184   -2930.7899 
   52000    577.62966   -2975.8423    41.812116   -2934.0301 
   52200    617.66994   -2975.0369    44.710459   -2930.3264 
   52400    578.79487   -2972.0593    41.896461   -2930.1628 
   52600    632.00194   -2970.9356    45.747891   -2925.1877 
   52800    577.74367    -2971.947    41.820369   -2930.1266 
   53000     604.7813   -2972.0183    43.777507   -2928.2408 
   53200    606.26582   -2970.6668    43.884964   -2926.7819 
   53400    597.60693   -2971.7737    43.258185   -2928.5156 
   53600    601.05042   -2973.5246    43.507444   -2930.0171 
   53800    592.47736   -2974.1336    42.886877   -2931.2467 
   54000    601.88576   -2972.8796    43.567911   -2929.3117 
   54200     605.4241   -2971.7202    43.824036   -2927.8962 
   54400    601.12945   -2972.9833    43.513165   -2929.4701 
   54600    593.99201   -2974.3056    42.996516   -2931.3091 
   54800    603.37707   -2974.9328    43.675861   -2931.2569 
   55000    589.53189   -2973.7038    42.673668   -2931.0302 
   55200    619.47104   -2973.4599    44.840833   -2928.6191 
   55400    583.74795   -2974.3802    42.254993   -2932.1252 
   55600    614.43119   -2976.1206     44.47602   -2931.6445 
   55800    575.28659    -2975.499    41.642511   -2933.8564 
   56000    624.39089   -2973.5712     45.19696   -2928.3743 
   56200    586.89514   -2972.6523    42.482805   -2930.1695 
   56400    609.75103   -2973.2252    44.137244    -2929.088 
   56600    587.45756   -2972.2752    42.523515   -2929.7517 
   56800    615.08121   -2971.7589    44.523073   -2927.2358 
   57000    596.20345   -2973.0511    43.156593   -2929.8945 
   57200     599.4111   -2975.5623    43.388781   -2932.1735 
   57400    591.15126   -2976.0219    42.790886    -2933.231 
   57600    604.08574   -2974.8317    43.727158   -2931.1045 
   57800    606.21764   -2974.3483    43.881477   -2930.4668 
   58000    587.19028   -2974.5266    42.504169   -2932.0224 
   58200    610.88691   -2973.5516    44.219465   -2929.3321 
   58400    592.33613   -2972.4907    42.876654    -2929.614 
   58600    615.10208   -2973.1056    44.524583    -2928.581 
   58800    584.36452   -2973.8641    42.299624   -2931.5645 
   59000    605.10222   -2973.0625    43.800736   -2929.2617 
   59200     602.5215   -2971.5956    43.613929   -2927.9817 
   59400    605.30929    -2972.668    43.815726   -2928.8523 
   59600    592.68565   -2974.9026    42.901954   -2932.0006 
   59800    594.66315   -2974.8694    43.045097   -2931.8243 
   60000    608.79907   -2973.6639    44.068335   -2929.5956 
   60200    592.92591   -2973.2665    42.919346   -2930.3472 
   60400    610.13432   -2973.6712    44.164988   -2929.5062 
   60600    587.53807   -2973.7182    42.529343   -2931.1889 
   60800    612.40802   -2973.4946    44.329571    -2929.165 
   61000    588.41008   -2973.2215    42.592464    -2930.629 
   61200    606.47928   -2972.8578    43.900416   -2928.9574 
   61400    601.84958   -2972.4161    43.565292   -2928.8508 
   61600    601.27445   -2974.4541     43.52366   -2930.9304 
   61800    598.79278   -2976.0791    43.344023   -2932.7351 
   62000     598.9435   -2977.7874    43.354934   -2934.4325 
   62200    590.43897   -2976.8735    42.739327   -2934.1342 
   62400    620.55508    -2976.536    44.919302   -2931.6167 
   62600    576.78619   -2977.2265    41.751061   -2935.4754 
   62800    623.89114   -2977.6749    45.160785   -2932.5141 
   63000    574.60975   -2977.3615    41.593518    -2935.768 
   63200    624.75373   -2976.5926    45.223224   -2931.3694 
   63400    583.96176   -2976.8794     42.27047   -2934.6089 
   63600    607.75977   -2977.8494    43.993105   -2933.8563 
   63800    596.90584   -2978.0434    43.207436    -2934.836 
   64000    595.53421   -2977.7145     43.10815   -2934.6064 
   64200    611.56022   -2977.9888    44.268203   -2933.7206 
   64400    579.49515   -2977.8881    41.947151   -2935.9409 
   64600    628.22013    -2978.568    45.474142   -2933.0938 
   64800    563.59806    -2978.143    40.796429   -2937.3466 
   65000    644.94623   -2978.1187    46.684872   -2931.4338 
   65200    557.71188   -2978.1676    40.370354   -2937.7972 
   65400    641.19303   -2979.2142    46.413194    -2932.801 
   65600    562.37395   -2978.7692    40.707822   -2938.0614 
   65800    632.58438   -2979.0463    45.790051   -2933.2563 
   66000    569.86601   -2977.1147     41.25014   -2935.8646 
   66200    633.76338   -2977.2936    45.875394   -2931.4182 
   66400     566.2134   -2976.6031    40.985743   -2935.6173 
   66600    631.89542   -2976.3526     45.74018   -2930.6124 
   66800    579.89271   -2976.8361    41.975929   -2934.8602 
   67000    610.85396   -2978.6751     44.21708    -2934.458 
   67200    593.59652   -2979.7524    42.967889   -2936.7845 
   67400    595.17012   -2980.6564    43.081794   -2937.5746 
   67600    608.86922   -2980.7916    44.073413   -2936.7182 
   67800    579.32745   -2980.0987    41.935012   -2938.1637 
   68000    626.95049   -2979.4735    45.382238   -2934.0912 
   68200    572.68842    -2978.871    41.454442   -2937.4166 
   68400    629.38625   -2979.2095    45.558552   -2933.6509 
   68600    572.11213   -2979.0287    41.412726   -2937.6159 
   68800    631.24737   -2980.5167    45.693271   -2934.8234 
   69000    564.97129   -2980.4202    40.895832   -2939.5243 
   69200    638.18867   -2980.9241    46.195721   -2934.7284 
   69400     564.6917   -2980.9709    40.875593   -2940.0953 
   69600    632.14576   -2981.4499    45.758301   -2935.6916 
   69800    566.92612   -2980.4073    41.037333   -2939.3699 
   70000    628.02212   -2979.2278    45.459809    -2933.768 
   70200    580.80115   -2978.1706    42.041687   -2936.1289 
   70400    612.51653   -2978.0165    44.337426   -2933.6791 
   70600    592.17998    -2977.777    42.865351   -2934.9117 
   70800    601.78393   -2978.1537     43.56054   -2934.5932 
   71000     606.4168   -2979.5987    43.895893   -2935.7028 
   71200    581.04647   -2980.7458    42.059445   -2938.6864 
   71400    625.86745   -2982.2901    45.303841   -2936.9862 
   71600    567.66939   -2983.2857    41.091135   -2942.1946 
   71800    631.50915   -2984.3506     45.71222   -2938.6384 
   72000    565.75764   -2983.7648    40.952752   -2942.8121 
   72200    635.95326    -2983.744     46.03391   -2937.7101 
   72400    563.83847   -2982.5889    40.813832   -2941.7751 
   72600    640.05995   -2983.0008    46.331175   -2936.6697 
   72800    563.15616   -2982.7299    40.764442   -2941.9655 
   73000    633.80404   -2983.3504    45.878337    -2937.472 
   73200    572.41096   -2983.0363    41.434357    -2941.602 
   73400    625.55021   -2984.2162    45.280878   -2938.9353 
   73600    570.84903   -2983.5641    41.321296   -2942.2428 
   73800    622.06951   -2981.3618    45.028925   -2936.3329 
   74000    591.69304   -2980.1301    42.830104      -2937.3 
   74200    609.24035   -2981.8615    44.100278   -2937.7612 
   74400    592.46501   -2983.9264    42.885983   -2941.0404 
   74600    590.21819   -2983.8789    42.723346   -2941.1555 
   74800    616.06551   -2982.9577    44.594322   -2938.3634 
   75000    579.95656   -2982.3685     41.98055    -2940.388 
   75200    628.02944   -2982.9402    45.460339   -2937.4799 
   75400    564.78509   -2982.6684    40.882353   -2941.7861 
   75600    640.84229   -2983.3253    46.387806   -2936.9374 
   75800    561.49361   -2983.6928    40.644097   -2943.0487 
   76000    634.83803   -2984.3568    45.953183   -2938.4036 
   76200    569.48751   -2983.9438    41.222741    -2942.721 
   76400    630.04444   -2984.8158    45.606196   -2939.2096 
   76600    573.40499   -2984.3508    41.506311   -2942.8445 
   76800     623.5839    -2985.383    45.138545   -2940.2445 
   77000     573.4832   -2984.1231    41.511972   -2942.6112 
   77200    628.29572   -2983.3297    45.479613   -2937.8501 
   77400      576.707   -2983.2281    41.745329   -2941.4828 
   77600    615.82941   -2982.7136    44.577231   -2938.1363 
   77800    590.54455   -2982.1567    42.746969   -2939.4097 
   78000    607.14404   -2983.1296    43.948535   -2939.1811 
   78200    599.56203   -2985.1482    43.399706   -2941.7485 
   78400    585.20628   -2986.2544    42.360556   -2943.8938 
   78600     620.9027   -2987.1147    44.944465   -2942.1702 
   78800    562.64961   -2986.5283    40.727776   -2945.8006 
   79000    645.20569   -2985.0839    46.703653   -2938.3802 
   79200    565.68904   -2985.3938    40.947786    -2944.446 
   79400    632.38859   -2987.2289    45.775879   -2941.4531 
   79600    559.66444    -2986.408    40.511692   -2945.8963 
   79800    638.85018   -2984.5855    46.243606   -2938.3419 
   80000    569.11022   -2982.3461    41.195431   -2941.1506 
   80200    635.38764   -2982.4909    45.992967    -2936.498 
   80400    574.26367   -2984.5939    41.568467   -2943.0254 
   80600    609.36286   -2986.3872    44.109146    -2942.278 
   80800    599.76483   -2987.0218    43.414386   -2943.6074 
   81000    584.91395   -2988.0155    42.339394   -2945.6761 
   81200    614.82225   -2987.1262    44.504328   -2942.6218 
   81400    581.42864   -2985.2617    42.087108   -2943.1746 
   81600    632.68286   -2985.9749     45.79718   -2940.1777 
   81800    560.67328   -2986.9929    40.584718   -2946.4082 
   82000    641.24059   -2988.1629    46.416637   -2941.7462 
   82200    555.24723   -2987.1182    40.191949   -2946.9263 
   82400    649.71724   -2987.2051    47.030225   -2940.1748 
   82600    551.84977   -2986.1823    39.946021   -2946.2363 
   82800    656.12892   -2987.1088    47.494339   -2939.6144 
   83000    544.83934    -2986.876    39.438567   -2947.4374 
   83200    650.33779   -2987.0129    47.075144   -2939.9378 
   83400    559.21784   -2986.0004    40.479364    -2945.521 
   83600    626.28658   -2985.7483     45.33418   -2940.4141 
   83800    580.65552   -2983.3737    42.031145   -2941.3426 
   84000    619.68745   -2983.7339    44.856498   -2938.8774 
   84200     590.2186   -2986.2373    42.723376   -2943.5139 
   84400    584.57277   -2987.4338    42.314698   -2945.1191 
   84600    623.63561   -2987.4358    45.142288   -2942.2935 
   84800    563.29662   -2986.6505     40.77461   -2945.8759 
   85000    646.13383   -2986.8341    46.770837   -2940.0632 
   85200    551.37674   -2986.5845    39.911781   -2946.6728 
   85400     656.2691   -2988.0749    47.504486   -2940.5704 
   85600    540.51246   -2987.8135    39.125362   -2948.6881 
   85800    666.94965   -2989.0763    48.277605   -2940.7987 
   86000    533.47417   -2988.5234    38.615891   -2949.9075 
   86200    662.21634   -2987.8743    47.934981   -2939.9393 
   86400    549.29739   -2985.3444    39.761266   -2945.5831 
   86600    646.19786   -2985.4194    46.775472   -2938.6439 
   86800    563.62536   -2984.6838    40.798405   -2943.8854 
   87000    625.47452   -2985.4665    45.275399   -2940.1911 
   87200    582.83111   -2985.4728    42.188627   -2943.2842 
   87400    604.32657   -2986.1643     43.74459   -2942.4197 
   87600    601.54794   -2986.8566    43.543458   -2943.3132 
   87800    585.45147   -2987.4035    42.378304   -2945.0252 
   88000    619.50746   -2987.4408     44.84347   -2942.5974 
   88200    570.18023   -2986.9233    41.272884   -2945.6504 
   88400    635.86457    -2986.455     46.02749   -2940.4275 
   88600    564.04703   -2986.4215    40.828928   -2945.5926 
   88800    635.16412   -2987.2132    45.976788   -2941.2364 
   89000    568.13306   -2986.3927    41.124698    -2945.268 
   89200    634.54071   -2987.8517    45.931662     -2941.92 
   89400    567.63483   -2988.6543    41.088633   -2947.5657 
   89600    629.46843   -2989.7741    45.564501   -2944.2096 
   89800    566.12171   -2988.8914    40.979106   -2947.9123 
   90000    634.21066    -2987.839    45.907771   -2941.9313 
   90200    571.82292   -2986.3887    41.391791   -2944.9969 
   90400    625.53196   -2986.0464    45.279557   -2940.7668 
   90600    581.17575   -2986.6802    42.068803   -2944.6114 
   90800    604.89654   -2986.3967    43.785848   -2942.6108 
   91000    605.86906    -2986.258    43.856245   -2942.4018 
   91200    587.99451   -2987.2537    42.562383   -2944.6913 
   91400    615.38325   -2989.0404    44.544936   -2944.4955 
   91600    571.01545   -2989.4755    41.333342   -2948.1422 
   91800    634.93373   -2989.3213    45.960111   -2943.3611 
   92000    559.55559    -2988.302    40.503813   -2947.7982 
   92200     651.0137   -2988.6748     47.12407   -2941.5507 
   92400    548.87886   -2988.6754     39.73097   -2948.9444 
   92600    651.23414   -2989.0541    47.140027   -2941.9141 
   92800    557.42434   -2989.3294     40.34954   -2948.9799 
   93000    626.44119   -2988.0986    45.345373   -2942.7532 
   93200    593.45021   -2988.2238    42.957297   -2945.2665 
   93400    587.68244   -2989.4581    42.539794   -2946.9183 
   93600    615.26358   -2989.7586    44.536273   -2945.2223 
   93800    570.10186   -2988.3719    41.267212   -2947.1046 
   94000    644.87627   -2988.2434    46.679808   -2941.5636 
   94200    551.18989   -2988.8039    39.898256   -2948.9057 
   94400    650.14994   -2989.7585    47.061546    -2942.697 
   94600    547.60324   -2988.7963    39.638634   -2949.1576 
   94800    656.68501   -2988.3858    47.534592   -2940.8512 
   95000     549.2545   -2987.2075    39.758161   -2947.4493 
   95200    648.69222   -2987.6115    46.956028   -2940.6555 
   95400    560.75212   -2987.1117    40.590424   -2946.5212 
   95600    636.09211   -2988.0649    46.043961   -2942.0209 
   95800    571.79269   -2989.4083    41.389604   -2948.0187 
   96000    608.88415   -2989.9289    44.074494   -2945.8544 
   96200    593.95834   -2988.6166    42.994079   -2945.6225 
   96400    594.68951   -2987.0642    43.047005   -2944.0172 
   96600    612.49541   -2986.3398    44.335897   -2942.0039 
   96800    580.15902   -2986.1079    41.995206   -2944.1127 
   97000    626.95139   -2987.4147    45.382304   -2942.0324 
   97200     556.3872   -2986.9717    40.274467   -2946.6973 
   97400    648.39679   -2986.3445    46.934644   -2939.4099 
   97600    555.66097   -2985.3815    40.221898   -2945.1596 
   97800    651.72674   -2987.2806    47.175684   -2940.1049 
   98000    551.52823   -2988.6286    39.922746   -2948.7059 
   98200    641.73558   -2989.8919    46.452467   -2943.4394 
   98400     563.4871   -2989.0703    40.788398   -2948.2819 
   98600    633.29605   -2989.3304    45.841566   -2943.4888 
   98800    572.03698    -2988.608    41.407287   -2947.2007 
   99000    621.55209   -2988.5143    44.991471   -2943.5228 
   99200    580.85787   -2986.7874    42.045792   -2944.7416 
   99400    623.14014   -2986.9916    45.106424   -2941.8852 
   99600    579.63009   -2987.2955    41.956919   -2945.3386 
   99800    615.28335   -2987.6235    44.537705   -2943.0858 
  100000    592.45013   -2988.4077    42.884906   -2945.5228 
Loop time of 492.057 on 1 procs for 100000 steps with 561 atoms

Performance: 1.756 ns/day, 13.668 hours/ns, 203.229 timesteps/s
99.6% CPU use with 1 MPI tasks x 1 OpenMP threads

MPI task timing breakdown:
Section |  min time  |  avg time  |  max time  |%varavg| %total
---------------------------------------------------------------
Pair    | 489.14     | 489.14     | 489.14     |   0.0 | 99.41
Neigh   | 0.03286    | 0.03286    | 0.03286    |   0.0 |  0.01
Comm    | 0.022599   | 0.022599   | 0.022599   |   0.0 |  0.00
Output  | 0.73277    | 0.73277    | 0.73277    |   0.0 |  0.15
Modify  | 1.845      | 1.845      | 1.845      |   0.0 |  0.37
Other   |            | 0.2834     |            |       |  0.06

Nlocal:    561 ave 561 max 561 min
Histogram: 1 0 0 0 0 0 0 0 0 0
Nghost:    0 ave 0 max 0 min
Histogram: 1 0 0 0 0 0 0 0 0 0
Neighs:    11909 ave 11909 max 11909 min
Histogram: 1 0 0 0 0 0 0 0 0 0
FullNghs:  23818 ave 23818 max 23818 min
Histogram: 1 0 0 0 0 0 0 0 0 0

Total # of neighbors = 23818
Ave neighs/atom = 42.4563
Neighbor list builds = 23
Dangerous builds = 0
All done!
Total wall time: 0:08:12
