LAMMPS (22 Aug 2018)
OMP_NUM_THREADS environment is not set. Defaulting to 1 thread. (src/comm.cpp:87)
  using 1 OpenMP thread(s) per MPI task
Reading data file ...
  orthogonal box = (-0 -0 -0) to (100 100 100)
  1 by 1 by 1 MPI processor grid
  reading atoms ...
  561 atoms
WARNING: The pair_style meam command is unsupported. Please use pair_style meam/c instead (src/MEAM/pair_meam.cpp:51)
Reading potential file library.meam with DATE: 2012-06-29
Neighbor list info ...
  update every 1 steps, delay 10 steps, check yes
  max neighbors/atom: 2000, page size: 100000
  master list distance cutoff = 6
  ghost atom cutoff = 6
  binsize = 3, bins = 34 34 34
  2 neighbor lists, perpetual/occasional/extra = 2 0 0
  (1) pair meam, perpetual
      attributes: full, newton on
      pair build: full/bin/atomonly
      stencil: full/bin/3d
      bin: standard
  (2) pair meam, perpetual, half/full from (1)
      attributes: half, newton on
      pair build: halffull/newton
      stencil: none
      bin: none
Setting up Verlet run ...
  Unit style    : metal
  Current step  : 0
  Time step     : 0.0001
Per MPI rank memory allocation (min/avg/max) = 9.723 | 9.723 | 9.723 Mbytes
Step Temp PotEng KinEng TotEng 
       0          600    -1726.413    43.431409   -1682.9816 
     200     569.4174   -1723.9446    41.217667   -1682.7269 
     400    454.16241   -1710.2074    32.874855   -1677.3325 
     600     909.3869   -1723.4081     65.82659   -1657.5815 
     800    801.81106   -1741.7568     58.03964   -1683.7171 
    1000    425.25174   -1757.1859    30.782137   -1726.4038 
    1200    400.56485   -1770.6572    28.995159    -1741.662 
    1400    579.78773   -1780.6649     41.96833   -1738.6965 
    1600    727.26036   -1784.5343    52.643237   -1731.8911 
    1800    606.95152   -1784.9678    43.934599   -1741.0332 
    2000     526.1344    -1788.535    38.084597   -1750.4504 
    2200    541.39372   -1790.1376    39.189153   -1750.9485 
    2400    573.82882   -1785.2064     41.53699   -1743.6694 
    2600     622.3907   -1777.4015    45.052175   -1732.3493 
    2800    640.09719   -1769.6163    46.333871   -1723.2824 
    3000    611.60215   -1764.2414    44.271238   -1719.9702 
    3200    549.77501   -1757.8645    39.795839   -1718.0686 
    3400    584.52576   -1752.7214    42.311295   -1710.4101 
    3600    679.69885   -1749.4408    49.200465   -1700.2403 
    3800    646.52219   -1747.1122    46.798949   -1700.3133 
    4000    617.80248   -1752.3318    44.720054   -1707.6117 
    4200    617.41013   -1762.5579    44.691652   -1717.8662 
    4400    570.26779   -1770.5266    41.279223   -1729.2474 
    4600     551.2678   -1776.0753    39.903895   -1736.1714 
    4800    573.93051   -1778.4839    41.544351   -1736.9396 
    5000    617.88977   -1779.0969    44.726372   -1734.3705 
    5200    609.75562   -1777.8928    44.137576   -1733.7552 
    5400    574.87815   -1775.9555    41.612947   -1734.3425 
    5600    593.31336   -1775.0596    42.947392   -1732.1122 
    5800    609.55187   -1772.8961    44.122828   -1728.7732 
    6000    591.85363   -1769.2746    42.841728   -1726.4329 
    6200    593.42803   -1766.2641    42.955692   -1723.3084 
    6400    602.40743   -1762.8493    43.605672   -1719.2437 
    6600    616.40977   -1760.1222    44.619241    -1715.503 
    6800    614.32011    -1758.406     44.46798    -1713.938 
    7000    586.76815   -1756.2625    42.473612   -1713.7888 
    7200    621.59683   -1757.8181     44.99471   -1712.8234 
    7400    594.62334    -1756.924    43.042216   -1713.8818 
    7600    610.82457    -1759.045    44.214953   -1714.8301 
    7800    640.57535   -1764.0003    46.368483   -1717.6318 
    8000    596.22534   -1768.5267    43.158178   -1725.3686 
    8200     564.0268   -1773.0211    40.827464   -1732.1936 
    8400    580.05397   -1776.5583    41.987602   -1734.5707 
    8600    602.46113   -1777.9272    43.609559   -1734.3177 
    8800    604.28641   -1777.9442    43.741683   -1734.2025 
    9000    603.13214   -1778.3565    43.658131   -1734.6984 
    9200    591.45809   -1778.1715    42.813096   -1735.3584 
    9400    566.91593   -1775.5906    41.036596    -1734.554 
    9600    601.29029   -1773.7154    43.524807   -1730.1906 
    9800    626.76689   -1771.1199    45.368948   -1725.7509 
   10000    602.91972   -1768.3217    43.642754    -1724.679 
   10200     593.5033   -1766.9738    42.961141   -1724.0127 
   10400    619.27418   -1767.5999    44.826583   -1722.7733 
   10600    587.02414   -1765.8129    42.492142   -1723.3208 
   10800    604.13234   -1766.6064    43.730531   -1722.8759 
   11000    620.82607   -1768.0289    44.938918     -1723.09 
   11200    601.64075   -1769.3821    43.550175    -1725.832 
   11400     573.0407   -1769.8489    41.479942   -1728.3689 
   11600    600.01246    -1771.376    43.432311   -1727.9437 
   11800    610.35618    -1771.449    44.181048    -1727.268 
   12000    602.76794   -1771.4375    43.631768   -1727.8058 
   12200    599.45043   -1772.4783    43.391628   -1729.0866 
   12400    580.19035   -1772.5515    41.997474    -1730.554 
   12600    583.44355   -1771.5209    42.232959   -1729.2879 
   12800    627.63504   -1771.5661     45.43179   -1726.1343 
   13000    594.12966   -1768.5751     43.00648   -1725.5686 
   13200    604.70955   -1768.6468    43.772313   -1724.8745 
   13400     590.1031   -1767.0714    42.715015   -1724.3564 
   13600    598.34476   -1765.9391    43.311593   -1722.6275 
   13800    602.73044   -1763.8309    43.629054   -1720.2018 
   14000    628.64288   -1764.1147    45.504743     -1718.61 
   14200      622.739   -1765.9177    45.077387   -1720.8403 
   14400    574.04726   -1767.0769    41.552802    -1725.524 
   14600    578.32864   -1768.7745    41.862713   -1726.9118 
   14800    624.73385    -1771.051    45.221785   -1725.8292 
   15000    618.73045   -1772.4766    44.787225   -1727.6894 
   15200    587.91291   -1774.2759    42.556476   -1731.7194 
   15400    581.08913   -1776.4166    42.062532   -1734.3541 
   15600    583.39814   -1776.5494    42.229671   -1734.3198 
   15800    587.77132   -1774.4673    42.546227   -1731.9211 
   16000    618.02301   -1773.0294    44.736017   -1728.2934 
   16200     618.3954   -1771.4216    44.762972   -1726.6586 
   16400    589.81677   -1769.9569    42.694288   -1727.2626 
   16600    607.77847    -1771.197    43.994459   -1727.2025 
   16800     586.8968   -1769.6607    42.482925   -1727.1778 
   17000    606.67411   -1770.0324    43.914518   -1726.1179 
   17200    608.24422   -1769.6453    44.028172   -1725.6172 
   17400    589.87132   -1768.4344    42.698237   -1725.7361 
   17600    602.93602   -1768.6436    43.643935   -1724.9997 
   17800    627.45191   -1770.1856    45.418534   -1724.7671 
   18000    607.32925   -1771.9596    43.961942   -1727.9976 
   18200    556.90787   -1771.9371    40.312156   -1731.6249 
   18400    581.09412   -1772.2935    42.062894   -1730.2306 
   18600    609.48026    -1770.075    44.117643   -1725.9574 
   18800     607.1173   -1766.7167    43.946599   -1722.7701 
   19000    612.52574   -1765.5367    44.338093   -1721.1986 
   19200    619.29443    -1766.668    44.828049   -1721.8399 
   19400    582.50114   -1766.7934    42.164742   -1724.6287 
   19600    597.70796   -1768.8513    43.265498   -1725.5858 
   19800    600.80935   -1769.4928    43.489994   -1726.0028 
   20000    576.46724   -1768.0014    41.727974   -1726.2734 
   20200    619.32347   -1769.0561    44.830152   -1724.2259 
   20400    623.65047   -1769.3093    45.143364   -1724.1659 
   20600    597.96828   -1770.5756    43.284341   -1727.2912 
   20800    603.51395   -1774.2283    43.685768   -1730.5425 
   21000    555.13312   -1773.2728    40.183689   -1733.0892 
   21200     578.1689   -1772.3392     41.85115   -1730.4881 
   21400    651.94536   -1772.5495    47.191509    -1725.358 
   21600    608.52061   -1770.5184    44.048179   -1726.4702 
   21800    584.21338   -1771.3994    42.288683   -1729.1108 
   22000    596.22045   -1773.0066    43.157824   -1729.8488 
   22200    578.91123    -1771.504    41.904884   -1729.5991 
   22400    614.04675   -1771.5921    44.448192   -1727.1439 
   22600    619.32675   -1770.8661    44.830389   -1726.0357 
   22800    603.37816   -1771.2574    43.675939   -1727.5814 
   23000    586.04321   -1771.5225    42.421137   -1729.1014 
   23200    587.47958   -1771.3881     42.52511    -1728.863 
   23400     611.1163   -1771.3159     44.23607   -1727.0798 
   23600    634.15871   -1772.5691     45.90401   -1726.6651 
   23800    590.81078   -1773.5391    42.766241   -1730.7728 
   24000    555.15014   -1773.5822    40.184921   -1733.3973 
   24200    606.59917   -1774.8991    43.909094     -1730.99 
   24400    603.76492   -1772.0479    43.703935   -1728.3439 
   24600    614.63873   -1771.0129    44.491043   -1726.5219 
   24800    613.18843   -1771.1374    44.386062   -1726.7514 
   25000    582.44383    -1770.465    42.160594   -1728.3044 
   25200    597.78737    -1771.528    43.271246   -1728.2567 
   25400    594.39476   -1770.5424    43.025669   -1727.5167 
   25600    603.43208    -1769.978    43.679842   -1726.2982 
   25800    616.18286   -1770.2268    44.602816    -1725.624 
   26000    598.54362   -1770.0721    43.325988   -1726.7461 
   26200    586.74845   -1770.1731    42.472186   -1727.7009 
   26400    589.30139   -1769.5681    42.656983   -1726.9112 
   26600    597.32903   -1767.8453    43.238068   -1724.6073 
   26800    646.38093   -1769.1797    46.788724    -1722.391 
   27000    610.85229   -1769.9817    44.216959   -1725.7648 
   27200    567.08455   -1771.9141    41.048802   -1730.8653 
   27400    561.83202   -1772.4081    40.668593   -1731.7395 
   27600    619.59014   -1773.3409    44.849455   -1728.4914 
   27800    607.25862   -1770.5292    43.956829   -1726.5723 
   28000    624.25562   -1771.4595    45.187168   -1726.2723 
   28200    591.23341   -1771.5764    42.796833   -1728.7795 
   28400    573.09969   -1771.7176    41.484211   -1730.2334 
   28600    602.82677   -1772.1888    43.636027   -1728.5528 
   28800    614.87061   -1771.6198    44.507828    -1727.112 
   29000    581.76363   -1768.9958    42.111357   -1726.8844 
   29200    624.05912   -1770.3959    45.172944    -1725.223 
   29400    611.17201   -1770.6219    44.240102   -1726.3818 
   29600     557.7881   -1768.9407    40.375872   -1728.5648 
   29800    610.60062   -1770.8973    44.198742   -1726.6985 
   30000    642.91483   -1772.7014    46.537828   -1726.1636 
   30200    564.57687   -1770.7825    40.867282   -1729.9152 
   30400    571.17454   -1771.3723    41.344858   -1730.0274 
   30600    621.55955   -1771.5813    44.992012   -1726.5893 
   30800     618.5141   -1769.9998    44.771565   -1725.2283 
   31000    585.45012   -1768.6555    42.378206   -1726.2773 
   31200    598.82501   -1769.3846    43.346356   -1726.0382 
   31400    604.92684   -1769.0237    43.788041   -1725.2357 
   31600    596.90066   -1767.9005    43.207061   -1724.6935 
   31800    600.60247     -1767.37    43.475019    -1723.895 
   32000    608.95196   -1767.4231    44.079403   -1723.3437 
   32200    604.47909   -1767.4658    43.755631   -1723.7102 
   32400    614.08497    -1769.422    44.450959    -1724.971 
   32600    581.80631   -1769.6096    42.114446   -1727.4952 
   32800    586.71586   -1770.1473    42.469827   -1727.6775 
   33000    612.68714   -1770.5498    44.349776      -1726.2 
   33200    592.89392   -1768.8927    42.917031   -1725.9756 
   33400    596.83358    -1768.302    43.202205   -1725.0998 
   33600    623.33593   -1769.2143    45.120596   -1724.0937 
   33800    606.31988    -1770.105    43.888878   -1726.2161 
   34000    563.59954   -1769.5953    40.796536   -1728.7988 
   34200    601.27115   -1771.1818    43.523422   -1727.6583 
   34400    596.17078    -1769.219    43.154228   -1726.0648 
   34600    624.34178   -1769.8123    45.193405   -1724.6189 
   34800     621.2383   -1771.3614    44.968758   -1726.3926 
   35000     564.9737   -1771.4428    40.896006   -1730.5468 
   35200    573.16435   -1772.3401    41.488892   -1730.8512 
   35400    619.14658   -1772.4202    44.817347   -1727.6029 
   35600    619.11068   -1771.3834    44.814749   -1726.5687 
   35800    577.66349   -1769.6126    41.814566   -1727.7981 
   36000    606.17997     -1770.68     43.87875   -1726.8013 
   36200    616.64681   -1770.9396      44.6364   -1726.3032 
   36400     580.3645   -1769.1888     42.01008   -1727.1788 
   36600    624.10374   -1771.8187    45.176174   -1726.6425 
   36800    595.57653   -1771.5578    43.111213   -1728.4466 
   37000    568.12717   -1770.7318    41.124272   -1729.6075 
   37200    608.89684   -1771.3276    44.075412   -1727.2522 
   37400    616.66258   -1770.2038    44.637541   -1725.5662 
   37600    615.19131   -1770.6604    44.531042   -1726.1293 
   37800    594.81429   -1771.7359    43.056038   -1728.6799 
   38000    562.27594   -1771.0795    40.700727   -1730.3787 
   38200    603.12507   -1771.7218    43.657619   -1728.0642 
   38400    632.98808   -1771.7792    45.819273     -1725.96 
   38600    577.92608   -1769.2276    41.833573    -1727.394 
   38800    591.18577   -1769.6018    42.793385   -1726.8084 
   39000    640.99683   -1771.7862    46.398992   -1725.3872 
   39200    586.36646   -1770.5095    42.444536   -1728.0649 
   39400    583.06216   -1771.8226    42.205352   -1729.6173 
   39600    602.11826   -1772.7946     43.58474   -1729.2098 
   39800     586.6426   -1771.0468    42.464524   -1728.5823 
   40000    606.71598   -1770.2798    43.917549   -1726.3623 
   40200    629.10531   -1770.5943    45.538217   -1725.0561 
   40400    597.99681   -1770.2212    43.286407   -1726.9348 
   40600    574.51637   -1770.4595    41.586759   -1728.8727 
   40800    600.42468   -1771.7109    43.462149   -1728.2487 
   41000    616.40795   -1771.9685     44.61911   -1727.3494 
   41200    593.06563   -1771.1021    42.929459   -1728.1726 
   41400     598.6816   -1771.6212    43.335975   -1728.2852 
   41600      571.274   -1768.9134    41.352057   -1727.5614 
   41800    611.15548   -1768.1625    44.238906   -1723.9236 
   42000    651.22523    -1768.975    47.139382   -1721.8356 
   42200    610.75662   -1770.4909    44.210034   -1726.2808 
   42400    562.64908   -1772.2081    40.727737   -1731.4804 
   42600    578.99634   -1774.0658    41.911045   -1732.1547 
   42800    598.82095   -1773.3448    43.346063   -1729.9988 
   43000     598.4975   -1770.5969    43.322649   -1727.2742 
   43200    621.67936   -1769.6311    45.000684   -1724.6305 
   43400    625.75028   -1770.0818     45.29536   -1724.7864 
   43600    598.80801   -1771.7943    43.345126   -1728.4492 
   43800    571.02248   -1773.0021    41.333852   -1731.6682 
   44000    563.80165   -1771.5765    40.811167   -1730.7653 
   44200     615.7538   -1770.0814    44.571758   -1725.5096 
   44400    646.76452   -1768.4937     46.81649   -1721.6772 
   44600    623.58465   -1769.9874      45.1386   -1724.8488 
   44800     536.6917   -1768.5556    38.848794   -1729.7068 
   45000    615.98703   -1772.8044    44.588641   -1728.2158 
   45200    625.52155   -1773.5092    45.278803   -1728.2304 
   45400    560.14939   -1771.4307    40.546795   -1730.8839 
   45600    590.48907   -1771.7977    42.742954   -1729.0547 
   45800    638.92971   -1772.3998    46.249362   -1726.1505 
   46000    605.95193   -1772.2198    43.862243   -1728.3576 
   46200    558.33936   -1771.4861    40.415775   -1731.0703 
   46400     602.0156   -1772.8467    43.577309   -1729.2694 
   46600     616.9395   -1771.9768    44.657586   -1727.3192 
   46800    605.68417   -1771.5264    43.842861   -1727.6835 
   47000    603.15762   -1772.7707    43.659975   -1729.1107 
   47200    574.52121   -1772.1745    41.587109   -1730.5874 
   47400    589.48159   -1771.7364    42.670026   -1729.0664 
   47600    627.66431   -1771.9574    45.433909   -1726.5235 
   47800    591.82866    -1769.978    42.839921   -1727.1381 
   48000    606.95453   -1771.1269    43.934817   -1727.1921 
   48200    621.36683   -1773.1266    44.978061   -1728.1486 
   48400    562.20901   -1771.5547    40.695882   -1730.8588 
   48600    613.01031   -1773.8553    44.373169   -1729.4821 
   48800    627.22493   -1774.6632    45.402104   -1729.2611 
   49000    559.26514   -1772.4846    40.482788   -1732.0019 
   49200    588.05137   -1772.8961    42.566499   -1730.3296 
   49400    632.64361    -1772.769    45.794339   -1726.9747 
   49600    610.07398   -1772.0729     44.16062   -1727.9123 
   49800    568.06583   -1771.0724    41.119832   -1729.9526 
   50000    603.17063   -1772.0146    43.660917   -1728.3536 
   50200     601.1785   -1769.8707    43.516715    -1726.354 
   50400    607.75989   -1768.9821    43.993114    -1724.989 
   50600    614.57352   -1769.2551    44.486323   -1724.7688 
   50800    600.44801   -1769.5701    43.463838   -1726.1062 
   51000    579.03927   -1768.9527    41.914152   -1727.0386 
   51200    612.41471   -1769.9844    44.330056   -1725.6544 
   51400    621.20882   -1770.4714    44.966623   -1725.5048 
   51600     591.8433   -1770.8574     42.84098   -1728.0164 
   51800    592.87671   -1772.4295    42.915784   -1729.5137 
   52000    594.29027   -1773.0589    43.018106   -1730.0408 
   52200    590.59656   -1772.5035    42.750735   -1729.7528 
   52400    606.19054   -1772.1533    43.879515   -1728.2738 
   52600    601.85252   -1771.0592    43.565505   -1727.4937 
   52800     592.6581   -1769.8118     42.89996   -1726.9119 
   53000    633.78263   -1771.9391    45.876787   -1726.0623 
   53200    574.37291   -1770.1232    41.576374   -1728.5468 
   53400    573.35107   -1769.7525    41.502408   -1728.2501 
   53600    652.47681   -1772.3161    47.229978   -1725.0862 
   53800      612.724   -1772.4641    44.352444   -1728.1117 
   54000     544.8096   -1771.5365    39.436414   -1732.1001 
   54200    603.45153   -1773.8161     43.68125   -1730.1349 
   54400    622.69825   -1772.7949    45.074437   -1727.7204 
   54600    610.34369   -1772.4421    44.180144    -1728.262 
   54800    595.43386   -1773.5275    43.100886   -1730.4266 
   55000     566.4912   -1772.4926    41.005851   -1731.4867 
   55200    607.59766   -1772.8662    43.981371   -1728.8848 
   55400    610.87094   -1770.7883    44.218309     -1726.57 
   55600    594.30076   -1768.2389    43.018865     -1725.22 
   55800    618.82007   -1768.7761    44.793712   -1723.9824 
   56000    603.67893   -1768.7379     43.69771   -1725.0402 
   56200    588.39134   -1769.1802    42.591108   -1726.5891 
   56400     595.5756   -1770.1255    43.111145   -1727.0144 
   56600    602.86754   -1770.2964    43.638977   -1726.6574 
   56800    605.90548   -1770.4709    43.858881    -1726.612 
   57000    590.12424   -1769.7455    42.716545   -1727.0289 
   57200    610.40791   -1770.9959    44.184792   -1726.8111 
   57400    574.99164   -1768.7503    41.621162   -1727.1291 
   57600    614.89543   -1769.9099    44.509625   -1725.4003 
   57800    624.39005   -1770.3632    45.196899   -1725.1663 
   58000    576.34348   -1769.0929    41.719016   -1727.3739 
   58200     593.1183    -1770.362    42.933272   -1727.4288 
   58400    595.79165   -1769.4465    43.126784   -1726.3197 
   58600    588.25741   -1767.0227    42.581413   -1724.4412 
   58800     646.0194   -1768.3222    46.762554   -1721.5596 
   59000    619.93792   -1768.8974    44.874629   -1724.0228 
   59200    559.53515   -1769.3021    40.502333   -1728.7998 
   59400    582.38717   -1771.1547    42.156492   -1728.9982 
   59600     616.6582   -1771.6402    44.637224    -1727.003 
   59800    605.01687   -1770.4689    43.794558   -1726.6744 
   60000    595.73768   -1769.9818    43.122878   -1726.8589 
   60200    609.03129   -1771.1646    44.085145   -1727.0794 
   60400    576.15357   -1769.4153    41.705269     -1727.71 
   60600    614.64106   -1770.6371    44.491212   -1726.1459 
   60800    611.61671   -1770.0508    44.272292   -1725.7785 
   61000     596.0014    -1770.197    43.141967    -1727.055 
   61200    592.20384   -1770.8656    42.867079   -1727.9986 
   61400    601.60197   -1771.5249    43.547368   -1727.9775 
   61600    594.89177   -1770.7525    43.061646   -1727.6909 
   61800    597.81742    -1769.963    43.273421   -1726.6895 
   62000    614.03082   -1769.9985    44.447039   -1725.5515 
   62200    588.17594      -1768.4    42.575516   -1725.8245 
   62400    597.61431   -1768.3178    43.258719    -1725.059 
   62600    608.72999   -1767.8223    44.063335   -1723.7589 
   62800    605.54639   -1767.3692    43.832888   -1723.5363 
   63000    599.70084   -1767.3794    43.409754   -1723.9696 
   63200    616.76628   -1769.3936    44.645047   -1724.7486 
   63400    599.31424   -1771.0999     43.38177   -1727.7181 
   63600    560.16186   -1770.6683    40.547698   -1730.1206 
   63800    584.80517   -1770.2469    42.331521   -1727.9154 
   64000    612.28493   -1767.8076    44.320662    -1723.487 
   64200    637.71891   -1766.4126    46.161718   -1720.2509 
   64400    631.06758   -1767.8742    45.680257   -1722.1939 
   64600    568.28451   -1768.7365    41.135662   -1727.6008 
   64800     593.0671   -1772.4278    42.929566   -1729.4983 
   65000    593.17336   -1772.8887    42.937258   -1729.9514 
   65200    575.86636    -1771.058    41.684479   -1729.3735 
   65400    608.99961   -1770.1106    44.082852   -1726.0278 
   65600    643.97947   -1770.8501    46.614893   -1724.2352 
   65800    572.45812   -1768.7916    41.437771   -1727.3539 
   66000    590.81016   -1770.7745    42.766196   -1728.0083 
   66200    620.95208   -1772.3492     44.94804   -1727.4012 
   66400    588.88881   -1771.4804    42.627118   -1728.8533 
   66600    593.63965   -1772.2892    42.971011   -1729.3182 
   66800    596.84833   -1771.9592    43.203273   -1728.7559 
   67000    580.78922   -1769.5604    42.040824   -1727.5196 
   67200    613.92802   -1768.6013    44.439598   -1724.1617 
   67400    624.97573   -1767.1747    45.239294   -1721.9354 
   67600    606.05558   -1766.9794    43.869746   -1723.1097 
   67800    597.57365   -1768.6939    43.255776   -1725.4381 
   68000    602.15456   -1771.1021    43.587368   -1727.5147 
   68200    588.25536   -1772.2319    42.581265   -1729.6506 
   68400    594.59786   -1773.3963    43.040371    -1730.356 
   68600    609.72676   -1774.5661    44.135487   -1730.4306 
   68800    582.22146    -1773.537    42.144497   -1731.3925 
   69000    595.66178   -1773.4425    43.117384   -1730.3251 
   69200    602.57029   -1771.8517    43.617461   -1728.2342 
   69400    588.30217   -1768.7098    42.584653   -1726.1251 
   69600    623.92362   -1768.3223    45.163136   -1723.1592 
   69800    628.30166    -1768.921    45.480044    -1723.441 
   70000    590.81009   -1769.9113    42.766191   -1727.1451 
   70200    586.12905    -1772.351     42.42735   -1729.9236 
   70400    600.49985   -1774.6785    43.467591   -1731.2109 
   70600    581.46513    -1774.178    42.089749   -1732.0883 
   70800    582.53946   -1772.8103    42.167515   -1730.6428 
   71000     605.8557   -1770.5736    43.855278   -1726.7183 
   71200    634.72539   -1769.4846     45.94503   -1723.5396 
   71400    609.50112   -1768.8809    44.119154   -1724.7618 
   71600     591.2529   -1770.5178    42.798244   -1727.7195 
   71800    565.56091   -1770.2878    40.938512   -1729.3493 
   72000    602.77861   -1770.9081     43.63254   -1727.2755 
   72200    625.90911    -1770.239    45.306857   -1724.9322 
   72400    611.05603   -1770.1582    44.231707   -1725.9265 
   72600    582.71542   -1770.4231    42.180252   -1728.2428 
   72800    592.87711   -1771.4794    42.915813   -1728.5635 
   73000    608.60385   -1771.9668    44.054205   -1727.9126 
   73200    585.31688   -1770.1257    42.368561   -1727.7572 
   73400    627.92439   -1772.2234    45.452735   -1726.7707 
   73600    601.56041   -1772.4288     43.54436   -1728.8844 
   73800    558.05787   -1771.4454    40.395399     -1731.05 
   74000    602.26531   -1772.1581    43.595385   -1728.5627 
   74200     627.9219    -1771.241    45.452554   -1725.7885 
   74400    598.89882   -1769.5623    43.351699   -1726.2106 
   74600    618.42805   -1772.0069    44.765335   -1727.2416 
   74800    589.49909    -1772.479    42.671294   -1729.8077 
   75000    568.38679   -1771.9972    41.143065   -1730.8542 
   75200    597.58279   -1771.3078    43.256438   -1728.0514 
   75400    621.77918   -1769.8386    45.007909   -1724.8307 
   75600    604.29047   -1767.9104    43.741978   -1724.1684 
   75800    612.03397   -1768.6892    44.302496   -1724.3867 
   76000    615.20603   -1770.9937    44.532108   -1726.4616 
   76200    554.52248   -1769.7205    40.139487   -1729.5811 
   76400    595.40356   -1771.1789    43.098693   -1728.0802 
   76600    608.05436   -1769.0247    44.014429   -1725.0103 
   76800     605.8322   -1766.6937    43.853577   -1722.8401 
   77000    663.01177   -1770.9582    47.992559   -1722.9656 
   77200    576.62556    -1771.784    41.739434   -1730.0446 
   77400    538.92172   -1772.8132    39.010216    -1733.803 
   77600     615.6032   -1775.3738    44.560857   -1730.8129 
   77800    610.63599   -1772.8567    44.201302   -1728.6554 
   78000    579.51048   -1769.8768    41.948261   -1727.9286 
   78200    624.01044   -1770.7963    45.169421   -1725.6268 
   78400     621.4732   -1771.2249    44.985761   -1726.2391 
   78600    569.56906   -1770.1812    41.228644   -1728.9525 
   78800    607.81835   -1772.7084    43.997345    -1728.711 
   79000    598.91536   -1772.3462    43.352896   -1728.9933 
   79200     559.3745    -1768.968    40.490704   -1728.4773 
   79400    640.86432   -1770.4911      46.3894   -1724.1017 
   79600     626.7631   -1769.5746    45.368674    -1724.206 
   79800    570.61815   -1768.5308    41.304584   -1727.2262 
   80000    597.97298   -1770.6265    43.284682   -1727.3419 
   80200    604.60343   -1770.7151    43.764631   -1726.9505 
   80400    601.83086   -1770.9549    43.563937   -1727.3909 
   80600    604.31435   -1772.0156    43.743706   -1728.2719 
   80800     586.4552   -1771.6386    42.450959   -1729.1876 
   81000    604.15207   -1772.4258    43.731959   -1728.6938 
   81200    598.07342   -1771.6144    43.291952   -1728.3224 
   81400    576.95662   -1769.2168    41.763398   -1727.4534 
   81600    599.48907    -1767.282    43.394424   -1723.8875 
   81800    659.70899   -1768.3333    47.753484   -1720.5799 
   82000    610.27801    -1768.638    44.175389   -1724.4626 
   82200    578.79845   -1772.0489     41.89672   -1730.1522 
   82400    558.17615   -1773.0659    40.403961    -1732.662 
   82600    575.25843   -1771.6216    41.640473   -1729.9811 
   82800    638.92474   -1770.4493    46.249002   -1724.2003 
   83000    633.98935   -1768.9973    45.891751   -1723.1056 
   83200    586.04765   -1768.7723    42.421458   -1726.3508 
   83400    573.74126   -1769.6192    41.530652   -1728.0886 
   83600    622.45992   -1772.2263    45.057185   -1727.1691 
   83800    591.33438   -1770.6367    42.804142   -1727.8326 
   84000    603.11791   -1771.9632    43.657101   -1728.3061 
   84200    596.03216   -1771.7721    43.144194   -1728.6279 
   84400    594.36169   -1771.7409    43.023276   -1728.7177 
   84600    592.87884    -1771.144    42.915939    -1728.228 
   84800    616.05385   -1771.8046    44.593478   -1727.2111 
   85000    585.73421   -1770.1911     42.39877   -1727.7923 
   85200    585.88583   -1769.3695    42.409745   -1726.9597 
   85400    637.65674   -1770.9678    46.157218   -1724.8106 
   85600    607.14146   -1771.0431    43.948348   -1727.0948 
   85800     561.6336   -1770.8674    40.654231   -1730.2131 
   86000    604.00275   -1773.1041    43.721151   -1729.3829 
   86200    598.26543   -1771.4635     43.30585   -1728.1577 
   86400    610.13918   -1771.4012     44.16534   -1727.2359 
   86600    617.43913   -1772.7387    44.693752    -1728.045 
   86800    572.11322   -1772.0108    41.412805    -1730.598 
   87000    595.49247   -1773.2022    43.105128   -1730.0971 
   87200     588.5822   -1770.6693    42.604923   -1728.0644 
   87400    633.44138   -1771.3759    45.852086   -1725.5238 
   87600    625.34516   -1772.8116    45.266035   -1727.5455 
   87800    531.33126   -1770.0736    38.460775   -1731.6128 
   88000    602.33083   -1772.2708    43.600128   -1728.6707 
   88200    657.01377   -1773.0639    47.558389   -1725.5055 
   88400    595.22332    -1772.208    43.085646   -1729.1224 
   88600    547.69014   -1771.5453    39.644924   -1731.9004 
   88800    600.06204   -1772.4857      43.4359   -1729.0498 
   89000    634.27891   -1771.7642    45.912711   -1725.8515 
   89200    598.62963   -1770.1881    43.332214   -1726.8559 
   89400    582.16997   -1770.3088     42.14077   -1728.1681 
   89600    591.58204   -1769.7988    42.822069   -1726.9768 
   89800    626.87077   -1770.3787    45.376468   -1725.0022 
   90000    591.13527   -1768.5982    42.789729   -1725.8085 
   90200    602.10611   -1769.9077    43.583861   -1726.3239 
   90400    614.99255    -1771.859    44.516655   -1727.3424 
   90600    579.20328   -1771.7881    41.926024   -1729.8621 
   90800    585.41053    -1772.379     42.37534   -1730.0036 
   91000    602.93465   -1771.5649    43.643835    -1727.921 
   91200    612.90081   -1770.7734    44.365243   -1726.4082 
   91400    607.77179   -1770.6689    43.993975   -1726.6749 
   91600    578.83048   -1769.2833    41.899039   -1727.3842 
   91800     618.8092   -1770.9017    44.792926   -1726.1088 
   92000    613.67082   -1771.5105    44.420981   -1727.0896 
   92200    583.07239   -1771.9893    42.206092   -1729.7833 
   92400    594.04746   -1773.2608     43.00053   -1730.2602 
   92600    608.56742   -1773.7379    44.051567   -1729.6864 
   92800    586.29665   -1771.9569    42.439482   -1729.5174 
   93000    609.53073   -1772.2987    44.121297   -1728.1774 
   93200    605.43141   -1772.0024    43.824565   -1728.1778 
   93400    586.84678   -1771.2653    42.479304    -1728.786 
   93600    594.35411   -1770.3461    43.022727   -1727.3234 
   93800    623.91277   -1770.5393    45.162351    -1725.377 
   94000    589.21822   -1768.4266    42.650962   -1725.7757 
   94200    611.38007   -1769.8902    44.255163    -1725.635 
   94400    620.42355   -1772.0246    44.909781   -1727.1148 
   94600    564.84488   -1771.0208    40.886681   -1730.1341 
   94800     593.8336   -1772.5238    42.985049   -1729.5388 
   95000    608.63801   -1771.9259    44.056677   -1727.8692 
   95200    611.28781   -1771.3487    44.248485   -1727.1003 
   95400    611.67518   -1772.1532    44.276525   -1727.8766 
   95600    568.24315    -1770.848    41.132668   -1729.7153 
   95800    590.52415   -1770.8579    42.745493   -1728.1124 
   96000    641.62062   -1772.1183    46.444145   -1725.6741 
   96200    578.51858   -1769.1901    41.876462   -1727.3136 
   96400    575.51705   -1768.1632    41.659194    -1726.504 
   96600    655.78378    -1770.838    47.469355   -1723.3687 
   96800    621.06952   -1771.8932     44.95654   -1726.9367 
   97000    531.67086   -1770.7106    38.485357   -1732.2252 
   97200    595.42712   -1773.4588    43.100398   -1730.3584 
   97400    628.95115   -1772.7447    45.527058   -1727.2176 
   97600    582.91837   -1769.3249    42.194943     -1727.13 
   97800    622.79547   -1770.9778    45.081475   -1725.8963 
   98000    614.64968   -1771.6371    44.491836   -1727.1453 
   98200    581.11085   -1772.4119    42.064105   -1730.3477 
   98400    570.87536   -1772.2483    41.323202   -1730.9251 
   98600    624.28299   -1773.5278     45.18915   -1728.3386 
   98800    595.87016    -1770.838    43.132467   -1727.7055 
   99000    606.61797    -1771.325    43.910455   -1727.4146 
   99200    587.62643   -1769.7743     42.53574   -1727.2385 
   99400    608.64762   -1770.0501    44.057372   -1725.9927 
   99600    614.84979   -1770.4468    44.506321   -1725.9405 
   99800    581.42736   -1769.5931    42.087016   -1727.5061 
  100000    581.00357   -1768.7753    42.056339   -1726.7189 
Loop time of 622.159 on 1 procs for 100000 steps with 561 atoms

Performance: 1.389 ns/day, 17.282 hours/ns, 160.731 timesteps/s
99.5% CPU use with 1 MPI tasks x 1 OpenMP threads

MPI task timing breakdown:
Section |  min time  |  avg time  |  max time  |%varavg| %total
---------------------------------------------------------------
Pair    | 618.32     | 618.32     | 618.32     |   0.0 | 99.38
Neigh   | 0.075393   | 0.075393   | 0.075393   |   0.0 |  0.01
Comm    | 0.056365   | 0.056365   | 0.056365   |   0.0 |  0.01
Output  | 0.76085    | 0.76085    | 0.76085    |   0.0 |  0.12
Modify  | 2.3561     | 2.3561     | 2.3561     |   0.0 |  0.38
Other   |            | 0.5883     |            |       |  0.09

Nlocal:    561 ave 561 max 561 min
Histogram: 1 0 0 0 0 0 0 0 0 0
Nghost:    0 ave 0 max 0 min
Histogram: 1 0 0 0 0 0 0 0 0 0
Neighs:    15020 ave 15020 max 15020 min
Histogram: 1 0 0 0 0 0 0 0 0 0
FullNghs:  30040 ave 30040 max 30040 min
Histogram: 1 0 0 0 0 0 0 0 0 0

Total # of neighbors = 30040
Ave neighs/atom = 53.5472
Neighbor list builds = 50
Dangerous builds = 0
All done!
Total wall time: 0:10:22
