[1777823123.437582] [cn13:720425:0]          parser.c:1906 UCX  WARN  unused env variable: UCX_ROOT (set UCX_WARN_UNUSED_ENV_VARS=n to suppress this warning)
LAMMPS (23 Jun 2022)
OMP_NUM_THREADS environment is not set. Defaulting to 1 thread. (src/src/comm.cpp:98)
  using 1 OpenMP thread(s) per MPI task
Reading data file ...
  orthogonal box = (-0 -0 -0) to (200 200 200)
  2 by 2 by 2 MPI processor grid
  reading atoms ...
  923 atoms
  read_data CPU = 0.005 seconds
Reading eam/alloy potential file CuAgAu_Zhou04.eam.alloy with DATE: 2018-03-30
Neighbor list info ...
  update every 1 steps, delay 10 steps, check yes
  max neighbors/atom: 2000, page size: 100000
  master list distance cutoff = 8.4662927
  ghost atom cutoff = 8.4662927
  binsize = 4.2331463, bins = 48 48 48
  1 neighbor lists, perpetual/occasional/extra = 1 0 0
  (1) pair eam/alloy, perpetual
      attributes: half, newton on
      pair build: half/bin/atomonly/newton
      stencil: half/bin/3d
      bin: standard
Setting up Verlet run ...
  Unit style    : metal
  Current step  : 0
  Time step     : 0.002
Per MPI rank memory allocation (min/avg/max) = 4.708 | 4.708 | 4.709 Mbytes
   Step          Temp          E_pair         E_mol          TotEng         Press     
         0   600           -2375.1558      0             -2303.649      -109.19581    
       200   493.99423     -2549.4492      0             -2490.576      -2.7047869    
       400   330.18494     -2603.2827      0             -2563.932       10.019938    
       600   698.47906     -2561.1281      0             -2477.8849     -10.152873    
       800   735.26082     -2540.77        0             -2453.1432     -17.762078    
      1000   446.14805     -2596.541       0             -2543.37        16.175281    
      1200   530.7303      -2591.5054      0             -2528.2541     -5.4725931    
      1400   758.40826     -2555.0437      0             -2464.6582     -8.0314803    
      1600   551.31165     -2582.512       0             -2516.8079     -8.1412098    
      1800   525.81108     -2598.0134      0             -2535.3483      9.7018869    
      2000   670.25459     -2577.3116      0             -2497.4321     -4.8301272    
      2200   633.35817     -2576.0634      0             -2500.5811     -3.6487944    
      2400   524.76812     -2594.3967      0             -2531.856       9.3109661    
      2600   568.48206     -2585.0261      0             -2517.2756     -4.418436     
      2800   669.78008     -2581.5966      0             -2501.7737      5.9782621    
      3000   556.53508     -2595.6222      0             -2529.2955     -5.3937988    
      3200   553.94418     -2594.7802      0             -2528.7623      11.288077    
      3400   640.26105     -2583.4591      0             -2507.1542     -9.7158141    
      3600   618.12532     -2593.2415      0             -2519.5746      1.966936     
      3800   550.36546     -2600.6481      0             -2535.0567      0.35922188   
      4000   633.49012     -2591.2817      0             -2515.7837      2.1057291    
      4200   608.15        -2587.4191      0             -2514.9411     -8.8391241    
      4400   560.48685     -2596.0467      0             -2529.249       13.621335    
      4600   593.39924     -2595.2878      0             -2524.5678     -8.6669254    
      4800   640.92534     -2591.0525      0             -2514.6684      0.81545359   
      5000   577.31683     -2595.9153      0             -2527.1119     -6.8792805    
      5200   615.78879     -2600.5271      0             -2527.1387      3.6970728    
      5400   626.98327     -2596.5609      0             -2521.8384     -4.5556639    
      5600   609.04918     -2598.5275      0             -2525.9424      1.967619     
      5800   596.43095     -2599.3         0             -2528.2186      2.05257      
      6000   607.40273     -2595.5037      0             -2523.1148     -0.62154244   
      6200   599.02989     -2592.5381      0             -2521.147       8.3553203    
      6400   571.13697     -2597.9178      0             -2529.8509     -5.8320125    
      6600   577.88782     -2596.2795      0             -2527.408       13.371036    
      6800   585.93176     -2592.1175      0             -2522.2874     -11.245214    
      7000   598.30613     -2597.0769      0             -2525.7721      5.4649168    
      7200   582.28416     -2600.3894      0             -2530.9941     -7.6725048    
      7400   627.5527      -2600.8893      0             -2526.0989      5.171308     
      7600   579.00923     -2599.7905      0             -2530.7854     -10.37913     
      7800   598.48023     -2598.9312      0             -2527.6056      4.5515663    
      8000   593.30148     -2597.9802      0             -2527.2718     -5.9962198    
      8200   605.42615     -2601.1474      0             -2528.994       3.8478372    
      8400   605.28669     -2599.5764      0             -2527.4397     -2.7410272    
      8600   622.24726     -2597.1589      0             -2523.0008      3.2891228    
      8800   610.56684     -2603.411       0             -2530.645      -0.82433455   
      9000   579.78298     -2604.4442      0             -2535.3469     -4.3527278    
      9200   619.30883     -2597.3666      0             -2523.5587      3.1294226    
      9400   623.83536     -2598.1525      0             -2523.8051     -3.3337209    
      9600   577.70164     -2604.9704      0             -2536.1212      4.9070001    
      9800   602.16038     -2601.4731      0             -2529.7089     -3.2486302    
     10000   643.91235     -2596.4188      0             -2519.6787      7.2442504    
     10200   582.54428     -2602.7016      0             -2533.2752     -6.1369986    
     10400   576.0958      -2601.168       0             -2532.5101      6.5860228    
     10600   638.94821     -2598.5354      0             -2522.387      -3.1222562    
     10800   568.08465     -2600.6245      0             -2532.9214      2.9226253    
     11000   589.94342     -2605.5889      0             -2535.2808      0.73749351   
     11200   605.18063     -2601.3961      0             -2529.272      -4.0906965    
     11400   623.5061      -2600.4725      0             -2526.1644     -0.76830485   
     11600   560.064       -2601.255       0             -2534.5078     -3.3032427    
     11800   605.51762     -2604.2217      0             -2532.0574      9.2661262    
     12000   605.2371      -2600.3482      0             -2528.2173     -7.2362326    
     12200   622.79818     -2601.6533      0             -2527.4296      1.548245     
     12400   588.62604     -2605.3994      0             -2535.2482     -1.0543898    
     12600   604.003       -2602.4629      0             -2530.4791      2.2152345    
     12800   617.70504     -2599.1702      0             -2525.5534     -6.5290526    
     13000   585.81659     -2602.888       0             -2533.0716      1.6938626    
     13200   600.28283     -2605.8516      0             -2534.3112      3.7720685    
     13400   614.12147     -2601.4652      0             -2528.2755     -3.8040491    
     13600   613.45542     -2604.3774      0             -2531.2671     -6.293985     
     13800   587.59974     -2606.6165      0             -2536.5876     -2.1571671    
     14000   587.40584     -2600.6315      0             -2530.6257      3.4450478    
     14200   585.25192     -2598.114       0             -2528.3649     -1.106354     
     14400   598.38357     -2606.0141      0             -2534.7         4.2418792    
     14600   579.25517     -2605.2115      0             -2536.1771     -6.7498932    
     14800   618.04508     -2602.1517      0             -2528.4945      1.1005782    
     15000   609.38177     -2605.9839      0             -2533.3591     -4.6795078    
     15200   586.66513     -2607.8029      0             -2537.8854      1.3716858    
     15400   618.75212     -2607.1795      0             -2533.4379     -0.23993003   
     15600   606.30549     -2605.2292      0             -2532.971       6.4588872    
     15800   610.21972     -2608.6673      0             -2535.9426      4.1285663    
     16000   595.41517     -2603.8867      0             -2532.9264      1.2647051    
     16200   606.56095     -2601.3893      0             -2529.1007     -1.0740502    
     16400   596.08125     -2609.2911      0             -2538.2514     -3.1712484    
     16600   607.21092     -2613.1386      0             -2540.7725      3.0081341    
     16800   627.3729      -2606.9301      0             -2532.1612     -0.12077803   
     17000   606.63347     -2604.8658      0             -2532.5685     -1.6690754    
     17200   566.01937     -2607.3526      0             -2539.8957     -2.7747762    
     17400   609.00542     -2610.2699      0             -2537.6899      2.3113086    
     17600   589.85727     -2605.3314      0             -2535.0335      3.0340282    
     17800   578.54604     -2606.5977      0             -2537.6479      3.7569241    
     18000   608.78243     -2610.0801      0             -2537.5267     -0.87875032   
     18200   591.34806     -2605.0338      0             -2534.5582     -2.6927039    
     18400   577.94305     -2606.8512      0             -2537.9732      1.2406937    
     18600   595.54788     -2609.0539      0             -2538.0778     -7.8270014    
     18800   598.40594     -2607.991       0             -2536.6743     -0.051374995  
     19000   587.2541      -2608.1119      0             -2538.1242     -3.5335224    
     19200   606.53121     -2606.1271      0             -2533.842      -0.49464765   
     19400   630.4813      -2610.1383      0             -2534.9988     -5.0646546    
     19600   586.97806     -2610.9625      0             -2541.0078      3.531179     
     19800   594.62766     -2609.1962      0             -2538.3297     -3.7312415    
     20000   601.65249     -2604.877       0             -2533.1734      5.8160746    
     20200   603.45769     -2609.7562      0             -2537.8374     -10.735043    
     20400   590.93231     -2613.9403      0             -2543.5143      2.5764125    
     20600   605.44708     -2608.5969      0             -2536.441      -5.4255136    
     20800   606.93431     -2606.4919      0             -2534.1587     -0.80283021   
     21000   578.76975     -2610.6527      0             -2541.6762     -0.099867934  
     21200   592.13332     -2611.6392      0             -2541.07        1.0169754    
     21400   606.88237     -2607.7523      0             -2535.4253      0.29880373   
     21600   597.31239     -2609.4484      0             -2538.262      -1.8282678    
     21800   588.06363     -2614.6451      0             -2544.5609     -0.50958191   
     22000   608.92106     -2610.177       0             -2537.6071     -5.1394454    
     22200   617.90899     -2607.6616      0             -2534.0205     -4.1174337    
     22400   597.92201     -2612.0755      0             -2540.8165     -1.2510037    
     22600   582.25749     -2610.8662      0             -2541.474       0.40808254   
     22800   614.30214     -2609.5945      0             -2536.3833     -2.0786541    
     23000   598.06442     -2609.1435      0             -2537.8675      1.025655     
     23200   585.00699     -2611.6124      0             -2541.8925      0.97325684   
     23400   598.75551     -2610.2482      0             -2538.8898      2.0298759    
     23600   618.90374     -2609.1068      0             -2535.3472      1.4382375    
     23800   622.13496     -2615.1778      0             -2541.0331     -6.6455812    
     24000   558.84754     -2613.0469      0             -2546.4447      3.6620282    
     24200   610.7349      -2610.3452      0             -2537.5591      1.2862108    
     24400   595.44724     -2611.6894      0             -2540.7253     -0.62273989   
     24600   569.27415     -2616.8451      0             -2549.0003      4.631518     
     24800   565.76384     -2608.1529      0             -2540.7264     -1.7692059    
     25000   629.82152     -2610.1229      0             -2535.0621     -2.8957997    
     25200   577.56151     -2615.059       0             -2546.2264     -0.65328615   
     25400   576.95762     -2613.061       0             -2544.3004      0.76618642   
     25600   609.88757     -2606.0596      0             -2533.3745     -0.24151557   
     25800   601.10643     -2612.1677      0             -2540.5291     -0.39929949   
     26000   566.01628     -2616.6923      0             -2549.2357      3.2261139    
     26200   607.83779     -2609.9304      0             -2537.4896     -3.6237482    
     26400   624.10773     -2607.2683      0             -2532.8885      2.8216728    
     26600   585.09595     -2614.2363      0             -2544.5059     -0.30170428   
     26800   587.5432      -2613.1808      0             -2543.1587      4.3784763    
     27000   608.16255     -2606.9887      0             -2534.5092     -6.1652169    
     27200   611.02831     -2609.0877      0             -2536.2666      6.2826102    
     27400   573.31138     -2612.7729      0             -2544.4469     -7.2408869    
     27600   628.328       -2612.288       0             -2537.4052      6.2362273    
     27800   608.31697     -2612.059       0             -2539.5611     -2.2414192    
     28000   590.66701     -2613.3961      0             -2543.0017     -1.9253119    
     28200   616.39697     -2611.8193      0             -2538.3585     -2.7680396    
     28400   609.83601     -2607.1152      0             -2534.4362      0.73298398   
     28600   597.62876     -2609.858       0             -2538.6339     -0.88169903   
     28800   577.82125     -2614.2714      0             -2545.408       4.4300399    
     29000   607.85189     -2611.4372      0             -2538.9948     -5.2025776    
     29200   604.66835     -2605.8952      0             -2533.8321      8.0032043    
     29400   585.92378     -2614.7572      0             -2544.928      -2.5285274    
     29600   601.0646      -2613.9713      0             -2542.3377      3.1963115    
     29800   600.23751     -2605.978       0             -2534.443      -5.4248256    
     30000   573.10168     -2605.4129      0             -2537.1119      7.6293216    
     30200   578.75794     -2615.206       0             -2546.2309     -2.2033901    
     30400   607.57108     -2610.9639      0             -2538.5549      3.310712     
     30600   585.82802     -2606.6167      0             -2536.7989      1.2998383    
     30800   603.44633     -2613.3427      0             -2541.4253      2.2831582    
     31000   584.85004     -2614.4424      0             -2544.7412      2.4154396    
     31200   623.48933     -2610.9296      0             -2536.6235      0.41256885   
     31400   617.74429     -2610.4167      0             -2536.7953      1.7476563    
     31600   577.15449     -2614.2317      0             -2545.4477      1.4027053    
     31800   593.73728     -2615.0723      0             -2544.312       3.2264963    
     32000   609.68182     -2610.6464      0             -2537.9859      1.6267508    
     32200   608.2581      -2611.1506      0             -2538.6597      0.13521842   
     32400   588.85395     -2613.5101      0             -2543.3317     -1.7505967    
     32600   579.77729     -2610.7923      0             -2541.6957      2.4901475    
     32800   614.35565     -2612.1735      0             -2538.9559     -0.22468211   
     33000   569.75377     -2610.969       0             -2543.0669     -2.6092773    
     33200   602.02046     -2613.3067      0             -2541.5592      1.3972062    
     33400   613.95152     -2613.3765      0             -2540.207       0.86622204   
     33600   623.36412     -2612.1177      0             -2537.8265      4.3829878    
     33800   602.93696     -2615.2826      0             -2543.4258      3.1058643    
     34000   575.67932     -2613.946       0             -2545.3378      0.034378309  
     34200   613.91708     -2610.0999      0             -2536.9346     -2.4260786    
     34400   590.12319     -2611.2817      0             -2540.952       0.36857402   
     34600   586.17621     -2616.7636      0             -2546.9044     -4.2418884    
     34800   636.79842     -2616.1215      0             -2540.2293     -1.0356984    
     35000   613.9634      -2611.1331      0             -2537.9623     -4.567858     
     35200   600.44967     -2615.8263      0             -2544.266      -4.1715887    
     35400   572.6079      -2610.7702      0             -2542.528      -2.0306415    
     35600   614.63328     -2612.114       0             -2538.8633      1.6952678    
     35800   598.44097     -2612.5469      0             -2541.226      -5.0201806    
     36000   580.53187     -2615.4901      0             -2546.3036     -0.0059599874 
     36200   597.03394     -2614.065       0             -2542.9118      3.2079201    
     36400   606.18273     -2607.1979      0             -2534.9543     -2.9970974    
     36600   570.81895     -2612.976       0             -2544.947      -5.2632611    
     36800   579.26545     -2613.6049      0             -2544.5693      2.4581798    
     37000   622.74595     -2611.1743      0             -2536.9568     -1.8860329    
     37200   584.69438     -2613.5337      0             -2543.8511      1.6015048    
     37400   582.71746     -2613.122       0             -2543.675      -2.8094789    
     37600   608.51166     -2610.8135      0             -2538.2923     -0.64463198   
     37800   619.85046     -2613.149       0             -2539.2765      7.1709651    
     38000   599.47646     -2611.4282      0             -2539.9839     -5.8327875    
     38200   609.0236      -2612.5687      0             -2539.9865      5.2270583    
     38400   588.0555      -2613.3285      0             -2543.2453     -0.54924697   
     38600   613.57749     -2612.8717      0             -2539.7468      2.6786438    
     38800   611.79776     -2612.4427      0             -2539.53       -3.5205551    
     39000   584.44776     -2617.1521      0             -2547.4989     -0.85971998   
     39200   586.73643     -2613.4929      0             -2543.5669     -2.9735582    
     39400   582.86553     -2603.4375      0             -2533.9729      2.2110681    
     39600   596.00165     -2611.0909      0             -2540.0607     -0.1199345    
     39800   591.88205     -2617.8363      0             -2547.2971      5.9068779    
     40000   607.96579     -2613.8931      0             -2541.437      -6.9900492    
     40200   612.44377     -2608.5421      0             -2535.5523      6.7629251    
     40400   578.49595     -2611.5504      0             -2542.6065     -0.84444902   
     40600   587.66549     -2613.4127      0             -2543.376       2.9583964    
     40800   595.3442      -2609.335       0             -2538.3832     -6.9321317    
     41000   604.77727     -2613.9872      0             -2541.9111      4.9109241    
     41200   573.05699     -2615.5985      0             -2547.3028     -3.4145694    
     41400   623.75335     -2612.177       0             -2537.8394      5.6306939    
     41600   590.04465     -2612.3702      0             -2542.05       -3.0157971    
     41800   596.20899     -2618.8946      0             -2547.8397      11.707709    
     42000   593.75002     -2616.0791      0             -2545.3172     -4.7434643    
     42200   605.52314     -2609.2424      0             -2537.0774      2.7744658    
     42400   605.31895     -2614.4257      0             -2542.285      -6.931523     
     42600   590.41688     -2618.2607      0             -2547.8961      1.5677354    
     42800   613.44848     -2616.5593      0             -2543.4499     -5.4680292    
     43000   624.18821     -2616.5524      0             -2542.163       8.1372086    
     43200   568.39713     -2617.2436      0             -2549.5033     -1.9449942    
     43400   584.16386     -2613.2993      0             -2543.6799      6.5758626    
     43600   600.89713     -2614.2872      0             -2542.6735     -2.1717811    
     43800   600.27821     -2614.1558      0             -2542.616       1.1254799    
     44000   585.81285     -2617.2827      0             -2547.4668     -4.8504179    
     44200   600.14335     -2616.641       0             -2545.1172     -3.0986949    
     44400   625.08681     -2617.2595      0             -2542.763      -1.9923653    
     44600   606.61578     -2621.2734      0             -2548.9782     -1.2761042    
     44800   590.87173     -2620.223       0             -2549.8042      2.8237756    
     45000   586.8014      -2616.7803      0             -2546.8465     -4.7927385    
     45200   616.20014     -2618.8193      0             -2545.3819      4.2141043    
     45400   581.92332     -2622.1021      0             -2552.7497     -4.1553167    
     45600   595.30975     -2620.035       0             -2549.0873      4.6904565    
     45800   576.36342     -2614.5607      0             -2545.871       4.9351678    
     46000   572.9726      -2620.3344      0             -2552.0487      3.7326649    
     46200   602.27197     -2626.5338      0             -2554.7563      2.5535629    
     46400   601.68425     -2623.0486      0             -2551.3412     -3.4159647    
     46600   609.67999     -2622.2391      0             -2549.5787      3.8088491    
     46800   568.98599     -2622.6927      0             -2554.8822     -0.97833035   
     47000   607.93479     -2622.3748      0             -2549.9224      5.2655271    
     47200   598.28751     -2624.6171      0             -2553.3145     -3.9926829    
     47400   606.97317     -2623.2845      0             -2550.9467      6.7448362    
     47600   606.3029      -2620.1354      0             -2547.8775     -8.174077     
     47800   599.85879     -2623.466       0             -2551.9761      5.9073131    
     48000   570.8982      -2625.0734      0             -2557.035      -5.5887533    
     48200   632.07104     -2624.3735      0             -2549.0446      7.2721744    
     48400   590.81975     -2620.328       0             -2549.9154     -10.617053    
     48600   579.80202     -2624.292       0             -2555.1925      7.7817746    
     48800   591.49264     -2627.4422      0             -2556.9493     -6.6767113    
     49000   604.47604     -2621.7164      0             -2549.6763      6.962317     
     49200   596.36779     -2621.7777      0             -2550.7039     -10.232269    
     49400   597.6124      -2625.9256      0             -2554.7035      6.9285604    
     49600   610.8435      -2622.8865      0             -2550.0875     -6.175355     
     49800   624.33419     -2624.3097      0             -2549.9029      2.3563211    
     50000   567.91152     -2627.0306      0             -2559.3481     -3.6494605    
     50200   628.64681     -2627.4371      0             -2552.5163     -1.8941196    
     50400   619.19998     -2621.4515      0             -2547.6566     -5.6821808    
     50600   609.74875     -2628.6803      0             -2556.0118     -1.6618692    
     50800   580.79136     -2629.0533      0             -2559.8359      1.9284139    
     51000   649.11565     -2620.349       0             -2542.9888      4.5450194    
     51200   603.15533     -2623.4345      0             -2551.5518      1.244776     
     51400   583.83989     -2634.3946      0             -2564.8138     -1.716862     
     51600   635.23911     -2626.76        0             -2551.0535      8.1018588    
     51800   619.80145     -2619           0             -2545.1333     -3.9883138    
     52000   583.29509     -2628.3567      0             -2558.8408      3.4114394    
     52200   569.68541     -2628.3918      0             -2560.498       0.25754469   
     52400   608.48391     -2619.3692      0             -2546.8514     -0.78198989   
     52600   624.82267     -2624.3873      0             -2549.9223     -2.5394775    
     52800   572.93876     -2629.0831      0             -2560.8014      1.4508891    
     53000   577.18044     -2624.7434      0             -2555.9563     -2.9492533    
     53200   658.31031     -2623.7073      0             -2545.2513     -0.43828266   
     53400   572.3865      -2624.8417      0             -2556.6259      0.41583134   
     53600   574.77014     -2629.1501      0             -2560.6503      1.1604454    
     53800   621.98997     -2625.5853      0             -2551.4579     -4.9636503    
     54000   610.45626     -2623.5671      0             -2550.8143     -2.4590741    
     54200   606.50368     -2628.1089      0             -2555.8271      0.46163354   
     54400   586.01439     -2628.4711      0             -2558.6312      0.34602373   
     54600   580.68699     -2626.357       0             -2557.1519     -2.8994056    
     54800   607.96067     -2626.2956      0             -2553.8402     -3.5764512    
     55000   570.36808     -2626.4342      0             -2558.459      -3.3712948    
     55200   605.35586     -2629.482       0             -2557.337      -3.2179922    
     55400   599.76172     -2623.5008      0             -2552.0225      0.98927477   
     55600   591.25422     -2626.2053      0             -2555.7409      0.77383537   
     55800   586.0162      -2630.481       0             -2560.6409      0.94304941   
     56000   612.03372     -2627.2518      0             -2554.3109      2.4543684    
     56200   614.63765     -2625.4944      0             -2552.2432      0.59780108   
     56400   579.85174     -2629.6895      0             -2560.584      -1.222758     
     56600   606.20975     -2631.4574      0             -2559.2106     -5.0132328    
     56800   631.84799     -2629.2811      0             -2553.9788      1.6545565    
     57000   602.87398     -2627.1179      0             -2555.2686     -1.1124083    
     57200   613.75478     -2631.461       0             -2558.315      -3.2448671    
     57400   597.18106     -2629.8068      0             -2558.636       1.873122     
     57600   607.09046     -2627.3301      0             -2554.9784     -3.2709576    
     57800   581.31466     -2626.6786      0             -2557.3988      5.4265013    
     58000   599.23346     -2631.13        0             -2559.7147      3.3784573    
     58200   613.41538     -2629.9148      0             -2556.8093      0.32079969   
     58400   596.62036     -2627.9353      0             -2556.8314      5.8189366    
     58600   599.34586     -2628.777       0             -2557.3482      2.9469581    
     58800   608.18421     -2631.4689      0             -2558.9868     -7.2281179    
     59000   602.68638     -2630.3083      0             -2558.4814     -1.0675285    
     59200   616.23166     -2630.8725      0             -2557.4313     -3.8831341    
     59400   596.74786     -2632.6986      0             -2561.5795     -1.1576584    
     59600   589.17687     -2631.8774      0             -2561.6605     -0.42326172   
     59800   623.77831     -2629.0733      0             -2554.7328      1.1053473    
     60000   588.15478     -2629.3312      0             -2559.2362     -1.5427403    
     60200   586.69458     -2633.2229      0             -2563.3019     -2.0214852    
     60400   601.94231     -2629.5165      0             -2557.7783     -3.6404869    
     60600   633.38561     -2627.9265      0             -2552.441      -3.2263196    
     60800   575.62819     -2635.6483      0             -2567.0462      2.9772666    
     61000   586.52349     -2633.2897      0             -2563.3891      5.032341     
     61200   630.62228     -2624.963       0             -2549.8068     -0.81961064   
     61400   601.59283     -2631.6603      0             -2559.9638     -0.7993177    
     61600   579.32825     -2637.8758      0             -2568.8327      0.31926921   
     61800   642.61675     -2630.1899      0             -2553.6043     -2.0585599    
     62000   629.25756     -2625.5601      0             -2550.5665     -4.9283391    
     62200   564.47027     -2636.7167      0             -2569.4443      0.12107858   
     62400   592.60117     -2632.1437      0             -2561.5188     -0.39421975   
     62600   603.62469     -2623.5938      0             -2551.6551     -10.240568    
     62800   599.23735     -2632.4382      0             -2561.0224      1.1819427    
     63000   562.70776     -2631.8183      0             -2564.756      -0.5192324    
     63200   644.22086     -2630.6372      0             -2553.8603     -1.56935      
     63400   600.92908     -2631.6797      0             -2560.0622     -7.2231638    
     63600   594.68481     -2634.2675      0             -2563.3942      4.0356194    
     63800   601.51779     -2628.627       0             -2556.9394     -1.0137109    
     64000   627.06232     -2627.7113      0             -2552.9794     -3.2418779    
     64200   578.71757     -2632.4189      0             -2563.4485      5.358161     
     64400   590.11993     -2633.4296      0             -2563.1004      2.4796318    
     64600   628.13657     -2627.5344      0             -2552.6745      1.2242057    
     64800   616.43288     -2630.9547      0             -2557.4896     -1.1650774    
     65000   589.58686     -2636.1598      0             -2565.8941      2.5637873    
     65200   614.16816     -2632.9106      0             -2559.7154      0.66759246   
     65400   612.99944     -2627.0345      0             -2553.9785     -1.6997945    
     65600   593.5391      -2634.7256      0             -2563.9889      4.6605101    
     65800   609.99541     -2636.2916      0             -2563.5937      0.40506351   
     66000   595.75805     -2627.526       0             -2556.5248      0.49637655   
     66200   575.75227     -2630.6235      0             -2562.0066     -2.4882618    
     66400   597.41609     -2635.167       0             -2563.9683     -2.0757975    
     66600   599.22976     -2629.3469      0             -2557.932      -4.533443     
     66800   597.23909     -2628.9063      0             -2557.7286     -0.74536993   
     67000   588.1423      -2634.6266      0             -2564.5331     -2.0673789    
     67200   600.1155      -2632.3864      0             -2560.8659      0.00093238292
     67400   597.7159      -2629.6301      0             -2558.3956     -5.4524222    
     67600   571.74284     -2630.377       0             -2562.2379      4.7040164    
     67800   602.53513     -2632.2607      0             -2560.4518     -0.32382133   
     68000   611.32628     -2630.4032      0             -2557.5466     -0.64952166   
     68200   595.83985     -2632.154       0             -2561.1431     -3.1997146    
     68400   575.96318     -2631.5238      0             -2562.8818      4.2519063    
     68600   622.98687     -2630.9724      0             -2556.7261     -7.3994007    
     68800   602.00626     -2631.5162      0             -2559.7704      3.3208962    
     69000   585.67324     -2634.6148      0             -2564.8155      1.6834107    
     69200   604.25289     -2630.9515      0             -2558.9379      1.3865253    
     69400   604.688       -2628.7684      0             -2556.703      -4.2106736    
     69600   613.47953     -2632.5851      0             -2559.4719      4.8741175    
     69800   590.92343     -2634.1326      0             -2563.7076     -1.2884642    
     70000   613.11068     -2631.4595      0             -2558.3903      0.56021336   
     70200   595.85742     -2627.5466      0             -2556.5336     -3.3657584    
     70400   569.833       -2629.7052      0             -2561.7938      9.3425916    
     70600   611.66444     -2634.181       0             -2561.2841     -5.292488     
     70800   616.28836     -2629.2663      0             -2555.8184      4.0615536    
     71000   609.23518     -2629.722       0             -2557.1147     -6.403867     
     71200   622.47959     -2636.154       0             -2561.9682      2.2108492    
     71400   566.873       -2630.3199      0             -2562.7612     -2.2248137    
     71600   621.52708     -2628.4669      0             -2554.3947      3.8824599    
     71800   593.9276      -2628.2799      0             -2557.4968      0.016433925  
     72000   561.35619     -2633.1537      0             -2566.2525      6.388103     
     72200   576.12896     -2630.5807      0             -2561.9189      0.36539669   
     72400   651.07129     -2632.4606      0             -2554.8673     -2.0517272    
     72600   595.34439     -2632.9793      0             -2562.0274     -3.8153315    
     72800   581.12271     -2635.105       0             -2565.848       2.5565366    
     73000   617.47792     -2630.3557      0             -2556.766       0.6788166    
     73200   599.40489     -2629.1312      0             -2557.6954      2.2393141    
     73400   609.31661     -2635.9476      0             -2563.3306     -3.5855863    
     73600   576.20239     -2630.836       0             -2562.1654     -1.3341614    
     73800   606.59283     -2629.5318      0             -2557.2394     -1.351522     
     74000   609.5388      -2634.4628      0             -2561.8193      2.5561916    
     74200   569.5554      -2632.353       0             -2564.4746      1.0626512    
     74400   626.41762     -2631.864       0             -2557.2089      4.7736384    
     74600   600.6915      -2629.9729      0             -2558.3838     -2.3000298    
     74800   601.47844     -2632.8685      0             -2561.1856     -2.3520689    
     75000   591.00479     -2631.9377      0             -2561.503      -0.90191161   
     75200   591.24883     -2630.2808      0             -2559.817      -0.88911434   
     75400   592.49743     -2630.3508      0             -2559.7382     -1.6865892    
     75600   597.90478     -2630.5704      0             -2559.3134     -1.8338503    
     75800   586.16088     -2632.0196      0             -2562.1622     -2.5632287    
     76000   601.30171     -2636.1711      0             -2564.5092      2.2239348    
     76200   573.94616     -2631.6878      0             -2563.2861      3.7405562    
     76400   626.88866     -2635.8414      0             -2561.1302      2.3510388    
     76600   587.00528     -2632.5385      0             -2562.5805     -4.2072146    
     76800   625.39123     -2635.5945      0             -2561.0617     -1.3298491    
     77000   599.84344     -2634.0609      0             -2562.5729     -3.0447918    
     77200   598.91307     -2634.8145      0             -2563.4374      2.7981255    
     77400   595.56352     -2633.677       0             -2562.699      -6.8816168    
     77600   611.6861      -2634.5741      0             -2561.6747      4.5103032    
     77800   611.68532     -2636.2355      0             -2563.3362      1.3542036    
     78000   590.92858     -2633.509       0             -2563.0834      6.0224652    
     78200   614.07978     -2637.8419      0             -2564.6572     -7.6180806    
     78400   597.91475     -2634.0434      0             -2562.7852      4.8051043    
     78600   625.50537     -2636.0474      0             -2561.501      -8.8124076    
     78800   577.77235     -2632.6214      0             -2563.7638      5.963446     
     79000   610.10217     -2635.4967      0             -2562.786      -1.7512966    
     79200   603.21373     -2633.6883      0             -2561.7985     -0.16909015   
     79400   572.42228     -2631.1344      0             -2562.9144     -0.62676081   
     79600   610.73083     -2633.4358      0             -2560.6502      2.0356171    
     79800   607.20044     -2636.014       0             -2563.6492     -0.6947216    
     80000   588.49283     -2635.689       0             -2565.5537     -1.8014675    
     80200   615.06706     -2631.9281      0             -2558.6257     -3.3134284    
     80400   602.47254     -2631.0471      0             -2559.2457      0.58622423   
     80600   591.90823     -2640.0348      0             -2569.4925      7.4778718    
     80800   600.87972     -2636.1985      0             -2564.5869     -4.3533918    
     81000   641.9214      -2630.0711      0             -2553.5683      5.3988723    
     81200   556.40122     -2635.0266      0             -2568.7159     -0.0040711159 
     81400   590.7907      -2638.298       0             -2567.8888      5.3088652    
     81600   586.67071     -2629.1208      0             -2559.2026     -7.2146873    
     81800   629.34363     -2633.862       0             -2558.8581      4.2289489    
     82000   571.01389     -2634.7327      0             -2566.6805     -2.3130758    
     82200   575.80154     -2633.9668      0             -2565.344       3.7455255    
     82400   611.93072     -2634.635       0             -2561.7064     -8.908645     
     82600   616.22146     -2632.2912      0             -2558.8513      4.042874     
     82800   590.9075      -2632.2521      0             -2561.829      -2.7947855    
     83000   599.25315     -2635.4189      0             -2564.0012      6.3727145    
     83200   600.47786     -2638.6497      0             -2567.086      -7.4231128    
     83400   625.32558     -2634.7437      0             -2560.2188      9.1774237    
     83600   616.19112     -2633.3081      0             -2559.8717     -6.1976358    
     83800   606.17285     -2639.6552      0             -2567.4128      3.0268828    
     84000   586.81461     -2634.8875      0             -2564.9522      0.25967087   
     84200   623.95133     -2630.9257      0             -2556.5645     -5.8015155    
     84400   592.72202     -2635.1751      0             -2564.5358     -2.6914101    
     84600   575.5352      -2637.7454      0             -2569.1543      0.13699501   
     84800   595.69222     -2631.9578      0             -2560.9645      2.6003964    
     85000   612.88442     -2632.0627      0             -2559.0204     -1.769136     
     85200   574.33066     -2635.3095      0             -2566.862       4.925118     
     85400   582.43439     -2636.2364      0             -2566.8231     -0.87677583   
     85600   605.49382     -2628.1332      0             -2555.9718      0.10716235   
     85800   611.09463     -2634.5137      0             -2561.6848     -3.1416452    
     86000   597.66011     -2640.1869      0             -2568.9591      1.5628402    
     86200   618.29138     -2633.9519      0             -2560.2652     -2.3563994    
     86400   607.17315     -2630.3107      0             -2557.9491      3.907201     
     86600   599.52753     -2637.8016      0             -2566.3512      0.98148332   
     86800   571.39242     -2635.3377      0             -2567.2404     -2.6087108    
     87000   617.19706     -2632.007       0             -2558.4507      3.8960615    
     87200   602.66086     -2631.4186      0             -2559.5948     -0.49456619   
     87400   579.45502     -2634.6066      0             -2565.5484      6.1917684    
     87600   602.74443     -2636.6525      0             -2564.8187     -7.3910099    
     87800   628.11013     -2635.3842      0             -2560.5274      6.2968432    
     88000   618.2229      -2637.4395      0             -2563.761      -6.9035975    
     88200   600.3262      -2637.0549      0             -2565.5093      2.6898289    
     88400   627.33186     -2634.2054      0             -2559.4414      0.63101229   
     88600   574.84841     -2631.9815      0             -2563.4723     -1.5662484    
     88800   580.58021     -2637.3953      0             -2568.203       8.8148137    
     89000   615.2814      -2633.6926      0             -2560.3646     -0.013654306  
     89200   615.36872     -2633.4246      0             -2560.0863      0.311338     
     89400   592.22153     -2639.1345      0             -2568.5548      1.5425766    
     89600   600.06257     -2637.6066      0             -2566.0924      5.9227026    
     89800   609.91218     -2632.8111      0             -2560.123       2.4936827    
     90000   621.22308     -2635.5871      0             -2561.5511     -0.66017934   
     90200   585.1527      -2639.3525      0             -2569.6153      0.70862746   
     90400   612.38646     -2635.4063      0             -2562.4234      1.5145359    
     90600   604.09887     -2631.0371      0             -2559.0419      1.0989961    
     90800   581.6489      -2636.4145      0             -2567.0948      3.2539633    
     91000   585.66863     -2634.3746      0             -2564.5759     -2.6773684    
     91200   603.25947     -2632.2311      0             -2560.3359     -2.5315145    
     91400   601.53222     -2635.9622      0             -2564.2729     -0.39388233   
     91600   602.78388     -2637.6153      0             -2565.7768     -2.0201835    
     91800   611.40365     -2634.0365      0             -2561.1707     -1.4265809    
     92000   602.29556     -2634.1558      0             -2562.3755     -4.7486986    
     92200   578.31738     -2635.4444      0             -2566.5218      2.789006     
     92400   585.83921     -2633.9569      0             -2564.1378     -4.874292     
     92600   598.12339     -2630.4911      0             -2559.208       2.4332216    
     92800   572.99956     -2633.1587      0             -2564.8698     -3.1306488    
     93000   599.99817     -2635.3113      0             -2563.8048     -0.343778     
     93200   596.90984     -2634.6086      0             -2563.4702     -6.6963724    
     93400   582.35856     -2632.2773      0             -2562.8731     -0.73729589   
     93600   586.68588     -2634.0565      0             -2564.1365     -1.2912067    
     93800   598.93101     -2636.7463      0             -2565.367      -3.8725386    
     94000   611.44015     -2633.6502      0             -2560.7801     -4.1634409    
     94200   624.45201     -2633.7187      0             -2559.2978      1.201745     
     94400   571.61929     -2635.9017      0             -2567.7773      1.4263983    
     94600   590.65959     -2636.0566      0             -2565.6631     -4.319546     
     94800   620.2645      -2631.127       0             -2557.2052      1.7238711    
     95000   579.12035     -2634.7093      0             -2565.691       1.3634011    
     95200   575.95211     -2636.5418      0             -2567.9011     -5.8369972    
     95400   610.94713     -2633.043       0             -2560.2317      2.4083287    
     95600   608.1346      -2632.5039      0             -2560.0278     -3.5312641    
     95800   584.67153     -2637.4267      0             -2567.7468      1.608603     
     96000   586.85066     -2634.7095      0             -2564.7698     -2.1079515    
     96200   608.29382     -2631.32        0             -2558.8249      5.5439022    
     96400   592.78471     -2635.9069      0             -2565.2601     -5.398214     
     96600   617.54248     -2639.0476      0             -2565.4502      9.7007589    
     96800   605.49119     -2633.6792      0             -2561.5181     -4.9186963    
     97000   632.22984     -2635.1859      0             -2559.8381      7.6320258    
     97200   571.46388     -2637.6133      0             -2569.5074     -4.8966038    
     97400   600.25373     -2634.8095      0             -2563.2725      8.3520367    
     97600   625.4813      -2632.3993      0             -2557.8558     -7.9639597    
     97800   587.04899     -2634.7066      0             -2564.7434      6.0685342    
     98000   582.7579      -2634.9389      0             -2565.4871     -2.6977686    
     98200   621.86262     -2633.6677      0             -2559.5555      1.6104094    
     98400   589.14794     -2631.2047      0             -2560.9913     -2.3155284    
     98600   607.93041     -2636.8656      0             -2564.4138      1.9335666    
     98800   583.98477     -2636.4515      0             -2566.8534     -6.3598563    
     99000   612.93065     -2632.6885      0             -2559.6407      0.91250872   
     99200   598.4535      -2634.4741      0             -2563.1517      1.0058456    
     99400   603.29113     -2638.7897      0             -2566.8908      3.4908583    
     99600   600.24182     -2633.1501      0             -2561.6145      3.1921851    
     99800   607.84411     -2635.671       0             -2563.2295     -0.15117998   
    100000   599.00168     -2638.0689      0             -2566.6812     -5.0712101    
    100200   607.21256     -2633.391       0             -2561.0247      4.418492     
    100400   577.93169     -2631.2773      0             -2562.4007     -4.0227185    
    100600   593.20074     -2636.1167      0             -2565.4203      2.1943925    
    100800   599.34764     -2633.7625      0             -2562.3335     -5.6633072    
    101000   599.03556     -2634.0413      0             -2562.6495      2.603035     
    101200   581.31478     -2636.9627      0             -2567.6829     -9.1422034    
    101400   587.01933     -2631.0073      0             -2561.0476      5.6132783    
    101600   592.78015     -2632.4875      0             -2561.8413     -6.3295974    
    101800   588.56345     -2632.4765      0             -2562.3327      8.8418604    
    102000   558.77539     -2631.7692      0             -2565.1755     -3.1648487    
    102200   611.91024     -2635.3108      0             -2562.3846      4.205091     
    102400   604.39465     -2633.4343      0             -2561.4038     -3.2398167    
    102600   603.02698     -2637.4574      0             -2565.59        5.128817     
    102800   638.65549     -2638.5038      0             -2562.3902     -3.9722891    
    103000   615.86946     -2633.2778      0             -2559.8798      2.5864664    
    103200   582.60128     -2637.8669      0             -2568.4337     -1.5723516    
    103400   596.42377     -2637.9862      0             -2566.9057      1.3400382    
    103600   609.37155     -2630.2488      0             -2557.6252     -1.2302557    
    103800   589.92542     -2630.6317      0             -2560.3257     -1.2311843    
    104000   565.00911     -2635.6083      0             -2568.2717     -1.2153232    
    104200   588.97713     -2634.5867      0             -2564.3937      7.6699896    
    104400   604.12768     -2630.2945      0             -2558.2958      1.2449626    
    104600   594.9266      -2636.2435      0             -2565.3414     -2.4376772    
    104800   594.96884     -2639.1037      0             -2568.1966      0.95209769   
    105000   629.1205      -2634.8707      0             -2559.8935      0.37374033   
    105200   610.33518     -2634.4521      0             -2561.7137     -7.4074535    
    105400   604.08617     -2638.1479      0             -2566.1542     -0.095944492  
    105600   640.63642     -2636.1532      0             -2559.8036     -0.95419199   
    105800   622.15367     -2633.7576      0             -2559.6107     -1.8106532    
    106000   593.97748     -2636.857       0             -2566.068      -4.7977042    
    106200   606.01205     -2634.1174      0             -2561.8942     -1.4110882    
    106400   609.04129     -2633.4689      0             -2560.8847     -4.3209959    
    106600   611.14033     -2636.4746      0             -2563.6402      1.1202333    
    106800   573.06279     -2633.4973      0             -2565.201      -1.8259374    
    107000   590.87454     -2632.1274      0             -2561.7083      4.5074145    
    107200   576.15262     -2631.6349      0             -2562.9702      2.9652788    
    107400   585.90026     -2633.9338      0             -2564.1075      3.7557011    
    107600   596.69257     -2633.5087      0             -2562.3962      1.5932214    
    107800   633.30016     -2637.4227      0             -2561.9473     -0.90017674   
    108000   605.72961     -2637.0965      0             -2564.907      -1.6778488    
    108200   613.16555     -2637.0216      0             -2563.9458     -1.2803581    
    108400   617.25949     -2638.5759      0             -2565.0123     -5.3375361    
    108600   620.73941     -2637.4355      0             -2563.4571     -0.42699299   
    108800   585.42412     -2632.5782      0             -2562.8086     -0.81258518   
    109000   596.65046     -2635.0609      0             -2563.9534      0.66681699   
    109200   590.28364     -2637.1161      0             -2566.7674     -0.46686016   
    109400   589.13798     -2633.241       0             -2563.0288      0.65212263   
    109600   594.96314     -2631.8341      0             -2560.9277     -4.3226118    
    109800   600.4971      -2638.3287      0             -2566.7627      3.5068411    
    110000   617.0651      -2639.9809      0             -2566.4404     -1.4435646    
    110200   634.34002     -2634.1944      0             -2558.5952      5.0599873    
    110400   587.55427     -2635.551       0             -2565.5276     -4.7278118    
    110600   591.39297     -2637.3033      0             -2566.8224      5.2649075    
    110800   591.22253     -2633.7432      0             -2563.2826      1.2208359    
    111000   591.21517     -2633.9241      0             -2563.4643      1.4273694    
    111200   579.06836     -2635.1185      0             -2566.1064     -2.1791531    
    111400   592.3884      -2635.1181      0             -2564.5185     -0.98474331   
    111600   594.74849     -2633.021       0             -2562.1402      0.55560581   
    111800   603.1769      -2634.2749      0             -2562.3896     -0.22007799   
    112000   603.18617     -2638.6847      0             -2566.7983     -1.6053852    
    112200   585.48985     -2634.3164      0             -2564.539       3.8596859    
    112400   607.1852      -2635.5464      0             -2563.1834      2.9665789    
    112600   573.72174     -2636.2775      0             -2567.9026     -4.4561315    
    112800   614.23933     -2637.7023      0             -2564.4986      4.6658434    
    113000   600.2954      -2633.124       0             -2561.582      -0.12620649   
    113200   600.09987     -2634.1685      0             -2562.6499      1.5181595    
    113400   592.23577     -2638.6381      0             -2568.0567     -4.4261533    
    113600   608.93039     -2635.0348      0             -2562.4638      1.2290839    
    113800   637.75424     -2637.5134      0             -2561.5072     -3.1535478    
    114000   595.39525     -2637.5544      0             -2566.5964     -1.4245507    
    114200   603.00758     -2635.0922      0             -2563.2271      1.1912845    
    114400   597.72139     -2632.83        0             -2561.5949      7.2958861    
    114600   590.06377     -2638.096       0             -2567.7735     -5.493655     
    114800   620.60321     -2636.6909      0             -2562.7288      4.0051521    
    115000   606.41898     -2631.9518      0             -2559.6801      1.2238979    
    115200   582.24177     -2635.5077      0             -2566.1174      2.8160255    
    115400   593.13249     -2633.9173      0             -2563.229       4.7027708    
    115600   608.43838     -2629.8049      0             -2557.2925     -1.2171895    
    115800   583.00088     -2633.3493      0             -2563.8686     -1.8623057    
    116000   593.6222      -2638.5741      0             -2567.8274     -9.130155     
    116200   603.48495     -2634.6313      0             -2562.7093      2.0390222    
    116400   605.48171     -2633.6426      0             -2561.4826     -13.130354    
    116600   590.68561     -2633.6919      0             -2563.2952      6.744901     
    116800   601.66638     -2635.3229      0             -2563.6176     -6.1732929    
    117000   615.157       -2634.4495      0             -2561.1364      1.8388881    
    117200   576.71899     -2635.8768      0             -2567.1447     -3.122446     
    117400   583.74912     -2635.7787      0             -2566.2087      3.3723       
    117600   607.42081     -2634.9676      0             -2562.5765      5.3753497    
    117800   612.19061     -2636.8136      0             -2563.854       5.9585818    
    118000   589.78671     -2639.4597      0             -2569.1702     -2.3933705    
    118200   600.46305     -2633.7391      0             -2562.1772      5.8192211    
    118400   574.96645     -2631.3994      0             -2562.8761      2.487337     
    118600   597.75092     -2638.8315      0             -2567.5928      1.2974214    
    118800   572.86972     -2635.9266      0             -2567.6532      2.778053     
    119000   620.19698     -2634.6256      0             -2560.7118      2.7923989    
    119200   588.09564     -2632.7815      0             -2562.6936     -3.5277486    
    119400   610.09838     -2638.6754      0             -2565.9652      4.8454788    
    119600   596.87821     -2640.3107      0             -2569.1761     -4.1735483    
    119800   607.54876     -2637.8286      0             -2565.4223      5.858672     
    120000   604.06528     -2634.8024      0             -2562.8112     -6.2993293    
    120200   604.68223     -2636.0209      0             -2563.9562      7.2362391    
    120400   580.76365     -2638.4935      0             -2569.2793     -2.0827101    
    120600   620.2595      -2640.5142      0             -2566.593       7.1989941    
    120800   600.24017     -2634.7101      0             -2563.1748     -1.3493307    
    121000   589.39878     -2635.0737      0             -2564.8305     -2.1305936    
    121200   610.57091     -2644.6856      0             -2571.919      -2.5255714    
    121400   615.58494     -2637.0828      0             -2563.7187     -1.7818995    
    121600   618.46099     -2636.5553      0             -2562.8485     -4.4389441    
    121800   590.24309     -2640.9372      0             -2570.5933      0.74988477   
    122000   596.06645     -2635.7995      0             -2564.7616     -2.9669623    
    122200   614.69887     -2632.9076      0             -2559.6491      1.3115681    
    122400   580.74816     -2637.1849      0             -2567.9726      3.5642834    
    122600   599.45869     -2637.9225      0             -2566.4803      1.2860506    
    122800   632.46084     -2638.0921      0             -2562.7168     -0.76230794   
    123000   595.8372      -2635.8128      0             -2564.8022     -1.1519095    
    123200   600.97382     -2637.962       0             -2566.3392     -1.2508529    
    123400   626.01229     -2639.2509      0             -2564.6441      0.82200781   
    123600   584.41295     -2636.8669      0             -2567.2179      1.2674528    
    123800   597.75368     -2636.6071      0             -2565.3681     -0.839533     
    124000   638.6695      -2641.0911      0             -2564.9758      5.403191     
    124200   592.72019     -2636.4508      0             -2565.8117      0.013872244  
    124400   595.1971      -2635.1371      0             -2564.2028      6.5115309    
    124600   586.72941     -2636.6189      0             -2566.6937     -8.2895187    
    124800   611.59746     -2637.8717      0             -2564.9829      3.5252308    
    125000   590.32679     -2634.9243      0             -2564.5705     -6.54738      
    125200   593.7054      -2634.3724      0             -2563.6159      2.1739996    
    125400   592.03303     -2636.861       0             -2566.3038     -1.2637777    
    125600   611.74291     -2637.2192      0             -2564.313       6.5407772    
    125800   592.37192     -2634.8901      0             -2564.2925     -0.15825045   
    126000   590.20873     -2637.1964      0             -2566.8566      1.4006144    
    126200   590.4748      -2636.607       0             -2566.2355     -1.1592406    
    126400   610.57745     -2636.5288      0             -2563.7615     -5.9837079    
    126600   600.28133     -2636.0645      0             -2564.5242     -1.2533179    
    126800   581.92743     -2635.3784      0             -2566.0255     -2.3352504    
    127000   584.39727     -2635.5318      0             -2565.8846     -4.9642198    
    127200   606.99587     -2635.1714      0             -2562.8309     -3.2462293    
    127400   604.8686      -2636.2928      0             -2564.2058      3.8442343    
    127600   581.74642     -2637.8586      0             -2568.5273     -1.2962995    
    127800   614.49585     -2638.5739      0             -2565.3396      4.4576495    
    128000   600.99257     -2635.9729      0             -2564.3479     -2.8174141    
    128200   586.04843     -2635.4479      0             -2565.6039      6.2537426    
    128400   592.85662     -2636.0781      0             -2565.4227     -2.4318096    
    128600   628.79735     -2638.8826      0             -2563.9439      5.145286     
    128800   602.69434     -2638.7712      0             -2566.9434      0.23382782   
    129000   594.91854     -2637.5025      0             -2566.6014      5.5056287    
    129200   601.48331     -2637.9678      0             -2566.2843     -2.1498551    
    129400   599.50252     -2634.8326      0             -2563.3852      3.704062     
    129600   586.87265     -2639.5062      0             -2569.564       0.11241581   
    129800   603.02032     -2639.2664      0             -2567.3997      4.3187354    
    130000   593.3053      -2635.6935      0             -2564.9846     -3.0954446    
    130200   639.31044     -2639.6501      0             -2563.4585      2.5650431    
    130400   578.55323     -2637           0             -2568.0493      3.1069376    
    130600   612.69214     -2637.3961      0             -2564.3768      2.544858     
    130800   625.53525     -2638.3888      0             -2563.8389     -4.0751702    
    131000   582.03616     -2637.09        0             -2567.7242     -0.31746332   
    131200   627.52782     -2637.7783      0             -2562.9909      0.31039966   
    131400   595.92507     -2637.3599      0             -2566.3389     -2.2714751    
    131600   590.50069     -2638.6824      0             -2568.3078      3.790642     
    131800   592.40152     -2636.1931      0             -2565.592      -3.1230734    
    132000   597.59401     -2635.7548      0             -2564.5349      1.9433141    
    132200   600.89336     -2638.0255      0             -2566.4123     -2.1401431    
    132400   599.73243     -2637.6808      0             -2566.2059      2.1777035    
    132600   588.8653      -2638.925       0             -2568.7453     -0.32626351   
    132800   615.56046     -2640.6504      0             -2567.2893      0.8103369    
    133000   606.03876     -2640.0411      0             -2567.8147     -5.4269603    
    133200   611.11126     -2639.1919      0             -2566.361      -4.5880384    
    133400   638.20358     -2640.2539      0             -2564.1941     -2.0509882    
    133600   565.13435     -2638.6352      0             -2571.2837     -2.2851773    
    133800   597.2118      -2638.976       0             -2567.8016      6.374805     
    134000   605.87331     -2636.6264      0             -2564.4198     -6.1334672    
    134200   602.06494     -2639.7838      0             -2568.031       5.7737104    
    134400   586.43913     -2638.7529      0             -2568.8623     -1.5489662    
    134600   597.27461     -2637.5064      0             -2566.3245      5.9136531    
    134800   610.02366     -2640.3738      0             -2567.6725     -1.4955601    
    135000   610.34746     -2640.9592      0             -2568.2193      2.4493807    
    135200   607.79964     -2637.8129      0             -2565.3766      2.7532158    
    135400   610.38517     -2639.8664      0             -2567.122       1.4605262    
    135600   603.35369     -2639.991       0             -2568.0846      0.59740162   
    135800   585.31643     -2639.4969      0             -2569.7401     -1.3474024    
    136000   591.80635     -2637.8604      0             -2567.3302      1.8891904    
    136200   602.97657     -2635.8453      0             -2563.9839     -6.0778302    
    136400   594.55712     -2638.2008      0             -2567.3428     -1.503143     
    136600   603.9415      -2640.3667      0             -2568.3902     -1.9659879    
    136800   583.24748     -2635.4988      0             -2565.9886     -0.79498465   
    137000   610.45101     -2638.1518      0             -2565.3995      2.8725021    
    137200   589.57523     -2638.5328      0             -2568.2685      3.9610007    
    137400   591.09264     -2636.544       0             -2566.0989      8.4962231    
    137600   587.9835      -2639.1616      0             -2569.087      -1.4662282    
    137800   592.01414     -2639.6461      0             -2569.0911      2.394184     
    138000   592.85806     -2636.3147      0             -2565.6591      4.6695231    
    138200   632.37069     -2641.0884      0             -2565.7239     -1.5359877    
    138400   590.65318     -2640.4809      0             -2570.0881      3.5046332    
    138600   612.62395     -2641.5727      0             -2568.5615     -0.56003756   
    138800   626.02571     -2640.1098      0             -2565.5014     -1.2178019    
    139000   603.58646     -2639.0067      0             -2567.0726     -1.0150581    
    139200   599.38882     -2640.3359      0             -2568.9021     -1.2744949    
    139400   607.27906     -2642.9001      0             -2570.5259     -0.73933635   
    139600   607.74605     -2641.0682      0             -2568.6383     -6.9770797    
    139800   623.85977     -2639.4219      0             -2565.0716     -1.3050818    
    140000   629.05608     -2644.4239      0             -2569.4544      2.6594817    
    140200   595.24083     -2642.8082      0             -2571.8687      0.32900271   
    140400   624.11561     -2639.9521      0             -2565.5713      1.8863097    
    140600   617.88875     -2641.07        0             -2567.4313     -0.73350504   
    140800   594.97025     -2643.3541      0             -2572.4468      4.6915137    
    141000   611.95929     -2641.3224      0             -2568.3904     -3.2457723    
    141200   629.08223     -2638.2563      0             -2563.2836      4.6594188    
    141400   580.50736     -2639.6944      0             -2570.5108     -4.0943404    
    141600   575.98652     -2639.9357      0             -2571.2909      7.3932961    
    141800   597.88427     -2636.9071      0             -2565.6526     -7.0955353    
    142000   626.48011     -2639.0079      0             -2564.3454      8.2273426    
    142200   573.18296     -2643.7157      0             -2575.405      -7.0258783    
    142400   616.26083     -2641.0842      0             -2567.6395      5.6331534    
    142600   605.40415     -2636.0136      0             -2563.8629     -8.8688386    
    142800   587.26146     -2639.5286      0             -2569.5401      9.6330787    
    143000   585.32076     -2640.8081      0             -2571.0508     -5.7585724    
    143200   609.27052     -2636.5672      0             -2563.9556      4.5180279    
    143400   590.89208     -2637.6038      0             -2567.1826     -4.705023     
    143600   601.25365     -2641.4038      0             -2569.7477      9.4068723    
    143800   599.50889     -2641.1917      0             -2569.7435     -7.3022576    
    144000   616.96792     -2639.0404      0             -2565.5114      8.1769272    
    144200   573.09777     -2637.8472      0             -2569.5466     -1.2460136    
    144400   603.83022     -2639.3119      0             -2567.3487      5.2069894    
    144600   570.62976     -2638.8533      0             -2570.8468     -3.2442022    
    144800   613.71851     -2642.5438      0             -2569.4021      0.44003552   
    145000   604.21575     -2638.5884      0             -2566.5793     -5.5139463    
    145200   610.65169     -2644.1266      0             -2571.3505      6.0968239    
    145400   585.155       -2639.9467      0             -2570.2092     -2.3690101    
    145600   608.80203     -2636.1137      0             -2563.558       9.0510436    
    145800   581.574       -2638.8564      0             -2569.5457     -1.4627483    
    146000   587.7079      -2641.0069      0             -2570.9651      5.5090044    
    146200   587.27941     -2637.4254      0             -2567.4347     -5.44178      
    146400   628.38275     -2637.6943      0             -2562.805       8.2315703    
    146600   603.38213     -2644.2916      0             -2572.3818     -3.6843555    
    146800   595.61942     -2642.8333      0             -2571.8487      6.186687     
    147000   613.50226     -2637.9793      0             -2564.8635     -1.9247232    
    147200   603.46869     -2638.9974      0             -2567.0773      8.5858002    
    147400   563.2581      -2638.3691      0             -2571.2412      4.6806771    
    147600   630.88449     -2642.0196      0             -2566.8321      7.5459576    
    147800   590.23241     -2638.6096      0             -2568.267      -1.4692366    
    148000   612.24123     -2642.2467      0             -2569.2811     -2.4267023    
    148200   586.62793     -2640.9823      0             -2571.0693     -0.48791414   
    148400   610.98167     -2637.9614      0             -2565.1459      2.7345953    
    148600   585.31953     -2636.911       0             -2567.1539     -3.9330129    
    148800   596.87696     -2641.647       0             -2570.5125      7.7786118    
    149000   597.96312     -2640.7849      0             -2569.5209     -4.3220023    
    149200   618.28927     -2638.9386      0             -2565.2522      3.9919452    
    149400   588.83585     -2642.4261      0             -2572.2499     -4.3997888    
    149600   602.16979     -2640.1258      0             -2568.3605      3.5436728    
    149800   634.56641     -2637.8468      0             -2562.2206     -6.104452     
    150000   600.66418     -2641.9415      0             -2570.3557      4.7270101    
    150200   579.76537     -2640.4447      0             -2571.3495      1.651217     
    150400   636.54754     -2637.1683      0             -2561.3059     -6.2008349    
    150600   591.40283     -2638.3515      0             -2567.8694      4.0312905    
    150800   540.69085     -2641.7656      0             -2577.3272      3.9260967    
    151000   610.23986     -2637.7084      0             -2564.9813      1.9577248    
    151200   606.79513     -2636.5091      0             -2564.1926     -5.3056924    
    151400   589.53743     -2642.9353      0             -2572.6755      4.5021062    
    151600   596.64147     -2641.508       0             -2570.4015     -4.4567243    
    151800   619.69344     -2635.0125      0             -2561.1588      3.9021351    
    152000   607.96219     -2640.4399      0             -2567.9843     -0.64237171   
    152200   586.77363     -2641.1836      0             -2571.2532      3.3193342    
    152400   600.79055     -2638.405       0             -2566.804       1.3855424    
    152600   600.05801     -2639.191       0             -2567.6773     -1.5828906    
    152800   605.13225     -2642.0517      0             -2569.9334     -1.9527442    
    153000   598.23701     -2640.2905      0             -2568.9939      4.7733073    
    153200   610.24952     -2639.7825      0             -2567.0542     -2.6596399    
    153400   598.89937     -2638.444       0             -2567.0685      0.29910592   
    153600   584.99175     -2636.013       0             -2566.2949     -1.0817265    
    153800   608.04988     -2640.9215      0             -2568.4554     -8.2909859    
    154000   590.8131      -2639.8118      0             -2569.3999      1.853745     
    154200   604.26791     -2638.3032      0             -2566.2878      2.9602464    
    154400   578.16347     -2637.6504      0             -2568.7461     -1.5434002    
    154600   562.57008     -2635.2437      0             -2568.1978     -1.7692926    
    154800   638.30661     -2638.6653      0             -2562.5933      0.64467267   
    155000   588.25087     -2638.9281      0             -2568.8216     -3.1203506    
    155200   589.8936      -2641.0822      0             -2570.7799      3.792677     
    155400   605.19405     -2636.6363      0             -2564.5105     -4.3721767    
    155600   607.42615     -2636.0098      0             -2563.6181      3.6311606    
    155800   582.93679     -2638.7838      0             -2569.3107      1.6256522    
    156000   596.76271     -2638.4169      0             -2567.296       0.40913807   
    156200   610.94015     -2637.1598      0             -2564.3493     -2.378723     
    156400   597.26809     -2637.8673      0             -2566.6861      4.1767582    
    156600   613.46614     -2641.1942      0             -2568.0826     -6.148567     
    156800   624.61264     -2640.9232      0             -2566.4832      3.8872207    
    157000   583.06653     -2637.0156      0             -2567.527      -7.9908317    
    157200   605.07767     -2637.0095      0             -2564.8977      6.2653854    
    157400   597.16564     -2640.0771      0             -2568.9082     -6.5149913    
    157600   605.52996     -2640.1434      0             -2567.9777      0.94475292   
    157800   572.22494     -2633.8505      0             -2565.6539     -8.8115289    
    158000   611.24278     -2637.1791      0             -2564.3325      0.046068881  
    158200   592.95602     -2638.987       0             -2568.3198     -3.9849055    
    158400   592.86269     -2638.1836      0             -2567.5275      2.9026863    
    158600   603.642       -2637.8148      0             -2565.874      -4.0261974    
    158800   604.84126     -2636.4074      0             -2564.3237      3.3168839    
    159000   590.70342     -2638.0994      0             -2567.7006     -3.7510496    
    159200   623.19368     -2639.7729      0             -2565.5021      9.8419327    
    159400   616.3676      -2639.8363      0             -2566.3789     -8.8193161    
    159600   616.85849     -2640.4049      0             -2566.889       7.4378862    
    159800   589.65824     -2635.3118      0             -2565.0376     -4.8265894    
    160000   586.62793     -2635.8996      0             -2565.9866      10.571993    
    160200   588.46645     -2637.9229      0             -2567.7908     -2.4030032    
    160400   604.22114     -2638.0363      0             -2566.0265      10.340755    
    160600   578.42983     -2636.0525      0             -2567.1165     -8.9993968    
    160800   623.84729     -2639.5071      0             -2565.1583      5.1978262    
    161000   583.44955     -2639.6089      0             -2570.0747     -11.422212    
    161200   615.09437     -2638.3761      0             -2565.0705      7.3998132    
    161400   593.78113     -2636.5964      0             -2565.8308     -11.252388    
    161600   605.11352     -2639.4594      0             -2567.3433      8.23972      
    161800   594.2059      -2641.395       0             -2570.5788     -7.5080177    
    162000   619.67537     -2640.0172      0             -2566.1656      5.7515883    
    162200   593.73045     -2636.1361      0             -2565.3766     -6.9067883    
    162400   614.76452     -2641.4494      0             -2568.1831      11.433357    
    162600   596.80409     -2640.928       0             -2569.8022     -7.400904     
    162800   602.90785     -2637.1804      0             -2565.3271      5.75638      
    163000   583.76943     -2633.2116      0             -2563.6392     -2.5746985    
    163200   603.87054     -2640.3219      0             -2568.3539      2.7048422    
    163400   600.85446     -2641.7722      0             -2570.1637     -7.1455185    
    163600   634.82389     -2638.8213      0             -2563.1644      1.5448267    
    163800   615.70013     -2638.9998      0             -2565.6219     -1.7778628    
    164000   583.91891     -2640.8933      0             -2571.3031      0.6217328    
    164200   621.3714      -2638.3937      0             -2564.34       -1.5346705    
    164400   601.66124     -2635.4286      0             -2563.7239     -2.074448     
    164600   573.44285     -2640.5146      0             -2572.173       1.2504955    
    164800   598.94167     -2639.1312      0             -2567.7506      3.2071558    
    165000   620.80023     -2633.7958      0             -2559.8102     -6.5385233    
    165200   616.17123     -2641.9958      0             -2568.5618      2.3326527    
    165400   584.49969     -2643.4354      0             -2573.776      -2.6535856    
    165600   616.61655     -2636.8866      0             -2563.3996      7.1750299    
    165800   601.30144     -2637.3418      0             -2565.6799     -6.7961416    
    166000   611.96974     -2642.4457      0             -2569.5125      8.1260878    
    166200   593.97606     -2638.164       0             -2567.3752     -2.0005066    
    166400   629.1549      -2637.2992      0             -2562.3179      7.0232003    
    166600   594.12599     -2638.2169      0             -2567.4103     -3.4901014    
    166800   610.22761     -2641.5357      0             -2568.8101      2.5949468    
    167000   606.09125     -2640.304       0             -2568.0713     -6.7258842    
    167200   616.5617      -2638.2467      0             -2564.7662      3.8598398    
    167400   587.57907     -2637.4778      0             -2567.4514     -10.222491    
    167600   590.20743     -2638.7925      0             -2568.4528      5.9387345    
    167800   605.19555     -2640.6272      0             -2568.5013     -10.503652    
    168000   618.5926      -2639.0571      0             -2565.3345     -0.031583517  
    168200   594.00933     -2637.6194      0             -2566.8267     -0.54950877   
    168400   600.40312     -2641.5349      0             -2569.9802     -0.57275809   
    168600   603.31614     -2640.5827      0             -2568.6808     -5.7624824    
    168800   620.30751     -2637.4242      0             -2563.4973      1.2152942    
    169000   611.32748     -2641.2608      0             -2568.4041     -3.1711335    
    169200   575.00686     -2640.2558      0             -2571.7277      0.25446207   
    169400   602.02461     -2635.5886      0             -2563.8406     -6.213955     
    169600   601.41326     -2636.4842      0             -2564.8091      3.0154864    
    169800   590.45039     -2643.6695      0             -2573.3009     -1.5580125    
    170000   597.86839     -2639.7383      0             -2568.4856      2.2909974    
    170200   614.27195     -2635.3761      0             -2562.1684     -7.2200067    
    170400   583.96287     -2641.0314      0             -2571.436       0.37247048   
    170600   607.37067     -2643.876       0             -2571.4909      2.8501279    
    170800   611.28975     -2637.9         0             -2565.0478      0.85458593   
    171000   605.45342     -2639.4877      0             -2567.331       1.1152737    
    171200   575.48479     -2640.1617      0             -2571.5767      2.1505568    
    171400   615.33454     -2638.8122      0             -2565.4779     -1.2028429    
    171600   584.36167     -2639.0099      0             -2569.3669      1.9681593    
    171800   581.83491     -2643.3476      0             -2574.0058      2.1708567    
    172000   616.15194     -2639.9777      0             -2566.546      -0.65165294   
    172200   592.0421      -2636.7183      0             -2566.16       -2.4046329    
    172400   580.55144     -2640.0106      0             -2570.8217      0.42683568   
    172600   574.29769     -2639.0892      0             -2570.6457      1.8114784    
    172800   603.47141     -2636.7456      0             -2564.8252     -4.3716583    
    173000   607.09277     -2640.3207      0             -2567.9687     -0.83061741   
    173200   605.85206     -2643.7793      0             -2571.5752     -4.1481428    
    173400   609.01672     -2638.6353      0             -2566.054       1.3064191    
    173600   588.76691     -2639.0987      0             -2568.9307     -4.1545777    
    173800   595.08161     -2641.2937      0             -2570.3731      3.8840694    
    174000   609.18431     -2641.924       0             -2569.3228     -5.2753157    
    174200   602.2224      -2641.03        0             -2569.2584      4.4557928    
    174400   587.22892     -2639.0109      0             -2569.0262     -1.9830613    
    174600   621.55735     -2640.3752      0             -2566.2993      3.9258697    
    174800   581.94225     -2642.9736      0             -2573.619      -4.1245638    
    175000   619.22327     -2642.6258      0             -2568.8281      4.1814174    
    175200   630.09222     -2640.4169      0             -2565.3238     -5.6829578    
    175400   581.61278     -2640.1641      0             -2570.8487      1.7347837    
    175600   589.44525     -2642.1337      0             -2571.8849     -2.6734139    
    175800   613.34628     -2638.6355      0             -2565.5382      4.5285006    
    176000   626.25995     -2638.9021      0             -2564.2657     -13.465724    
    176200   601.08326     -2642.2773      0             -2570.6415     -0.44458478   
    176400   585.49965     -2641.2299      0             -2571.4513     -0.41579638   
    176600   601.5568      -2638.3682      0             -2566.6759      3.2074566    
    176800   602.37052     -2640.7098      0             -2568.9206     -3.2935031    
    177000   589.54214     -2641.1602      0             -2570.8999      3.7309186    
    177200   609.80531     -2641.1877      0             -2568.5124     -1.4528409    
    177400   628.03411     -2641.8413      0             -2566.9936      5.2751413    
    177600   593.49383     -2642.7814      0             -2572.0501      0.00011582496
    177800   605.34154     -2639.142       0             -2566.9987      4.3307284    
    178000   608.96504     -2637.9695      0             -2565.3944     -3.4331208    
    178200   587.83206     -2640.8874      0             -2570.8309      6.6197351    
    178400   599.77832     -2641.3356      0             -2569.8553     -5.6358745    
    178600   625.24602     -2638.7467      0             -2564.2312      2.5734963    
    178800   581.98587     -2641.0577      0             -2571.6979     -0.21960021   
    179000   598.23359     -2642.2268      0             -2570.9306      4.709731     
    179200   606.34522     -2638.819       0             -2566.5561      3.0401787    
    179400   613.4769      -2640.3525      0             -2567.2397      0.18266619   
    179600   586.01401     -2642.0422      0             -2572.2023      5.3971784    
    179800   599.71406     -2640.5404      0             -2569.0678     -5.2509692    
    180000   629.88163     -2639.1172      0             -2564.0492     -0.42508285   
    180200   588.67994     -2642.6074      0             -2572.4498     -4.7875508    
    180400   593.24948     -2643.0993      0             -2572.3971      6.8290475    
    180600   600.47764     -2638.6327      0             -2567.0691     -11.205286    
    180800   616.72586     -2640.0066      0             -2566.5066      4.4657222    
    181000   589.35359     -2646.0522      0             -2575.8143     -2.1365508    
    181200   610.7122      -2642.9204      0             -2570.137       5.3099763    
    181400   618.59526     -2639.282       0             -2565.5591     -9.4854096    
    181600   582.83807     -2640.1212      0             -2570.6598      9.3048992    
    181800   572.51311     -2644.7715      0             -2576.5406     -7.5337789    
    182000   610.17738     -2638.0923      0             -2565.3726     -1.0336521    
    182200   595.4248      -2637.8546      0             -2566.8931     -1.5142912    
    182400   594.58062     -2645.0204      0             -2574.1595     -0.68416196   
    182600   593.11046     -2642.1092      0             -2571.4236      1.9931772    
    182800   607.39707     -2639.2713      0             -2566.883       2.9613781    
    183000   612.58019     -2641.9564      0             -2568.9504      2.8524234    
    183200   573.68077     -2641.2835      0             -2572.9135      1.3316472    
    183400   605.12878     -2640.2199      0             -2568.1019      11.445       
    183600   632.21222     -2642.0343      0             -2566.6886     -8.3708161    
    183800   604.03151     -2641.5121      0             -2569.5249      8.7443595    
    184000   593.17933     -2642.4883      0             -2571.7945     -9.4311402    
    184200   603.68304     -2640.7827      0             -2568.837       9.4640733    
    184400   601.35924     -2642.101       0             -2570.4323     -6.4904045    
    184600   595.71143     -2642.3004      0             -2571.3048      0.30320385   
    184800   595.01208     -2639.0506      0             -2568.1383     -3.2976667    
    185000   626.5828      -2644.2376      0             -2569.5628      4.4141325    
    185200   600.00159     -2642.8294      0             -2571.3225     -6.5297192    
    185400   615.65661     -2640.0521      0             -2566.6795      8.7908467    
    185600   580.1143      -2640.0391      0             -2570.9023     -7.5259012    
    185800   599.00313     -2642.0503      0             -2570.6624      10.121693    
    186000   573.06068     -2640.3045      0             -2572.0084     -7.6080769    
    186200   613.22587     -2640.5853      0             -2567.5024      8.6590528    
    186400   580.19601     -2640.5258      0             -2571.3793     -11.521579    
    186600   613.41726     -2640.2341      0             -2567.1283      6.5111963    
    186800   582.10905     -2641.25        0             -2571.8755     -10.382657    
    187000   595.4445      -2641.807       0             -2570.8432      6.2878598    
    187200   583.64848     -2640.8741      0             -2571.3161     -9.6069778    
    187400   635.0508      -2644.4244      0             -2568.7404      10.279124    
    187600   587.34021     -2643.0048      0             -2573.0069     -5.8770385    
    187800   614.38461     -2644.0482      0             -2570.8272      7.3390201    
    188000   600.50403     -2640.489       0             -2568.9222     -4.928729     
    188200   609.54278     -2643.2024      0             -2570.5584      1.9456593    
    188400   594.90585     -2643.1977      0             -2572.2981     -6.0968105    
    188600   622.01344     -2642.2842      0             -2568.154      -5.0092687    
    188800   575.3537      -2641.6777      0             -2573.1083     -4.4788966    
    189000   614.77586     -2642.0997      0             -2568.8321      5.8326494    
    189200   598.59577     -2639.9611      0             -2568.6217     -1.3087603    
    189400   615.12383     -2644.6079      0             -2571.2988      3.9005076    
    189600   593.13443     -2642.5625      0             -2571.874      -5.02896      
    189800   625.93371     -2642.7511      0             -2568.1537      3.531973     
    190000   584.47871     -2640.5538      0             -2570.8969     -7.871702     
    190200   605.52531     -2644.4178      0             -2572.2526      2.3720006    
    190400   599.78665     -2642.7544      0             -2571.2731     -3.9564162    
    190600   597.76966     -2641.9032      0             -2570.6623      0.075650946  
    190800   593.11191     -2639.9314      0             -2569.2456     -1.8349841    
    191000   611.88874     -2642.9465      0             -2570.0229      0.050936587  
    191200   571.77209     -2641.2939      0             -2573.1513     -5.4473829    
    191400   589.09978     -2640.9197      0             -2570.7121      6.3458624    
    191600   613.09335     -2643.6457      0             -2570.5786      3.0543236    
    191800   581.02748     -2642.1006      0             -2572.855      -0.13278361   
    192000   594.55854     -2641.769       0             -2570.9107     -0.42200916   
    192200   605.83101     -2642.4198      0             -2570.2181     -1.3767144    
    192400   585.7405      -2641.0191      0             -2571.2118      2.3111071    
    192600   601.10412     -2644.5263      0             -2572.888      -4.7442731    
    192800   601.92814     -2642.5805      0             -2570.844       3.7941325    
    193000   599.71517     -2641.7449      0             -2570.2721     -0.16161287   
    193200   593.23202     -2643.6303      0             -2572.9302      0.27943793   
    193400   594.46123     -2641.2675      0             -2570.4209     -0.25335818   
    193600   626.65866     -2644.5752      0             -2569.8913      2.5459759    
    193800   599.65153     -2646.4558      0             -2574.9906      1.9617589    
    194000   607.63641     -2644.9906      0             -2572.5738     -0.41520328   
    194200   602.23885     -2640.0706      0             -2568.2971     -5.3223865    
    194400   611.70261     -2642.3989      0             -2569.4975     -0.34912852   
    194600   607.1166      -2644.9655      0             -2572.6106      3.4111494    
    194800   610.88446     -2643.8513      0             -2571.0474      1.5771882    
    195000   570.76406     -2638.4744      0             -2570.4519     -3.2735734    
    195200   583.46933     -2643.0653      0             -2573.5287     -0.48592994   
    195400   621.34397     -2641.0045      0             -2566.954      -0.24448758   
    195600   597.92383     -2638.7916      0             -2567.5323     -0.72642461   
    195800   569.11487     -2645.0838      0             -2577.2579      1.2742354    
    196000   620.95668     -2644.574       0             -2570.5698      0.82817239   
    196200   609.87821     -2639.7672      0             -2567.0832     -7.3268009    
    196400   605.68017     -2645.9138      0             -2573.7302      1.1234578    
    196600   599.98786     -2644.7737      0             -2573.2684     -0.56381366   
    196800   597.24779     -2640.3384      0             -2569.1597     -2.4548322    
    197000   580.91969     -2640.6797      0             -2571.4469      0.61453359   
    197200   617.92647     -2646.5704      0             -2572.9273     -3.2115508    
    197400   588.551       -2643.0118      0             -2572.8696      0.67098309   
    197600   592.92091     -2639.4585      0             -2568.7955     -1.1715311    
    197800   601.4699      -2643.8344      0             -2572.1525      5.4584172    
    198000   618.45232     -2646.9359      0             -2573.2301      3.2949218    
    198200   606.04091     -2642.0722      0             -2569.8456      1.4835856    
    198400   599.4249      -2643.1086      0             -2571.6705     -2.5636963    
    198600   599.9385      -2641.7226      0             -2570.2232      1.5977904    
    198800   605.91098     -2642.0608      0             -2569.8496     -5.1235316    
    199000   595.09016     -2645.588       0             -2574.6664      11.882072    
    199200   600.91439     -2644.9823      0             -2573.3666     -3.5673904    
    199400   610.28308     -2639.7284      0             -2566.9961      1.2335205    
    199600   591.50935     -2641.2877      0             -2570.7929      2.0026263    
    199800   599.99329     -2645.5801      0             -2574.0742      2.133173     
    200000   624.45824     -2647.1549      0             -2572.7333     -2.1908151    
    200200   603.9108      -2643.6062      0             -2571.6334      1.3860939    
    200400   605.18598     -2644.4851      0             -2572.3603     -0.77238449   
    200600   600.58459     -2647.1691      0             -2575.5927      1.4996754    
    200800   600.31586     -2645.1571      0             -2573.6127     -1.1149272    
    201000   613.12514     -2643.0288      0             -2569.9579      3.8844843    
    201200   596.2975      -2643.4713      0             -2572.4058     -1.511124     
    201400   619.0832      -2644.4578      0             -2570.6768     -1.8218644    
    201600   608.4475      -2644.5585      0             -2572.0451     -3.7690507    
    201800   614.31325     -2647.6983      0             -2574.4857      0.20010893   
    202000   593.83903     -2645.9287      0             -2575.1562      0.46169168   
    202200   615.63225     -2643.5873      0             -2570.2176     -0.36486411   
    202400   618.02776     -2644.5646      0             -2570.9094     -0.84691012   
    202600   599.05877     -2646.5934      0             -2575.1988     -4.5968802    
    202800   590.50492     -2644.7131      0             -2574.338      -1.0198207    
    203000   624.24605     -2644.4552      0             -2570.0589     -1.927161     
    203200   608.91712     -2645.52        0             -2572.9506     -3.7852517    
    203400   605.92205     -2647.1673      0             -2574.9548     -1.6382365    
    203600   620.5546      -2645.7454      0             -2571.789       1.0126648    
    203800   594.46654     -2643.4041      0             -2572.5568     -6.6984677    
    204000   602.00288     -2645.0238      0             -2573.2784      0.43143768   
    204200   592.69858     -2645.3274      0             -2574.6908     -4.9239318    
    204400   633.03602     -2643.2354      0             -2567.7915      7.7386729    
    204600   582.25266     -2645.2359      0             -2575.8443     -3.229035     
    204800   588.95603     -2646.8702      0             -2576.6797      8.196048     
    205000   599.90406     -2642.8039      0             -2571.3086     -3.1281243    
    205200   635.94747     -2645.7769      0             -2569.986      -0.79298954   
    205400   596.87236     -2647.6852      0             -2576.5512      10.532069    
    205600   595.54747     -2646.7608      0             -2575.7848     -4.1588687    
    205800   612.81954     -2642.8891      0             -2569.8545      4.3370901    
    206000   570.84179     -2643.9695      0             -2575.9378     -4.0595856    
    206200   592.29826     -2644.6025      0             -2574.0137      6.2113373    
    206400   587.54279     -2643.4671      0             -2573.445       0.11383557   
    206600   593.45375     -2646.6977      0             -2575.9712     -1.1992998    
    206800   626.17904     -2646.7222      0             -2572.0956      2.1669024    
    207000   600.0104      -2644.1396      0             -2572.6316      3.3343547    
    207200   592.06865     -2646.9497      0             -2576.3882      3.0689996    
    207400   611.46111     -2646.0199      0             -2573.1473     -3.7338069    
    207600   601.66947     -2642.9877      0             -2571.282       0.037812344  
    207800   606.13943     -2646.0356      0             -2573.7972      1.4233868    
    208000   593.24232     -2646.9829      0             -2576.2816     -6.1203929    
    208200   628.05377     -2646.3814      0             -2571.5313     -3.1823551    
    208400   586.45784     -2641.1572      0             -2571.2644     -1.6959363    
    208600   588.77651     -2643.7595      0             -2573.5903     -2.8254518    
    208800   584.62473     -2645.8242      0             -2576.1499      1.585327     
    209000   600.28236     -2643.8115      0             -2572.2712     -1.4962087    
    209200   619.68729     -2646.2873      0             -2572.4343     -0.98276428   
    209400   603.76838     -2645.9199      0             -2573.9641      1.7161309    
    209600   583.90288     -2642.3482      0             -2572.7599      0.19200984   
    209800   595.0584      -2643.7414      0             -2572.8236     -0.25993792   
    210000   588.31721     -2644.9398      0             -2574.8254      0.37350785   
    210200   617.43299     -2646.5899      0             -2573.0056      3.0430347    
    210400   575.57598     -2642.8255      0             -2574.2296     -5.8888184    
    210600   603.97245     -2644.3648      0             -2572.3846      4.6653583    
    210800   596.17345     -2645.4942      0             -2574.4436     -4.2808539    
    211000   599.85068     -2644.6352      0             -2573.1463      2.4165685    
    211200   595.15467     -2643.9066      0             -2572.9773     -4.4006958    
    211400   619.49293     -2645.4368      0             -2571.6069      2.8570162    
    211600   606.10964     -2646.8863      0             -2574.6515     -6.0991547    
    211800   587.93397     -2645.3712      0             -2575.3025      3.5309863    
    212000   614.9214      -2645.1357      0             -2571.8507     -6.7499229    
    212200   585.52284     -2642.3875      0             -2572.6062      7.4905972    
    212400   609.84237     -2647.6606      0             -2574.9809     -6.4797528    
    212600   584.8921      -2642.5816      0             -2572.8754      4.2624804    
    212800   602.10288     -2644.81        0             -2573.0527     -3.6478928    
    213000   588.59608     -2642.284       0             -2572.1363      1.2076362    
    213200   589.89358     -2644.368       0             -2574.0657     -1.2905016    
    213400   619.65798     -2647.849       0             -2573.9995     -0.91436126   
    213600   612.03009     -2644.8953      0             -2571.9548     -2.9077198    
    213800   590.04329     -2644.4369      0             -2574.1168      1.5197294    
    214000   596.22387     -2644.9292      0             -2573.8726      0.7633383    
    214200   606.25465     -2644.5733      0             -2572.3211      3.1676657    
    214400   605.82734     -2647.0932      0             -2574.892      -4.8171096    
    214600   597.47517     -2646.3491      0             -2575.1433      3.2867058    
    214800   624.44246     -2646.1778      0             -2571.7581     -3.0939408    
    215000   600.68001     -2643.5343      0             -2571.9465     -4.6289629    
    215200   581.79588     -2642.4729      0             -2573.1357      3.3840351    
    215400   589.85164     -2644.9522      0             -2574.655       1.76556      
    215600   617.45168     -2641.0058      0             -2567.4192      0.33466026   
    215800   601.83431     -2641.5885      0             -2569.8632     -1.6919572    
    216000   587.98227     -2646.8648      0             -2576.7903      7.0893273    
    216200   607.80229     -2646.2494      0             -2573.8129     -2.6523162    
    216400   619.26841     -2642.5004      0             -2568.6973      2.728938     
    216600   610.94394     -2648.9088      0             -2576.0979     -1.0182938    
    216800   594.18973     -2647.3005      0             -2576.4862      3.4821768    
    217000   600.0207      -2640.651       0             -2569.1419      1.5762761    
    217200   601.11953     -2642.7256      0             -2571.0855     -3.5257953    
    217400   589.28452     -2646.264       0             -2576.0343      1.637236     
    217600   613.20721     -2647.0568      0             -2573.9761     -3.5572277    
    217800   617.68343     -2643.3098      0             -2569.6957     -1.8326941    
    218000   598.40381     -2644.1244      0             -2572.8079     -3.5903725    
    218200   594.99338     -2645.7591      0             -2574.849       5.5126236    
    218400   633.53964     -2647.42        0             -2571.9161      0.1757155    
    218600   624.27775     -2645.2218      0             -2570.8218      3.820905     
    218800   593.4269      -2645.5033      0             -2574.78       -3.1968428    
    219000   612.76375     -2645.9567      0             -2572.9289      0.35692715   
    219200   619.9733      -2644.724       0             -2570.8369     -2.8342167    
    219400   584.76603     -2644.74        0             -2575.0488     -5.0522666    
    219600   571.64839     -2643.5873      0             -2575.4595      1.1593173    
    219800   603.3863      -2643.6583      0             -2571.748      -5.0340554    
    220000   631.82965     -2646.6589      0             -2571.3588      2.0069529    
    220200   590.08462     -2648.7411      0             -2578.416       0.66451721   
    220400   595.16805     -2645.9005      0             -2574.9696      1.0701414    
    220600   601.20551     -2644.1078      0             -2572.4574      2.4695399    
    220800   601.11096     -2646.852       0             -2575.2129      0.041629611  
    221000   608.29        -2648.0537      0             -2575.559       0.044533588  
    221200   585.29965     -2646.3579      0             -2576.6032      0.28069568   
    221400   610.05467     -2645.2804      0             -2572.5754      2.6973924    
    221600   599.454       -2646.7321      0             -2575.2904     -1.952986     
    221800   592.93756     -2647.6432      0             -2576.9782     -0.18218536   
    222000   611.66756     -2646.3916      0             -2573.4944     -3.1242742    
    222200   633.32431     -2648.3814      0             -2572.9031     -0.02242877   
    222400   584.55235     -2645.9481      0             -2576.2824     -3.7987124    
    222600   607.72717     -2649.3597      0             -2576.9321      0.29494533   
    222800   612.52764     -2646.1195      0             -2573.1198     -2.7277685    
    223000   615.62205     -2645.3483      0             -2571.9798     -0.4891905    
    223200   579.94862     -2648.1028      0             -2578.9858      1.7074267    
    223400   569.98252     -2646.8676      0             -2578.9383     -4.2055749    
    223600   651.2548      -2645.5698      0             -2567.9546      2.9200705    
    223800   580.42271     -2645.7626      0             -2576.589      -1.2646611    
    224000   583.90774     -2649.4881      0             -2579.8992      4.5640042    
    224200   615.81798     -2644.7537      0             -2571.3618     -3.4384634    
    224400   606.65351     -2644.8654      0             -2572.5658      7.1308759    
    224600   599.43617     -2651.9344      0             -2580.4949      1.1900418    
    224800   614.4652      -2647.8961      0             -2574.6654     -2.2315158    
    225000   606.6266      -2644.2557      0             -2571.9592     -0.37596243   
    225200   600.01712     -2648.6415      0             -2577.1328      0.24399091   
    225400   588.733       -2647.3586      0             -2577.1947     -1.5301735    
    225600   617.74655     -2644.2873      0             -2570.6656      1.4346059    
    225800   584.99681     -2645.436       0             -2575.7173     -6.3805653    
    226000   582.14569     -2649.9645      0             -2580.5857      7.8442973    
    226200   625.01221     -2647.5142      0             -2573.0265     -11.238079    
    226400   622.15364     -2643.8832      0             -2569.7363      9.3993922    
    226600   573.06556     -2648.7534      0             -2580.4567     -5.1210167    
    226800   599.83797     -2647.9433      0             -2576.4559      5.5368081    
    227000   584.35647     -2642.7975      0             -2573.1551     -6.9281662    
    227200   620.14364     -2645.9112      0             -2572.0039      6.3529387    
    227400   601.04936     -2651.0928      0             -2579.461      -5.1004672    
    227600   582.02088     -2645.0089      0             -2575.6449      4.5396257    
    227800   619.25547     -2645.3323      0             -2571.5308     -2.5518916    
    228000   594.57919     -2646.3339      0             -2575.4732      3.5734283    
    228200   599.31557     -2650.8306      0             -2579.4054     -2.0887054    
    228400   633.2025      -2648.3699      0             -2572.9062      4.8256817    
    228600   615.16505     -2645.3428      0             -2572.0287      0.85368596   
    228800   582.2793      -2647.9834      0             -2578.5886      2.8333576    
    229000   600.12674     -2647.2493      0             -2575.7275      0.74294346   
    229200   603.11036     -2643.9284      0             -2572.051       2.2428983    
    229400   590.13658     -2647.0025      0             -2576.6713      2.2470061    
    229600   610.03799     -2650.2507      0             -2577.5476      6.0212722    
    229800   610.6216      -2646.7748      0             -2574.0022     -9.5952775    
    230000   638.36397     -2647.061       0             -2570.9821      7.3738166    
    230200   593.54363     -2649.5676      0             -2578.8304     -3.5215043    
    230400   599.39859     -2648.4828      0             -2577.0477      9.3692702    
    230600   579.61917     -2642.6382      0             -2573.5604     -3.7676046    
    230800   624.21613     -2647.2388      0             -2572.846       3.2491774    
    231000   588.71275     -2649.1807      0             -2579.0192     -4.9314151    
    231200   616.62508     -2647.8411      0             -2574.3531      9.7077144    
    231400   599.18588     -2645.3724      0             -2573.9627     -3.851259     
    231600   600.94345     -2646.502       0             -2574.8828      3.0651681    
    231800   589.93566     -2646.627       0             -2576.3197     -8.8895336    
    232000   611.96537     -2646.1348      0             -2573.2021      5.4336795    
    232200   578.05583     -2645.1759      0             -2576.2844      1.0497729    
    232400   577.71548     -2644.7204      0             -2575.8695      5.3337079    
    232600   588.6302      -2643.8623      0             -2573.7106     -5.1190247    
    232800   608.95954     -2647.2543      0             -2574.6798      7.5336447    
    233000   590.05446     -2648.8488      0             -2578.5273     -0.90969117   
    233200   593.2976      -2644.3684      0             -2573.6605      6.0392145    
    233400   593.57499     -2643.4129      0             -2572.6719     -2.3667833    
    233600   589.77664     -2646.8854      0             -2576.5971      9.7196404    
    233800   581.11807     -2646.1919      0             -2576.9355     -10.860419    
    234000   638.63689     -2646.4003      0             -2570.2889      9.5118309    
    234200   600.72514     -2647.0115      0             -2575.4183     -12.683629    
    234400   603.02864     -2646.9336      0             -2575.066       4.4978911    
    234600   595.10864     -2645.8542      0             -2574.9304     -9.1985004    
    234800   632.43961     -2647.367       0             -2571.9942      2.4462362    
    235000   581.8952      -2644.8853      0             -2575.5363     -7.4365476    
    235200   619.56413     -2647.7265      0             -2573.8882      2.0282759    
    235400   622.81048     -2647.6559      0             -2573.4307     -5.4361317    
    235600   601.87148     -2646.8416      0             -2575.1119      2.8334838    
    235800   621.35773     -2650.3657      0             -2576.3136     -6.4418178    
    236000   632.12438     -2649.1672      0             -2573.832       5.9752216    
    236200   605.27597     -2647.457       0             -2575.3215     -10.53505     
    236400   594.29207     -2645.4911      0             -2574.6646      2.9752472    
    236600   598.93624     -2645.5244      0             -2574.1444     -11.626216    
    236800   611.0082      -2647.2499      0             -2574.4312      11.45996     
    237000   579.27817     -2645.0728      0             -2576.0357     -9.1478396    
    237200   612.29362     -2646.7389      0             -2573.767       8.1717278    
    237400   588.86991     -2645.3629      0             -2575.1826     -7.6691647    
    237600   605.77423     -2646.6371      0             -2574.4422      7.6561418    
    237800   584.16842     -2646.7988      0             -2577.1788     -6.7141748    
    238000   590.51153     -2644.0716      0             -2573.6957      3.5854308    
    238200   581.42505     -2644.1779      0             -2574.8849     -5.1550379    
    238400   602.04165     -2648.6703      0             -2576.9202      13.423044    
    238600   600.18121     -2647.2015      0             -2575.6732     -4.2326836    
    238800   603.78318     -2642.0159      0             -2570.0583      7.5623914    
    239000   598.88113     -2647.876       0             -2576.5027     -9.3863104    
    239200   599.99817     -2649.3841      0             -2577.8776      7.2328543    
    239400   610.73784     -2645.7227      0             -2572.9362     -7.2334581    
    239600   607.43795     -2643.2964      0             -2570.9032      3.827259     
    239800   601.05152     -2649.959       0             -2578.3269     -3.2214851    
    240000   605.8966      -2648.4977      0             -2576.2882      4.5523827    
    240200   620.44952     -2644.5651      0             -2570.6212     -1.7354844    
    240400   596.95038     -2647.2226      0             -2576.0793      2.265527     
    240600   583.82023     -2649.2861      0             -2579.7077     -2.7524494    
    240800   617.6778      -2645.3815      0             -2571.768       0.21864092   
    241000   611.13868     -2644.4092      0             -2571.575      -0.61137052   
    241200   580.58573     -2643.1734      0             -2573.9804      5.0263075    
    241400   581.51455     -2647.6203      0             -2578.3167      3.3233735    
    241600   591.97043     -2645.8474      0             -2575.2976      2.8640984    
    241800   605.52777     -2644.3926      0             -2572.2271      1.8930202    
    242000   573.0659      -2645.7835      0             -2577.4868     -2.8540092    
    242200   574.30583     -2645.7493      0             -2577.3047      5.0280232    
    242400   596.67079     -2642.9763      0             -2571.8664      0.098308759  
    242600   590.15745     -2644.5019      0             -2574.1682      4.0633839    
    242800   567.2895      -2647.1277      0             -2579.5193      8.5940357    
    243000   607.09368     -2646.8401      0             -2574.488      -5.6718472    
    243200   601.35375     -2643.2942      0             -2571.6261     -0.97413831   
    243400   577.59655     -2648.4277      0             -2579.5909     -6.7874512    
    243600   585.79384     -2647.9283      0             -2578.1146      8.4268505    
    243800   610.89113     -2642.7134      0             -2569.9087     -9.6315295    
    244000   611.69677     -2646.9591      0             -2574.0584      4.2600173    
    244200   572.90236     -2648.8302      0             -2580.5529     -1.3149988    
    244400   617.95412     -2644.6419      0             -2570.9955      5.2678508    
    244600   581.1259      -2643.7205      0             -2574.4632     -5.2320239    
    244800   590.54557     -2649.0013      0             -2578.6213      10.821336    
    245000   605.25313     -2646.7926      0             -2574.6598     -6.5876101    
    245200   619.56671     -2645.2763      0             -2571.4377      4.6955169    
    245400   584.85555     -2647.8989      0             -2578.1971     -7.4335704    
    245600   602.72818     -2645.3517      0             -2573.5199      2.9946222    
    245800   606.10204     -2644.8059      0             -2572.572      -8.0925905    
    246000   615.20325     -2650.4343      0             -2577.1157      3.1436591    
    246200   580.87292     -2645.2668      0             -2576.0396     -3.5910688    
    246400   630.951       -2645.5436      0             -2570.3482      0.41461925   
    246600   605.74411     -2646.8233      0             -2574.632      -6.5089839    
    246800   585.14614     -2647.4277      0             -2577.6913      4.9337804    
    247000   611.47986     -2647.1604      0             -2574.2855     -2.8362859    
    247200   624.02951     -2646.7904      0             -2572.4199      5.8588432    
    247400   593.92729     -2649.1207      0             -2578.3378     -5.9685467    
    247600   596.69073     -2648.3448      0             -2577.2324      2.6389917    
    247800   607.5905      -2644.9891      0             -2572.5778      1.3338131    
    248000   606.95323     -2645.4153      0             -2573.0799      6.1816228    
    248200   596.12667     -2649.9962      0             -2578.9511     -3.9213324    
    248400   609.73111     -2647.462       0             -2574.7955      9.3619296    
    248600   599.29822     -2645.3758      0             -2573.9527     -9.924487     
    248800   588.25316     -2645.6673      0             -2575.5605      7.1473699    
    249000   588.91982     -2647.5028      0             -2577.3166     -12.975532    
    249200   611.44725     -2644.7213      0             -2571.8504      5.919722     
    249400   598.95704     -2646.9337      0             -2575.5513     -2.5352806    
    249600   611.69348     -2649.1221      0             -2576.2218     -0.72930327   
    249800   590.49892     -2644.6559      0             -2574.2816     -1.8906828    
    250000   652.72838     -2649.7446      0             -2571.9538      7.6177283    
    250200   582.65945     -2648.7012      0             -2579.2611     -6.1859424    
    250400   599.07509     -2648.2967      0             -2576.9002      7.9355111    
    250600   602.93617     -2644.5535      0             -2572.6968     -2.8567437    
    250800   615.13497     -2646.2203      0             -2572.9099      2.2132691    
    251000   610.54223     -2650.3483      0             -2577.5852     -1.5838323    
    251200   593.41631     -2647.5236      0             -2576.8015     -0.99816912   
    251400   618.56989     -2644.4032      0             -2570.6834      5.3593184    
    251600   615.15385     -2647.4357      0             -2574.123      -5.3190358    
    251800   595.36384     -2647.1727      0             -2576.2185      3.9502642    
    252000   621.61937     -2647.2075      0             -2573.1243     -0.64937267   
    252200   604.54767     -2645.7353      0             -2573.6866     -2.3618414    
    252400   617.44248     -2648.21        0             -2574.6245     -5.4694542    
    252600   619.17401     -2647.2594      0             -2573.4675      0.14418037   
    252800   595.06695     -2647.6051      0             -2576.6863     -1.953181     
    253000   595.50002     -2647.7513      0             -2576.7809      1.4051463    
    253200   593.42261     -2643.4211      0             -2572.6983     -1.900316     
    253400   610.11631     -2647.3054      0             -2574.593       10.418189    
    253600   595.46726     -2648.9         0             -2577.9335     -5.7535513    
    253800   618.8716      -2645.5545      0             -2571.7987      9.7807778    
    254000   572.64468     -2644.5851      0             -2576.3386     -10.906738    
    254200   608.76347     -2650.1241      0             -2577.573       8.0788285    
    254400   570.91315     -2641.7051      0             -2573.6649     -2.1244359    
    254600   628.47566     -2646.1004      0             -2571.2         5.1641441    
    254800   574.5539      -2647.8295      0             -2579.3554     -3.0586838    
    255000   596.07477     -2649.0509      0             -2578.012       2.9449487    
    255200   606.44916     -2642.5239      0             -2570.2486     -3.1800441    
    255400   602.5799      -2644.2874      0             -2572.4732      5.1413205    
    255600   581.67485     -2649.2766      0             -2579.9538     -7.7255023    
    255800   618.04643     -2647.7752      0             -2574.1177      0.12851929   
    256000   604.57401     -2644.037       0             -2571.9852     -2.2551303    
    256200   609.73997     -2647.4139      0             -2574.7464     -0.29654091   
    256400   575.02345     -2646.4308      0             -2577.9008      2.3490173    
    256600   627.90961     -2646.5928      0             -2571.7599      5.1165071    
    256800   619.22886     -2646.6695      0             -2572.8711     -2.4806343    
    257000   611.47734     -2649.636       0             -2576.7614      9.7602503    
    257200   597.76485     -2649.0733      0             -2577.8329     -11.590471    
    257400   604.65759     -2642.8948      0             -2570.833       4.9281201    
    257600   597.0719      -2646.4156      0             -2575.2579     -5.959401     
    257800   601.53282     -2650.8339      0             -2579.1446      11.609626    
    258000   585.18679     -2642.9477      0             -2573.2064     -10.037248    
    258200   605.20364     -2641.6601      0             -2569.5333      11.026327    
    258400   560.96383     -2649.1512      0             -2582.2967     -1.3658942    
    258600   599.77108     -2647.0034      0             -2575.524       3.8724191    
    258800   626.01711     -2642.7928      0             -2568.1855      2.3431618    
    259000   593.02168     -2649.4749      0             -2578.7999      5.3701175    
    259200   599.23195     -2650.9468      0             -2579.5316     -0.61026426   
    259400   600.18493     -2640.8563      0             -2569.3275      5.8424202    
    259600   613.88085     -2646.077       0             -2572.9159     -3.4030613    
    259800   596.21815     -2651.805       0             -2580.749      -2.9934203    
    260000   605.68894     -2645.1806      0             -2572.9959     -3.7845197    
    260200   633.76653     -2642.5017      0             -2566.9708     -1.510314     
    260400   606.69317     -2652.9496      0             -2580.6452      0.14489718   
    260600   586.9767      -2649.8389      0             -2579.8843      8.1710164    
    260800   603.30064     -2640.8221      0             -2568.9221      2.3565781    
    261000   599.84094     -2644.0852      0             -2572.5975     -3.1132699    
    261200   581.28373     -2650.7223      0             -2581.4462      3.5909445    
    261400   625.99926     -2647.9623      0             -2573.3571      3.9015481    
    261600   603.37192     -2639.9258      0             -2568.0172     -9.0496899    
    261800   586.80704     -2649.6145      0             -2579.6801      8.4322718    
    262000   571.73386     -2648.0405      0             -2579.9025     -6.5414806    
    262200   618.47726     -2639.8223      0             -2566.1135      1.4146683    
    262400   602.65546     -2646.7536      0             -2574.9304     -5.3248078    
    262600   564.71557     -2650.7441      0             -2583.4425      0.64286434   
    262800   590.21611     -2643.1438      0             -2572.8031     -2.3939486    
    263000   642.02008     -2642.7535      0             -2566.2389      4.0973338    
    263200   569.06557     -2650.7641      0             -2582.944      -2.4088523    
    263400   607.66744     -2649.2071      0             -2576.7866      4.1517158    
    263600   626.59306     -2642.1922      0             -2567.5162     -5.6226461    
    263800   630.99152     -2651.4252      0             -2576.225      -0.76676125   
    264000   570.51624     -2651.455       0             -2583.4621     -2.8303917    
    264200   610.72235     -2642.0912      0             -2569.3066     -1.0773606    
    264400   601.15437     -2642.5465      0             -2570.9022     -2.6252586    
    264600   608.39053     -2654.3979      0             -2581.8912     -0.54461182   
    264800   585.67358     -2645.6969      0             -2575.8975     -0.45218992   
    265000   624.02143     -2642.5772      0             -2568.2077      3.3959848    
    265200   576.92323     -2647.6903      0             -2578.9338     -2.2042341    
    265400   576.85096     -2648.1907      0             -2579.4429      2.8773702    
    265600   598.4915      -2642.3799      0             -2571.053      -10.164317    
    265800   611.41312     -2644.1064      0             -2571.2395      4.5678552    
    266000   554.62985     -2646.1681      0             -2580.0685     -2.3533498    
    266200   612.63335     -2648.0992      0             -2575.0868      4.6657423    
    266400   646.48682     -2645.5865      0             -2568.5396     -5.5335123    
    266600   584.0827      -2644.723       0             -2575.1133      6.5381421    
    266800   581.61406     -2650.5237      0             -2581.2082     -7.6468026    
    267000   625.47286     -2643.2685      0             -2568.726       7.7122844    
    267200   606.4137      -2646.0334      0             -2573.7624     -4.3553443    
    267400   567.70822     -2650.0751      0             -2582.4169      8.4442553    
    267600   621.55285     -2645.0195      0             -2570.9442     -0.86597826   
    267800   628.28028     -2644.2998      0             -2569.4227     -1.12087      
    268000   572.07751     -2651.0162      0             -2582.8373     -2.2688881    
    268200   604.44709     -2647.3524      0             -2575.3157     -5.1102351    
    268400   622.06017     -2640.9417      0             -2566.8059      1.9472607    
    268600   599.53093     -2647.9248      0             -2576.474      -0.10759307   
    268800   579.38703     -2650.9197      0             -2581.8696      2.1640302    
    269000   604.18194     -2642.0666      0             -2570.0615     -0.2173538    
    269200   629.98727     -2644.1293      0             -2569.0488      1.437922     
    269400   564.19465     -2650.6689      0             -2583.4294     -2.1813732    
    269600   597.26189     -2645.9914      0             -2574.811       5.8577319    
    269800   633.84435     -2640.9455      0             -2565.4053     -5.5846891    
    270000   585.31327     -2647.2371      0             -2577.4808      3.0739667    
    270200   574.42915     -2649.8503      0             -2581.3911     -1.4624953    
    270400   615.21306     -2641.5117      0             -2568.1919      0.90596137   
    270600   585.91696     -2642.6426      0             -2572.8143      0.96900085   
    270800   571.28405     -2646.7026      0             -2578.6182      3.543281     
    271000   606.47874     -2644.1878      0             -2571.909       0.59599618   
    271200   598.22996     -2642.6123      0             -2571.3166      1.7505055    
    271400   590.47177     -2645.175       0             -2574.8038     -1.7313949    
    271600   607.93296     -2644.5433      0             -2572.0912      1.5081077    
    271800   590.54804     -2644.7977      0             -2574.4175     -3.0616624    
    272000   588.54275     -2646.4123      0             -2576.271      -1.6705353    
    272200   593.38922     -2644.9404      0             -2574.2216     -3.9983291    
    272400   636.35593     -2643.4452      0             -2567.6057      0.28732263   
    272600   583.85762     -2648.2955      0             -2578.7126     -4.6656898    
    272800   605.22826     -2647.8916      0             -2575.7618      4.5070055    
    273000   608.16726     -2642.211       0             -2569.7309     -1.2079425    
    273200   587.5895      -2647.484       0             -2577.4563      1.904862     
    273400   592.46765     -2647.8697      0             -2577.2607     -2.5237267    
    273600   633.88692     -2642.0288      0             -2566.4836     -1.8103319    
    273800   577.22306     -2645.346       0             -2576.5538     -2.5646056    
    274000   562.64985     -2648.652       0             -2581.5966      1.5542762    
    274200   620.20854     -2644.2044      0             -2570.2893     -4.0908983    
    274400   597.70252     -2641.8549      0             -2570.622      -1.9114763    
    274600   586.57641     -2647.3995      0             -2577.4926      0.79646402   
    274800   593.59084     -2644.8028      0             -2574.0599     -0.99449291   
    275000   588.79176     -2641.5318      0             -2571.3609      3.8896241    
    275200   594.03112     -2646.8153      0             -2576.0199      5.0805076    
    275400   588.29366     -2645.9635      0             -2575.8519     -0.8284542    
    275600   605.67805     -2643.4038      0             -2571.2204      4.9625714    
    275800   579.79476     -2644.0408      0             -2574.9421     -6.0303049    
    276000   571.63304     -2644.2335      0             -2576.1075      6.5488261    
    276200   584.10207     -2643.2072      0             -2573.5952     -3.9352559    
    276400   602.19237     -2647.1066      0             -2575.3386      6.7496179    
    276600   582.22136     -2644.8803      0             -2575.4924     -5.5894656    
    276800   616.8606      -2645.9987      0             -2572.4826      3.6760315    
    277000   589.16929     -2647.1854      0             -2576.9695     -6.5891155    
    277200   606.04113     -2647.1843      0             -2574.9576      6.7698872    
    277400   595.93809     -2642.9776      0             -2571.955      -4.7278823    
    277600   598.29951     -2646.5081      0             -2575.204       0.77150347   
    277800   603.38506     -2648.5842      0             -2576.6741     -0.76738577   
    278000   617.4917      -2646.211       0             -2572.6197      2.6081939    
    278200   597.49947     -2644.2543      0             -2573.0456     -6.2628829    
    278400   579.31493     -2645.7328      0             -2576.6913      4.0089995    
    278600   569.66465     -2644.6034      0             -2576.712      -1.0040395    
    278800   614.22232     -2644.7143      0             -2571.5126      2.9943507    
    279000   585.57844     -2645.2079      0             -2575.42       -8.7342587    
    279200   613.95025     -2649.3436      0             -2576.1743      5.2347943    
    279400   612.84265     -2648.3102      0             -2575.2729     -8.1360632    
    279600   601.2063      -2644.6138      0             -2572.9634      8.0012628    
    279800   598.25138     -2647.8874      0             -2576.5891     -6.7908       
    280000   590.53619     -2646.0125      0             -2575.6337      3.6109564    
    280200   601.91388     -2645.3992      0             -2573.6644     -3.2911392    
    280400   609.82346     -2645.436       0             -2572.7586     -1.7293031    
    280600   601.00029     -2648.8544      0             -2577.2284      1.7486456    
    280800   581.7436      -2646.5027      0             -2577.1717     -2.9358702    
    281000   614.50432     -2643.7993      0             -2570.564       1.1790001    
    281200   608.45743     -2647.9861      0             -2575.4715     -2.2531663    
    281400   594.64088     -2649.5977      0             -2578.7297      5.9194919    
    281600   593.25354     -2643.5109      0             -2572.8082     -4.6435729    
    281800   598.33095     -2642.1906      0             -2570.8828      8.1786407    
    282000   595.97041     -2649.7997      0             -2578.7733     -5.8642684    
    282200   590.72218     -2646.3052      0             -2575.9042      9.6683107    
    282400   615.09625     -2644.9773      0             -2571.6714     -8.9498046    
    282600   600.57078     -2646.0759      0             -2574.5011      3.2995167    
    282800   573.89437     -2649.8641      0             -2581.4686     -6.5029638    
    283000   613.24768     -2642.964       0             -2569.8784      1.4002872    
    283200   600.84551     -2641.24        0             -2569.6325     -4.6207559    
    283400   585.54485     -2649.8094      0             -2580.0255      7.3427891    
    283600   608.48531     -2650.8848      0             -2578.3668     -5.4544837    
    283800   639.64872     -2642.1365      0             -2565.9046      9.6119802    
    284000   594.39024     -2647.0196      0             -2576.1814     -4.781538     
    284200   578.0673      -2649.9422      0             -2581.0494      12.069315    
    284400   600.54171     -2643.9934      0             -2572.4221     -2.8778364    
    284600   613.1422      -2642.4169      0             -2569.3439      3.7076146    
    284800   581.51814     -2649.1325      0             -2579.8284     -3.6859471    
    285000   605.38534     -2649.32        0             -2577.1714      2.2467278    
    285200   637.82102     -2644.7974      0             -2568.7833     -8.2002357    
    285400   590.7561      -2646.562       0             -2576.157      -0.35647682   
    285600   579.55096     -2648.9123      0             -2579.8427     -2.8338966    
    285800   639.70834     -2643.2811      0             -2567.0421      4.1845247    
    286000   615.28829     -2646.9601      0             -2573.6313     -11.607411    
    286200   577.9976      -2647.2966      0             -2578.4121      8.2032826    
    286400   599.27911     -2647.7291      0             -2576.3083     -11.010288    
    286600   648.37815     -2647.6483      0             -2570.376       8.0133017    
    286800   582.31866     -2647.3176      0             -2577.9181     -7.9719613    
    287000   606.5828      -2647.0499      0             -2574.7587      7.9007069    
    287200   619.69122     -2646.3421      0             -2572.4886     -3.6837173    
    287400   615.15689     -2647.5354      0             -2574.2223      6.974679     
    287600   594.86463     -2648.4381      0             -2577.5434     -5.1193011    
    287800   612.96063     -2645.322       0             -2572.2706      9.8332894    
    288000   607.29925     -2647.4702      0             -2575.0936     -7.223769     
    288200   606.7085      -2647.8107      0             -2575.5045      7.6401251    
    288400   604.70907     -2645.3883      0             -2573.3204     -10.171628    
    288600   599.54481     -2644.7052      0             -2573.2527      10.590277    
    288800   573.89801     -2647.8235      0             -2579.4276     -7.5314097    
    289000   609.78538     -2643.956       0             -2571.2831      12.01425     
    289200   594.90484     -2645.845       0             -2574.9455     -9.283877     
    289400   590.71412     -2646.1189      0             -2575.7189      4.306427     
    289600   613.4599      -2647.1347      0             -2574.0238     -5.8039107    
    289800   611.42697     -2646.2675      0             -2573.399      -1.3389817    
    290000   581.82863     -2645.4944      0             -2576.1534     -3.6298634    
    290200   610.65734     -2646.3259      0             -2573.5491      5.35858      
    290400   601.33547     -2646.2946      0             -2574.6288      5.3449943    
    290600   613.24477     -2647.7496      0             -2574.6644     -0.62028854   
    290800   610.77423     -2645.7274      0             -2572.9366     -2.871607     
    291000   594.74788     -2645.4756      0             -2574.5948      2.9872882    
    291200   599.31841     -2647.8934      0             -2576.468      -1.968021     
    291400   577.35599     -2642.1777      0             -2573.3696     -2.0278681    
    291600   622.4122      -2646.0527      0             -2571.8749      7.9521888    
    291800   578.84229     -2648.0675      0             -2579.0823     -2.228461     
    292000   599.46999     -2644.646       0             -2573.2024      3.3299114    
    292200   589.08412     -2641.2002      0             -2570.9944     -5.5069497    
    292400   600.30126     -2648.8722      0             -2577.3296      0.066816564  
    292600   580.69552     -2645.5557      0             -2576.3497     -0.042210405  
    292800   607.09624     -2641.8697      0             -2569.5172      2.465689     
    293000   585.92375     -2643.4005      0             -2573.5714      4.3492985    
    293200   578.33067     -2649.7795      0             -2580.8553      0.66634437   
    293400   623.11531     -2647.0113      0             -2572.7498      2.231317     
    293600   625.18045     -2642.7135      0             -2568.2059     -4.5736171    
    293800   605.88164     -2650.0207      0             -2577.8131      2.2663311    
    294000   606.71247     -2651.9178      0             -2579.6111      1.1927394    
    294200   631.51536     -2644.4013      0             -2569.1386     -1.3529608    
    294400   591.16308     -2644.8036      0             -2574.3501     -5.637015     
    294600   585.70163     -2649.3371      0             -2579.5344      6.4001748    
    294800   601.00961     -2645.5099      0             -2573.8829     -3.7469006    
    295000   628.12316     -2644.3622      0             -2569.5038     -2.9213139    
    295200   586.28858     -2648.1624      0             -2578.2898     -3.8522354    
    295400   592.01204     -2648.0577      0             -2577.503       5.6118125    
    295600   624.27289     -2644.6545      0             -2570.2549     -3.6321404    
    295800   580.00764     -2643.9699      0             -2574.8458      0.41121527   
    296000   568.00765     -2646.3581      0             -2578.6642     -2.4253179    
    296200   612.15226     -2645.9236      0             -2572.9686      0.45785041   
    296400   620.83593     -2644.9597      0             -2570.9699     -3.2472976    
    296600   584.54661     -2646.3759      0             -2576.7109     -1.0908387    
    296800   575.85448     -2645.5828      0             -2576.9537     -1.4834381    
    297000   649.95564     -2646.3693      0             -2568.909      -0.67442895   
    297200   596.86095     -2646.7763      0             -2575.6436     -0.99156456   
    297400   585.01936     -2648.7185      0             -2578.9971      5.2486822    
    297600   636.99283     -2646.2137      0             -2570.2983     -2.6061581    
    297800   611.02431     -2647.1322      0             -2574.3116      1.1431719    
    298000   595.42406     -2651.5205      0             -2580.5592     -2.6647125    
    298200   617.78968     -2646.4294      0             -2572.8025     -3.6061907    
    298400   592.1969      -2640.5094      0             -2569.9326      3.3239781    
    298600   583.49687     -2647.7051      0             -2578.1652      2.2493617    
    298800   593.62878     -2648.1853      0             -2577.4379      3.403321     
    299000   623.00925     -2644.2038      0             -2569.9549      2.9672245    
    299200   592.77757     -2643.8518      0             -2573.2059     -4.8157652    
    299400   594.84491     -2648.1991      0             -2577.3068      3.4846957    
    299600   587.04104     -2644.5912      0             -2574.6289     -3.385083     
    299800   635.90838     -2646.179       0             -2570.3928      1.8205044    
    300000   575.38548     -2646.7109      0             -2578.1377     -4.0375036    
    300200   581.60142     -2643.4421      0             -2574.1281      6.1678063    
    300400   601.40155     -2642.6287      0             -2570.955      -2.8178014    
    300600   607.75063     -2648.1372      0             -2575.7068      6.9099695    
    300800   588.82674     -2649.7747      0             -2579.5996     -7.1795508    
    301000   601.47882     -2643.6777      0             -2571.9947      7.2739297    
    301200   607.83555     -2645.4896      0             -2573.0491     -9.343525     
    301400   597.48289     -2649.1327      0             -2577.926       6.0463723    
    301600   579.55963     -2647.0868      0             -2578.0161     -3.7226381    
    301800   622.55263     -2646.2817      0             -2572.0872      1.4904711    
    302000   608.12531     -2647.6778      0             -2575.2027     -5.4157137    
    302200   559.35567     -2643.102       0             -2576.4392      8.0746438    
    302400   597.97692     -2643.5946      0             -2572.329      -5.8501501    
    302600   626.54686     -2649.6011      0             -2574.9306      4.7921626    
    302800   604.32079     -2649.8673      0             -2577.8456     -8.1523953    
    303000   607.67074     -2645.7676      0             -2573.3468      4.8590922    
    303200   609.17131     -2646.9806      0             -2574.3809     -2.3391755    
    303400   606.15607     -2651.1135      0             -2578.8731     -3.4475217    
    303600   603.03548     -2646.2753      0             -2574.4068      1.9740383    
    303800   599.68454     -2643.8269      0             -2572.3577     -1.2941798    
    304000   578.79574     -2647.1742      0             -2578.1945     -4.6082656    
    304200   588.38602     -2647.0157      0             -2576.8931     -0.52352472   
    304400   596.57463     -2644.2689      0             -2573.1704      0.31943398   
    304600   609.11292     -2645.3277      0             -2572.7349      3.2391686    
    304800   597.04339     -2649.8361      0             -2578.6817     -2.778748     
    305000   592.13136     -2645.3047      0             -2574.7358     -0.4426704    
    305200   636.37113     -2646.2806      0             -2570.4392     -5.0360151    
    305400   600.26465     -2649.2281      0             -2577.6898      0.72561778   
    305600   581.87898     -2645.8145      0             -2576.4674      4.4452434    
    305800   620.26643     -2646.7488      0             -2572.8268     -2.9116012    
    306000   605.86903     -2648.214       0             -2576.0079     -4.0811947    
    306200   616.01018     -2649.9444      0             -2576.5297      0.27222285   
    306400   602.7041      -2645.7247      0             -2573.8957     -2.7954912    
    306600   611.80784     -2645.0138      0             -2572.0999      3.4220953    
    306800   583.72098     -2646.7947      0             -2577.2281     -0.94378306   
    307000   624.95734     -2648.3757      0             -2573.8947      4.4135331    
    307200   608.49377     -2645.9882      0             -2573.4692     -3.9654522    
    307400   585.07238     -2645.0308      0             -2575.3031      3.7836006    
    307600   597.05558     -2645.3489      0             -2574.1931     -4.0425559    
    307800   586.82468     -2644.9833      0             -2575.0468      4.6786877    
    308000   588.96866     -2646.4139      0             -2576.2219     -3.2120874    
    308200   604.08336     -2646.5623      0             -2574.5689      1.9152912    
    308400   597.38702     -2645.2892      0             -2574.0939     -1.1369418    
    308600   603.23566     -2646.7119      0             -2574.8196     -0.9418351    
    308800   612.09212     -2647.6821      0             -2574.7342      1.090826     
    309000   596.44784     -2645.4948      0             -2574.4114      0.36928932   
    309200   600.09602     -2647.8867      0             -2576.3685     -0.061572124  
    309400   612.58456     -2647.6298      0             -2574.6232     -6.1870821    
    309600   588.23989     -2643.3858      0             -2573.2806      0.046362369  
    309800   596.32999     -2647.0109      0             -2575.9416      1.3725092    
    310000   595.7943      -2646.8218      0             -2575.8163     -6.9933388    
    310200   594.85331     -2643.0231      0             -2572.1298      4.8270597    
    310400   591.56723     -2645.4789      0             -2574.9772     -9.1490138    
    310600   593.97258     -2646.7642      0             -2575.9758      2.8658601    
    310800   585.06279     -2645.4219      0             -2575.6953     -6.9193634    
    311000   594.17134     -2642.3695      0             -2571.5574      2.5742673    
    311200   605.19483     -2647.2772      0             -2575.1514     -1.6664923    
    311400   591.01305     -2649.1759      0             -2578.7402      6.4056169    
    311600   605.43707     -2646.3752      0             -2574.2205      2.1247325    
    311800   603.82217     -2642.0295      0             -2570.0673     -1.4144212    
    312000   590.68541     -2647.4986      0             -2577.102       3.7447766    
    312200   596.9474      -2649.3476      0             -2578.2047      0.72104554   
    312400   605.52272     -2643.7707      0             -2571.6058      2.1914359    
    312600   599.86563     -2646.2551      0             -2574.7645     -2.2962078    
    312800   595.76931     -2649.6654      0             -2578.6629      2.1690635    
    313000   595.33932     -2645.4606      0             -2574.5094     -2.2227618    
    313200   624.29693     -2644.6046      0             -2570.2022      6.2593847    
    313400   573.59426     -2647.4465      0             -2579.0867     -6.69224      
    313600   603.015       -2648.9869      0             -2577.1208      7.326185     
    313800   584.04703     -2640.8255      0             -2571.22       -3.5674309    
    314000   625.13732     -2647.2843      0             -2572.7817      5.709794     
    314200   587.38435     -2649.2278      0             -2579.2246     -3.8589114    
    314400   618.0689      -2646.724       0             -2573.0639      5.3377679    
    314600   604.30586     -2645.4797      0             -2573.4598     -4.8595128    
    314800   609.67796     -2649.435       0             -2576.7749      4.5488614    
    315000   600.01186     -2644.5886      0             -2573.0805     -4.1198097    
    315200   621.365       -2646.2325      0             -2572.1795      3.8161158    
    315400   592.17867     -2649.2277      0             -2578.6531     -8.0588251    
    315600   614.31958     -2647.453       0             -2574.2397      5.3401454    
    315800   602.45694     -2643.7535      0             -2571.954      -4.2616521    
    316000   608.47394     -2648.0422      0             -2575.5256      5.2593925    
    316200   600.47894     -2649.0648      0             -2577.501      -0.98432117   
    316400   593.71219     -2643.7442      0             -2572.9869     -2.0131855    
    316600   632.40719     -2647.5077      0             -2572.1388     -1.5963671    
    316800   593.27215     -2648.9296      0             -2578.2247     -1.4375247    
    317000   584.24554     -2646.3286      0             -2576.6995     -2.9826334    
    317200   609.32169     -2643.6774      0             -2571.0597      0.60261093   
    317400   597.9551      -2647.1853      0             -2575.9222     -0.37157397   
    317600   593.88874     -2650.0458      0             -2579.2675      4.094796     
    317800   613.38529     -2647.405       0             -2574.3031      2.9604153    
    318000   592.75668     -2643.5962      0             -2572.9527      5.312294     
    318200   578.7805      -2644.1273      0             -2575.1494      1.4735131    
    318400   596.10347     -2646.1858      0             -2575.1435     -1.6503726    
    318600   606.98558     -2647.4066      0             -2575.0674     -3.559009     
    318800   596.77115     -2646.589       0             -2575.4671      0.90610189   
    319000   604.9732      -2647.9282      0             -2575.8288     -4.9005271    
    319200   594.51791     -2645.9504      0             -2575.097       0.72124851   
    319400   607.52745     -2647.493       0             -2575.0892     -5.2693923    
    319600   589.71882     -2647.1923      0             -2576.9109      0.78991781   
    319800   590.52678     -2646.681       0             -2576.3033     -2.8242102    
    320000   588.11383     -2642.9712      0             -2572.881       2.321358     
    320200   600.37138     -2648.6624      0             -2577.1114      3.0260798    
    320400   595.74198     -2649.0822      0             -2578.083       6.75265      
    320600   603.77754     -2645.6549      0             -2573.6979     -2.8806123    
    320800   602.09137     -2646.0596      0             -2574.3036      5.5992823    
    321000   598.30692     -2650.3491      0             -2579.0441     -2.9027689    
    321200   613.44074     -2648.3528      0             -2575.2442      4.0099909    
    321400   625.81553     -2646.9491      0             -2572.3658     -5.811602     
    321600   586.45371     -2649.5918      0             -2579.6995      1.3675095    
    321800   595.78699     -2650.0061      0             -2579.0015     -0.95964257   
    322000   614.5286      -2642.9909      0             -2569.7527     -4.3872333    
    322200   608.14514     -2646.0847      0             -2573.6073      0.33978051   
    322400   546.78449     -2648.0598      0             -2582.8952      4.8149116    
    322600   607.01625     -2647.6349      0             -2575.292       0.39782706   
    322800   619.77678     -2644.6278      0             -2570.7642     -6.1967418    
    323000   594.78705     -2650.2065      0             -2579.3211      5.8213406    
    323200   594.07312     -2650.6382      0             -2579.8378     -4.4978066    
    323400   637.46563     -2646.8818      0             -2570.91       -2.626422     
    323600   584.70299     -2645.2215      0             -2575.5378     -0.73515301   
    323800   569.96466     -2649.5219      0             -2581.5947     -2.5537244    
    324000   606.98188     -2647.6138      0             -2575.275       0.15568508   
    324200   622.3319      -2645.1619      0             -2570.9937      3.8471396    
    324400   577.91665     -2648.3538      0             -2579.4789     -5.7805342    
    324600   592.77282     -2649.2426      0             -2578.5973      4.815455     
    324800   609.35378     -2644.2473      0             -2571.6258     -7.0927963    
    325000   584.46387     -2645.7029      0             -2576.0478      2.1900089    
    325200   598.93237     -2651.397       0             -2580.0175     -0.31402516   
    325400   632.85657     -2648.381       0             -2572.9585      4.1243128    
    325600   601.89358     -2646.05        0             -2574.3176     -7.8107378    
    325800   589.23818     -2649.6788      0             -2579.4547      4.3926774    
    326000   588.68359     -2648.4732      0             -2578.3152     -3.9717001    
    326200   604.60721     -2644.8306      0             -2572.7749      8.3862134    
    326400   599.07735     -2648.3893      0             -2576.9926     -4.4523569    
    326600   594.94331     -2648.9166      0             -2578.0126      5.9034663    
    326800   594.26397     -2648.086       0             -2577.2629     -6.2206838    
    327000   597.53382     -2643.9571      0             -2572.7443      2.3122847    
    327200   610.34376     -2647.676       0             -2574.9366      5.4273555    
    327400   606.9034      -2652.393       0             -2580.0635      1.711958     
    327600   602.16984     -2646.7903      0             -2575.025      -1.3294785    
    327800   628.97327     -2646.2935      0             -2571.3338     -4.4403003    
    328000   592.84252     -2648.6485      0             -2577.9948      8.1550605    
    328200   593.00248     -2651.6014      0             -2580.9286      1.9211382    
    328400   626.41139     -2646.6647      0             -2572.0103     -11.180525    
    328600   627.40963     -2646.6525      0             -2571.8792      5.2177084    
    328800   596.11964     -2652.3294      0             -2581.2852     -4.0192297    
    329000   594.74743     -2646.3881      0             -2575.5074      6.3674642    
    329200   634.06136     -2647.1289      0             -2571.5628     -11.450638    
    329400   591.37358     -2648.5647      0             -2578.086       10.398299    
    329600   568.13455     -2648.108       0             -2580.3989     -3.8497486    
    329800   626.16967     -2644.5244      0             -2569.8988      4.6150876    
    330000   603.62854     -2643.2205      0             -2571.2814     -12.353962    
    330200   595.81149     -2651.8919      0             -2580.8844      7.1383853    
    330400   574.42733     -2648.9373      0             -2580.4783     -5.2206757    
    330600   613.09158     -2641.3914      0             -2568.3244      7.3965256    
    330800   596.95682     -2646.4417      0             -2575.2977     -9.0703543    
    331000   586.01104     -2650.1746      0             -2580.335       8.6775716    
    331200   584.90039     -2645.1605      0             -2575.4533     -5.5076203    
    331400   603.36321     -2643.7149      0             -2571.8074      3.9299709    
    331600   596.79727     -2648.9495      0             -2577.8245     -7.1289157    
    331800   569.37439     -2647.0696      0             -2579.2128      7.1193915    
    332000   588.97091     -2644.602       0             -2574.4097     -3.7729855    
    332200   615.83198     -2648.6361      0             -2575.2425      0.86741335   
    332400   587.6017      -2650.1379      0             -2580.1088     -5.1304181    
    332600   621.8065      -2648.7357      0             -2574.6301     -5.3723078    
    332800   600.47801     -2645.733       0             -2574.1694     -6.304906     
    333000   586.20915     -2648.5316      0             -2578.6685      3.1813902    
    333200   621.89396     -2652.3288      0             -2578.2128     -4.9402739    
    333400   587.86567     -2644.1727      0             -2574.1121      5.2889702    
    333600   593.12215     -2645.8676      0             -2575.1806     -1.3859245    
    333800   601.99341     -2651.1421      0             -2579.3979      4.0102075    
    334000   616.82985     -2649.4743      0             -2575.9618     -3.9637964    
    334200   622.12881     -2648.3398      0             -2574.1958     -1.028538     
    334400   596.27755     -2649.2904      0             -2578.2273     -1.5546251    
    334600   607.42171     -2650.0952      0             -2577.704       5.447289     
    334800   618.91533     -2646.7824      0             -2573.0214     -5.0101614    
    335000   611.00766     -2648.0439      0             -2575.2254      8.3805371    
    335200   571.65116     -2649.1136      0             -2580.9854     -3.9296386    
    335400   617.59159     -2649.4781      0             -2575.8749      3.4221944    
    335600   613.42077     -2647.1423      0             -2574.0362     -3.9375889    
    335800   618.68322     -2647.5906      0             -2573.8573      6.0190558    
    336000   590.87232     -2651.1473      0             -2580.7284     -8.4755062    
    336200   581.04543     -2647.9597      0             -2578.712       1.7658949    
    336400   613.01127     -2643.3273      0             -2570.2699     -8.9857092    
    336600   608.58747     -2646.9397      0             -2574.4095      1.3550275    
    336800   558.15263     -2648.8636      0             -2582.3441     -3.9402187    
    337000   616.97143     -2646.5628      0             -2573.0334      3.8171756    
    337200   613.31306     -2644.9312      0             -2571.8379     -5.5114148    
    337400   586.37141     -2648.9617      0             -2579.0792      8.2828313    
    337600   579.15274     -2649.081       0             -2580.0589     -7.7035794    
    337800   642.71169     -2646.8746      0             -2570.2776      3.8275823    
    338000   604.02041     -2649.5892      0             -2577.6033     -6.5963989    
    338200   588.93458     -2651.8253      0             -2581.6374      1.7888556    
    338400   604.40849     -2646.27        0             -2574.2379     -5.9805713    
    338600   608.58104     -2645.7261      0             -2573.1967      2.8619037    
    338800   570.21611     -2647.9526      0             -2579.9954      5.3135717    
    339000   584.23386     -2648.5666      0             -2578.9389     -0.79262098   
    339200   595.05038     -2643.746       0             -2572.8292     -2.5245253    
    339400   607.51339     -2647.4267      0             -2575.0246      3.7389192    
    339600   580.79544     -2649.7886      0             -2580.5707     -1.3398055    
    339800   624.61135     -2647.9613      0             -2573.5215      2.7062862    
    340000   592.08422     -2645.5526      0             -2574.9893     -0.82655177   
    340200   586.936       -2649.3282      0             -2579.3785      0.19372671   
    340400   621.76655     -2650.1044      0             -2576.0036     -0.28264704   
    340600   622.5187      -2646.5421      0             -2572.3517      0.51633964   
    340800   602.27036     -2648.7002      0             -2576.9229     -0.89202734   
    341000   608.05569     -2651.0112      0             -2578.5444     -2.2597151    
    341200   613.36178     -2648.2408      0             -2575.1416     -4.101141     
    341400   617.19766     -2646.6397      0             -2573.0834      2.6197024    
    341600   597.79921     -2649.7164      0             -2578.4719      0.6381284    
    341800   587.01348     -2649.1073      0             -2579.1483      2.7148246    
    342000   614.60774     -2645.0264      0             -2571.7788      7.6711784    
    342200   602.29089     -2647.0987      0             -2575.3189     -1.876259     
    342400   585.54151     -2649.0451      0             -2579.2615     -0.27633636   
    342600   597.7751      -2645.6076      0             -2574.366      -2.9864151    
    342800   608.66878     -2647.5941      0             -2575.0542      1.7490903    
    343000   600.72186     -2649.2503      0             -2577.6576      4.0510614    
    343200   606.09122     -2649.4358      0             -2577.2031     -1.5246229    
    343400   585.85679     -2646.8992      0             -2577.0781      2.5684785    
    343600   586.58823     -2646.0556      0             -2576.1473     -3.2181116    
    343800   616.70413     -2648.9398      0             -2575.4423      3.2092777    
    344000   586.67862     -2648.6174      0             -2578.6983     -3.3977602    
    344200   629.77097     -2648.7005      0             -2573.6458      1.9327471    
    344400   626.23226     -2648.6134      0             -2573.9804     -5.5521916    
    344600   595.71576     -2649.0685      0             -2578.0724      1.8766941    
    344800   588.47718     -2648.1422      0             -2578.0087     -1.8113085    
    345000   610.56534     -2647.1731      0             -2574.4073     -0.70872856   
    345200   579.3679      -2644.8352      0             -2575.7874      4.083433     
    345400   579.23844     -2647.6993      0             -2578.6669      0.74950137   
    345600   591.22694     -2645.9779      0             -2575.5167      3.890447     
    345800   618.61825     -2646.724       0             -2572.9985     -4.581258     
    346000   594.11193     -2646.9992      0             -2576.1942      9.3302257    
    346200   577.21685     -2644.9009      0             -2576.1094      0.98697422   
    346400   618.95955     -2647.1974      0             -2573.4311      1.4459186    
    346600   599.68386     -2649.6264      0             -2578.1574     -2.0655175    
    346800   602.19629     -2647.6871      0             -2575.9186      3.4552005    
    347000   611.202       -2647.7468      0             -2574.9051     -6.3821407    
    347200   609.50212     -2649.1275      0             -2576.4884      1.4389929    
    347400   617.37798     -2651.4626      0             -2577.8848     -3.3726785    
    347600   610.49887     -2647.5137      0             -2574.7558      3.3415155    
    347800   586.21238     -2647.5236      0             -2577.66       -9.3292564    
    348000   588.37042     -2644.5761      0             -2574.4554     -0.70062342   
    348200   588.73845     -2644.8837      0             -2574.7191     -1.9911901    
    348400   590.74053     -2648.2128      0             -2577.8096      0.57397865   
    348600   595.8781      -2649.3611      0             -2578.3456     -6.5148996    
    348800   599.56097     -2645.2853      0             -2573.8309      3.5356165    
    349000   584.01794     -2644.1583      0             -2574.5563      5.9924086    
    349200   582.55651     -2648.9796      0             -2579.5518      5.2046633    
    349400   584.44578     -2647.4249      0             -2577.772       1.2712985    
    349600   607.74136     -2645.6765      0             -2573.2472      0.25859078   
    349800   598.31567     -2646.4473      0             -2575.1413     -5.6242336    
    350000   597.7397      -2650.6822      0             -2579.4448     -0.080491493  
    350200   597.5051      -2647.7751      0             -2576.5658      2.7893016    
    350400   628.09939     -2647.841       0             -2572.9855     -1.9494935    
    350600   569.9696      -2645.9229      0             -2577.9951     -0.84437247   
    350800   595.39293     -2648.1545      0             -2577.1968      6.1749775    
    351000   600.38315     -2648.4556      0             -2576.9033     -0.88499487   
    351200   622.23225     -2648.2611      0             -2574.1048     -0.87394767   
    351400   590.30407     -2646.0564      0             -2575.7052      0.5814923    
    351600   606.54012     -2650.0827      0             -2577.7966     -2.1959579    
    351800   596.99257     -2647.147       0             -2575.9987     -0.18540379   
    352000   595.54034     -2646.7246      0             -2575.7494     -5.5486649    
    352200   582.22726     -2645.9071      0             -2576.5185      3.2339322    
    352400   605.94672     -2648.9969      0             -2576.7815      1.6453824    
    352600   610.93986     -2647.682       0             -2574.8715     -2.2789992    
    352800   599.24133     -2649.7919      0             -2578.3756     -0.3682007    
    353000   584.97945     -2647.9247      0             -2578.2081      4.917337     
    353200   600.45808     -2646.4785      0             -2574.9172     -0.24283333   
    353400   586.51237     -2644.4886      0             -2574.5893      4.8712322    
    353600   584.04327     -2646.8128      0             -2577.2078      3.2252989    
    353800   599.45315     -2648.5124      0             -2577.0708     -3.4448768    
    354000   604.18282     -2648.4102      0             -2576.405       1.1876345    
    354200   577.72123     -2645.7588      0             -2576.9072     -4.9442651    
    354400   633.49619     -2651.1981      0             -2575.6994      1.8541856    
    354600   599.76356     -2650.5834      0             -2579.1048     -0.82328534   
    354800   593.53357     -2646.833       0             -2576.0969      3.704825     
    355000   600.72324     -2648.3803      0             -2576.7874     -1.3191885    
    355200   601.84297     -2651.1316      0             -2579.4053      3.081256     
    355400   607.91342     -2649.2748      0             -2576.825      -4.3966399    
    355600   597.841       -2645.043       0             -2573.7936      0.14608539   
    355800   595.68291     -2647.8218      0             -2576.8295     -4.0777358    
    356000   597.45474     -2651.2694      0             -2580.066       3.7405362    
    356200   607.15534     -2648.7279      0             -2576.3684      1.5941828    
    356400   615.4712      -2645.9796      0             -2572.6291     -2.7480211    
    356600   589.58872     -2647.6444      0             -2577.3785      5.5040857    
    356800   589.96132     -2649.5         0             -2579.1897     -0.29661549   
    357000   609.42181     -2648.736       0             -2576.1064      2.5856376    
    357200   597.51723     -2645.0867      0             -2573.8758      1.4185474    
    357400   603.94007     -2647.9621      0             -2575.9858     -0.24421212   
    357600   574.64402     -2646.8592      0             -2578.3744      7.5319052    
    357800   614.20163     -2649.2701      0             -2576.0708     -0.63552687   
    358000   593.39353     -2644.4221      0             -2573.7028     -1.5602726    
    358200   606.83395     -2648.1203      0             -2575.7992      1.7839698    
    358400   597.26247     -2647.7576      0             -2576.5772      3.9903414    
    358600   595.58307     -2647.1282      0             -2576.1478     -1.5443062    
    358800   600.51896     -2648.6782      0             -2577.1097      0.071514723  
    359000   586.5895      -2648.4337      0             -2578.5252     -4.5829405    
    359200   596.18396     -2646.867       0             -2575.8151      1.6670277    
    359400   610.37494     -2646.1063      0             -2573.3631     -3.5271503    
    359600   620.10457     -2651.3357      0             -2577.4329      4.2409118    
    359800   582.72442     -2648.6677      0             -2579.2199     -1.9286185    
    360000   619.65092     -2643.9065      0             -2570.0578      4.7874497    
    360200   600.41341     -2647.0369      0             -2575.4809     -2.2541891    
    360400   585.20668     -2651.2251      0             -2581.4815      1.3839026    
    360600   606.4174      -2647.1067      0             -2574.8352      0.51355049   
    360800   584.50453     -2642.1767      0             -2572.5167     -0.77408779   
    361000   584.21731     -2646.6363      0             -2577.0105      6.928948     
    361200   576.22233     -2649.4263      0             -2580.7534      1.1811075    
    361400   604.2361      -2645.0299      0             -2573.0183      8.284868     
    361600   609.48513     -2644.4572      0             -2571.8201     -5.7999725    
    361800   599.16536     -2650.851       0             -2579.4438      6.6764022    
    362000   586.56465     -2650.1191      0             -2580.2136     -5.5333889    
    362200   648.18868     -2646.2581      0             -2569.0084      5.1139664    
    362400   577.14855     -2645.4599      0             -2576.6766     -8.2281855    
    362600   577.9934      -2650.0387      0             -2581.1547      5.4899135    
    362800   606.28362     -2645.8119      0             -2573.5563     -1.7281197    
    363000   616.63253     -2644.4022      0             -2570.9133      5.9756412    
    363200   594.25935     -2651.2768      0             -2580.4543     -0.5075146    
    363400   626.41353     -2652.7191      0             -2578.0644     -1.3009947    
    363600   635.70628     -2644.951       0             -2569.1889     -3.2810298    
    363800   584.29405     -2645.6765      0             -2576.0415     -1.4015867    
    364000   572.54101     -2651.1246      0             -2582.8904      3.1607922    
    364200   622.23653     -2646.2814      0             -2572.1245     -1.6487585    
    364400   628.57762     -2645.2746      0             -2570.362       3.7637041    
    364600   584.16085     -2653.3694      0             -2583.7504     -2.7550258    
    364800   606.87615     -2648.6335      0             -2576.3074      1.1460205    
    365000   634.27457     -2643.8538      0             -2568.2623      3.6114828    
    365200   596.54295     -2651.2502      0             -2580.1555     -2.1768205    
    365400   594.3128      -2650.5648      0             -2579.7358      3.4030371    
    365600   619.40799     -2645.7909      0             -2571.9712     -5.5501249    
    365800   602.07255     -2647.3952      0             -2575.6415     -2.1776795    
    366000   583.38711     -2651.2538      0             -2581.727      -0.87016718   
    366200   608.9278      -2645.6893      0             -2573.1186     -0.81288868   
    366400   637.9718      -2646.7821      0             -2570.75        3.0697947    
    366600   583.62693     -2649.4412      0             -2579.8858      2.6490215    
    366800   583.83722     -2647.963       0             -2578.3825      4.1618359    
    367000   626.44543     -2647.0788      0             -2572.4204      1.1088452    
    367200   584.75062     -2645.1566      0             -2575.4673     -1.4294052    
    367400   582.2673      -2649.0465      0             -2579.6531      2.9973377    
    367600   619.08766     -2648.7542      0             -2574.9726     -2.3949053    
    367800   617.12074     -2647.5498      0             -2574.0027      3.9774552    
    368000   592.34703     -2649.3213      0             -2578.7267     -4.3358549    
    368200   596.83925     -2646.9583      0             -2575.8283     -0.001709962  
    368400   580.81027     -2643.4283      0             -2574.2086     -3.8543265    
    368600   594.84194     -2648.0317      0             -2577.1397     -1.8463217    
    368800   597.36441     -2648.9996      0             -2577.807      -2.0558608    
    369000   613.16957     -2648.0611      0             -2574.9849     -3.5219954    
    369200   587.94296     -2645.261       0             -2575.1912      1.6789707    
    369400   586.55907     -2647.5046      0             -2577.5998     -4.1705514    
    369600   611.0191      -2648.7071      0             -2575.8872      4.3718183    
    369800   594.4446      -2647.7594      0             -2576.9148     -1.0098799    
    370000   591.93969     -2646.7174      0             -2576.1713      8.2598804    
    370200   597.53418     -2647.3548      0             -2576.142      -1.0796172    
    370400   611.30539     -2646.102       0             -2573.248       3.8951038    
    370600   598.14351     -2648.5189      0             -2577.2334     -5.3002076    
    370800   596.6193      -2648.9421      0             -2577.8383      6.5822703    
    371000   605.15383     -2645.5349      0             -2573.414      -4.1933288    
    371200   623.99904     -2651.0798      0             -2576.7129      1.7252984    
    371400   602.76686     -2650.937       0             -2579.1005      1.0335942    
    371600   596.36423     -2644.5104      0             -2573.437       2.3870084    
    371800   587.48957     -2644.5297      0             -2574.5139     -1.7196947    
    372000   610.62174     -2650.8652      0             -2578.0926      8.1930686    
    372200   571.66919     -2646.9929      0             -2578.8626      2.6417909    
    372400   626.23556     -2646.6285      0             -2571.9951      2.1019402    
    372600   612.82097     -2648.4091      0             -2575.3744     -0.53626414   
    372800   591.0264      -2651.961       0             -2581.5237      2.9618403    
    373000   596.16583     -2646.5243      0             -2575.4745      0.66995335   
    373200   614.29649     -2643.6634      0             -2570.4529      5.4652643    
    373400   604.21764     -2651.3258      0             -2579.3165      0.3424412    
    373600   574.41407     -2648.5678      0             -2580.1104      3.2525685    
    373800   606.05729     -2645.306       0             -2573.0774     -13.304867    
    374000   594.78764     -2643.2689      0             -2572.3833      1.4625999    
    374200   581.76732     -2650.2372      0             -2580.9034     -4.6937464    
    374400   584.70725     -2647.374       0             -2577.6899     -1.8790451    
    374600   592.15881     -2642.8664      0             -2572.2942     -0.21892638   
    374800   587.94753     -2648.069       0             -2577.9987      4.4424322    
    375000   600.44492     -2651.9941      0             -2580.4343     -4.5597457    
    375200   611.36815     -2644.2096      0             -2571.3481     -1.6819221    
    375400   593.13316     -2644.7583      0             -2574.0699     -1.4137967    
    375600   560.39554     -2649.9492      0             -2583.1625     -1.3646324    
    375800   592.70949     -2645.0537      0             -2574.4159      0.33876944   
    376000   610.70856     -2642.2333      0             -2569.4504     -3.2873953    
    376200   599.02774     -2651.1496      0             -2579.7588      1.8687565    
    376400   572.19985     -2649.7767      0             -2581.5831     -1.9995063    
    376600   622.65003     -2645.6119      0             -2571.4058      3.3853056    
    376800   640.29624     -2650.2629      0             -2573.9538      3.0765104    
    377000   592.33046     -2650.8328      0             -2580.2402     -0.96856723   
    377200   619.75248     -2648.3863      0             -2574.5256      1.7630103    
    377400   608.42915     -2645.9465      0             -2573.4352      6.3970322    
    377600   609.03182     -2651.1899      0             -2578.6068     -4.0090881    
    377800   598.0294      -2648.2731      0             -2577.0012      0.81545976   
    378000   604.55549     -2647.2315      0             -2575.1819     -1.3480023    
    378200   610.1017      -2648.9468      0             -2576.2362      3.065007     
    378400   590.15547     -2648.4331      0             -2578.0996     -4.1736999    
    378600   599.08747     -2647.0186      0             -2575.6206      1.4709824    
    378800   604.9681      -2648.5861      0             -2576.4873     -3.1190333    
    379000   623.31995     -2652.0682      0             -2577.7823      1.7519609    
    379200   595.78513     -2646.2514      0             -2575.247       1.7073725    
    379400   595.67552     -2645.7025      0             -2574.7112     -0.27400676   
    379600   577.35905     -2645.4218      0             -2576.6134      8.1771883    
    379800   605.01006     -2648.9058      0             -2576.802       0.89831361   
    380000   583.47241     -2647.7136      0             -2578.1766     -3.1786971    
    380200   611.39071     -2649.0558      0             -2576.1916      1.551344     
    380400   600.42416     -2645.6197      0             -2574.0624     -1.3155813    
    380600   592.93109     -2649.1923      0             -2578.5281      1.8841868    
    380800   590.40376     -2649.8901      0             -2579.527      -4.0695099    
    381000   616.69176     -2645.9891      0             -2572.4931      0.22176537   
    381200   599.78671     -2647.1874      0             -2575.7061     -0.31808708   
    381400   580.38521     -2649.5399      0             -2580.3708     -0.45237458   
    381600   610.95538     -2648.8753      0             -2576.0629      1.3917527    
    381800   605.64321     -2645.6777      0             -2573.4984      3.0877141    
    382000   586.71455     -2647.9667      0             -2578.0433      1.3423454    
    382200   603.20174     -2648.8711      0             -2576.9828     -0.7771965    
    382400   609.4365      -2649.0526      0             -2576.4213     -4.4220067    
    382600   584.62775     -2646.4246      0             -2576.7499     -0.25861712   
    382800   622.44933     -2649.895       0             -2575.7128     -7.3425796    
    383000   583.38653     -2646.8337      0             -2577.307       3.3797642    
    383200   604.63248     -2650.3764      0             -2578.3176     -5.3790507    
    383400   611.7115      -2648.6656      0             -2575.7632      4.0993455    
    383600   608.704       -2647.1257      0             -2574.5817     -2.7102171    
    383800   611.91425     -2650.611       0             -2577.6844      4.5041854    
    384000   592.80191     -2647.8203      0             -2577.1715     -4.5909126    
    384200   610.31422     -2648.8217      0             -2576.0857      3.6289513    
    384400   585.8154      -2645.3244      0             -2575.5082     -6.2785102    
    384600   618.23327     -2647.7993      0             -2574.1196      0.20727132   
    384800   603.79998     -2651.1096      0             -2579.15       -3.3361876    
    385000   617.26033     -2649.609       0             -2576.0452      4.6867914    
    385200   606.36515     -2645.9279      0             -2573.6626     -2.1391931    
    385400   592.13925     -2648.3455      0             -2577.7756      3.812989     
    385600   569.71237     -2647.1917      0             -2579.2946      4.2168171    
    385800   612.45503     -2646.3034      0             -2573.3123     -3.3041777    
    386000   614.79035     -2647.2939      0             -2574.0245     -0.87899894   
    386200   581.04034     -2649.1681      0             -2579.9209      3.0576437    
    386400   579.9614      -2645.7178      0             -2576.5992      7.3856784    
    386600   605.43866     -2646.3952      0             -2574.2403     -5.2753889    
    386800   607.89587     -2646.3372      0             -2573.8895      3.8845073    
    387000   591.23629     -2647.8608      0             -2577.3985     -0.95448261   
    387200   586.02966     -2647.7318      0             -2577.8901      8.1746178    
    387400   577.96145     -2646.2772      0             -2577.397      -2.2443541    
    387600   636.49158     -2648.7281      0             -2572.8724      3.8069025    
    387800   616.10271     -2650.1549      0             -2576.7291     -3.6805854    
    388000   600.58047     -2649.5608      0             -2577.9849      2.6638586    
    388200   596.78025     -2647.4466      0             -2576.3236     -2.605239     
    388400   620.10284     -2648.0236      0             -2574.1211      3.5922421    
    388600   611.07919     -2651.0461      0             -2578.219      -3.9289294    
    388800   577.22737     -2646.0696      0             -2577.2768     -0.52948976   
    389000   577.47974     -2641.6549      0             -2572.8321     -5.826788     
    389200   609.36282     -2647.765       0             -2575.1424      3.7417765    
    389400   585.35503     -2648.458       0             -2578.6966      2.1211676    
    389600   611.44232     -2648.6281      0             -2575.7578     -0.24148636   
    389800   634.76837     -2648.1423      0             -2572.492      -8.4288929    
    390000   602.46477     -2649.2093      0             -2577.4088      9.1082081    
    390200   589.4711      -2649.2047      0             -2578.9528     -5.9555679    
    390400   610.16181     -2643.5474      0             -2570.8296      7.6501002    
    390600   591.5444      -2646.8389      0             -2576.3399     -2.5210167    
    390800   593.4318      -2649.7775      0             -2579.0536      4.9824752    
    391000   603.6905      -2649.5167      0             -2577.5702     -3.4969169    
    391200   626.61508     -2647.0388      0             -2572.3601      0.63257694   
    391400   615.82149     -2645.814       0             -2572.4217      2.5795002    
    391600   584.82527     -2651.335       0             -2581.6368     -2.4309312    
    391800   594.10068     -2648.3031      0             -2577.4995     -3.8371476    
    392000   628.72848     -2647.7244      0             -2572.7939     -0.92365721   
    392200   591.20117     -2647.4524      0             -2576.9943     -1.71046      
    392400   585.81898     -2650.1744      0             -2580.3577     -7.9944877    
    392600   587.83815     -2643.9699      0             -2573.9126      4.2714689    
    392800   612.78159     -2645.7933      0             -2572.7633     -5.4082346    
    393000   592.28485     -2649.2052      0             -2578.6179      2.1812485    
    393200   607.14891     -2650.2784      0             -2577.9197     -8.0486293    
    393400   615.01339     -2645.5929      0             -2572.2969      7.3869661    
    393600   581.50994     -2647.2337      0             -2577.9306     -4.3742917    
    393800   597.82759     -2647.1941      0             -2575.9463      5.3685706    
    394000   602.37359     -2647.713       0             -2575.9234     -6.9992567    
    394200   602.68358     -2648.5442      0             -2576.7176      3.7611592    
    394400   571.73834     -2646.1922      0             -2578.0537     -1.8047107    
    394600   600.32539     -2646.2926      0             -2574.7471      2.3908796    
    394800   599.58462     -2646.8621      0             -2575.4049     -3.7548097    
    395000   588.93912     -2647.5444      0             -2577.3559      1.1578535    
    395200   631.19879     -2651.1459      0             -2575.921      -5.2526988    
    395400   591.05706     -2646.0214      0             -2575.5805      1.5345513    
    395600   601.86442     -2648.3709      0             -2576.642      -3.4854838    
    395800   588.49546     -2648.8181      0             -2578.6824      3.8884919    
    396000   608.34076     -2646.2034      0             -2573.7026     -2.6119171    
    396200   600.82494     -2645.6742      0             -2574.0692      0.18625957   
    396400   570.26883     -2647.0327      0             -2579.0693      0.28236603   
    396600   576.74653     -2643.16        0             -2574.4246      5.7742127    
    396800   611.81922     -2645.0614      0             -2572.1461     -2.3911885    
    397000   605.11742     -2651.6315      0             -2579.5149      2.8239916    
    397200   561.70494     -2645.3147      0             -2578.3719     -2.749288     
    397400   611.39503     -2643.6339      0             -2570.7691      3.5640984    
    397600   618.07237     -2650.2891      0             -2576.6286     -6.0506918    
    397800   604.59091     -2651.1015      0             -2579.0477      1.785091     
    398000   584.18818     -2644.4333      0             -2574.811      -1.524366     
    398200   603.95979     -2645.9425      0             -2573.9639      1.1963863    
    398400   611.36737     -2649.9064      0             -2577.0449     -0.43049136   
    398600   603.09412     -2649.0402      0             -2577.1647      1.454842     
    398800   612.47552     -2648.0781      0             -2575.0845      0.41133277   
    399000   581.91215     -2644.3195      0             -2574.9685     -5.3257266    
    399200   628.97429     -2650.7227      0             -2575.7629      5.0684215    
    399400   587.84537     -2647.786       0             -2577.7279     -7.9411094    
    399600   614.19075     -2646.3607      0             -2573.1628      2.7572023    
    399800   618.92305     -2648.8861      0             -2575.1241     -2.6149798    
    400000   599.7437      -2650.5912      0             -2579.115       4.7434305    
    400200   606.42769     -2648.3693      0             -2576.0965     -2.1004614    
    400400   612.96671     -2645.73        0             -2572.678       6.502094     
    400600   572.58318     -2647.0991      0             -2578.8598     -1.4100581    
    400800   615.46519     -2649.9141      0             -2576.5643     -1.3146171    
    401000   624.83045     -2650.4219      0             -2575.956      -5.4521984    
    401200   597.1708      -2648.4691      0             -2577.2996     -0.84144021   
    401400   602.09006     -2645.2088      0             -2573.453       1.8689291    
    401600   586.69429     -2646.1285      0             -2576.2076      3.301726     
    401800   617.7815      -2650.0308      0             -2576.4049      2.6219988    
    402000   581.13845     -2645.4464      0             -2576.1876      1.0270459    
    402200   587.47234     -2644.3749      0             -2574.3612      1.4062626    
    402400   629.46992     -2648.8191      0             -2573.8002      0.21915381   
    402600   585.56496     -2647.5574      0             -2577.771       3.5118251    
    402800   602.77733     -2647.5254      0             -2575.6877      0.6292588    
    403000   611.09213     -2645.6645      0             -2572.8358     -2.943285     
    403200   584.32035     -2647.541       0             -2577.903       3.1476585    
    403400   589.40365     -2647.0268      0             -2576.7829      3.1032676    
    403600   590.61074     -2645.743       0             -2575.3553     -1.9614013    
    403800   612.90773     -2647.6112      0             -2574.5661     -4.5947811    
    404000   611.30798     -2648.549       0             -2575.6947      5.5826653    
    404200   581.08165     -2648.0799      0             -2578.8279     -1.5915958    
    404400   592.74063     -2645.0369      0             -2574.3953      6.8574175    
    404600   593.67711     -2647.839       0             -2577.0859     -7.4317523    
    404800   604.64991     -2649.7278      0             -2577.6669      0.53271156   
    405000   592.47855     -2646.191       0             -2575.5807     -3.3150208    
    405200   615.30511     -2647.678       0             -2574.3473      1.0726197    
    405400   583.14034     -2647.0404      0             -2577.543       2.6724482    
    405600   612.64623     -2650.9768      0             -2577.9629     -1.0238853    
    405800   610.90397     -2646.7322      0             -2573.926       5.5027619    
    406000   614.66753     -2647.8294      0             -2574.5747     -5.009522     
    406200   603.4316      -2650.6416      0             -2578.7259      7.8350959    
    406400   593.87214     -2650.2496      0             -2579.4732     -12.710458    
    406600   611.02079     -2644.312       0             -2571.4919      8.2948645    
    406800   584.67153     -2647.5778      0             -2577.8979     -12.964813    
    407000   597.0271      -2650.2848      0             -2579.1324      5.1040503    
    407200   612.75505     -2647.9741      0             -2574.9472     -4.6378766    
    407400   623.65831     -2646.587       0             -2572.2607      6.4466577    
    407600   577.48806     -2650.2007      0             -2581.377      -5.2869161    
    407800   617.43735     -2648.6321      0             -2575.0472      7.4008603    
    408000   593.3064      -2642.5625      0             -2571.8535     -5.6393029    
    408200   591.80609     -2648.6795      0             -2578.1493      4.7907791    
    408400   593.22707     -2649.1702      0             -2578.4707     -6.1302391    
    408600   637.27572     -2648.4673      0             -2572.5181     -0.21256175   
    408800   586.8379      -2643.0122      0             -2573.0741      1.4868248    
    409000   566.54672     -2647.8663      0             -2580.3464      2.1495525    
    409200   605.98877     -2646.5857      0             -2574.3652     -2.6934155    
    409400   601.28777     -2643.9067      0             -2572.2465      3.0716757    
    409600   593.32211     -2648.1291      0             -2577.4182     -0.94668478   
    409800   593.97111     -2647.1095      0             -2576.3213      4.430013     
    410000   576.43241     -2642.8195      0             -2574.1215     -3.7256505    
    410200   590.35131     -2644.6952      0             -2574.3384      5.6981778    
    410400   586.60273     -2647.3476      0             -2577.4376     -6.0664048    
    410600   612.03145     -2647.6743      0             -2574.7337     -0.60580482   
    410800   592.64737     -2646.3307      0             -2575.7003     -11.990861    
    411000   623.87551     -2650.9354      0             -2576.5833      8.1311932    
    411200   583.81478     -2647.1944      0             -2577.6166     -9.3235374    
    411400   621.49881     -2646.8309      0             -2572.762       2.7736725    
    411600   588.106       -2647.0211      0             -2576.9319     -7.7425506    
    411800   611.04952     -2648.7553      0             -2575.9317      0.73675877   
    412000   588.22703     -2647.4259      0             -2577.3223     -5.0651102    
    412200   605.33142     -2647.272       0             -2575.1299      6.385009     
    412400   596.37633     -2646.4975      0             -2575.4226     -3.1478667    
    412600   560.13778     -2641.5074      0             -2574.7514      4.6800521    
    412800   570.06214     -2647.5069      0             -2579.5681     -4.2664598    
    413000   600.1281      -2644.8626      0             -2573.3406      2.6276513    
    413200   604.04846     -2644.8981      0             -2572.9089      2.182162     
    413400   575.59512     -2646.6319      0             -2578.0337      3.9731099    
    413600   592.38784     -2646.3556      0             -2575.7561      3.0340072    
    413800   610.40706     -2646.5656      0             -2573.8186     -3.726409     
    414000   594.49574     -2648.0253      0             -2577.1746      7.7605391    
    414200   603.25594     -2647.9793      0             -2576.0845     -2.5549387    
    414400   626.65465     -2648.7979      0             -2574.1146      4.432674     
    414600   586.91412     -2647.806       0             -2577.8589     -5.1816984    
    414800   603.77804     -2647.5027      0             -2575.5457      4.3992509    
    415000   587.22719     -2647.8055      0             -2577.821      -3.7444713    
    415200   594.22005     -2646.9311      0             -2576.1132      4.5818565    
    415400   594.11412     -2647.4897      0             -2576.6845     -5.2913259    
    415600   620.42855     -2650.4634      0             -2576.5221      5.9187595    
    415800   591.49287     -2646.5067      0             -2576.0138      2.7799137    
    416000   610.46059     -2648.7481      0             -2575.9947      6.1708933    
    416200   609.58204     -2650.3532      0             -2577.7045     -2.0367057    
    416400   603.66018     -2648.3544      0             -2576.4115      6.0718209    
    416600   599.34937     -2646.4645      0             -2575.0353     -5.875836     
    416800   615.36111     -2650.2614      0             -2576.924       2.8213935    
    417000   592.88736     -2647.2874      0             -2576.6283     -4.9352178    
    417200   619.53828     -2647.2051      0             -2573.3698      2.9080811    
    417400   603.28714     -2648.6399      0             -2576.7414     -1.49965      
    417600   597.07673     -2650.314       0             -2579.1557      1.9564398    
    417800   598.0553      -2645.6192      0             -2574.3443     -5.8461833    
    418000   622.83493     -2648.4051      0             -2574.177       0.058619289  
    418200   560.87568     -2648.0993      0             -2581.2554     -4.6140667    
    418400   610.73712     -2646.4908      0             -2573.7044     -2.0726515    
    418600   571.26673     -2641.0282      0             -2572.9459     -3.9675493    
    418800   602.8309      -2650.1259      0             -2578.2818      4.6156823    
    419000   576.74526     -2647.9641      0             -2579.2289     -0.81432777   
    419200   626.62135     -2645.9857      0             -2571.3063     -0.64041835   
    419400   602.92969     -2647.6703      0             -2575.8145     -3.9563792    
    419600   564.05524     -2647.9109      0             -2580.688       1.9859715    
    419800   599.95682     -2645.2358      0             -2573.7342      0.60082808   
    420000   622.00975     -2646.0678      0             -2571.938      -5.2352638    
    420200   592.81309     -2650.8415      0             -2580.1913     -0.086680035  
    420400   585.63493     -2647.7462      0             -2577.9515      5.582911     
    420600   613.3912      -2645.0485      0             -2571.9459     -8.1278301    
    420800   596.78076     -2647.5441      0             -2576.421       4.4402873    
    421000   577.85847     -2651.0763      0             -2582.2084     -4.5435749    
    421200   615.7443      -2646.1888      0             -2572.8058      5.432116     
    421400   622.21132     -2645.832       0             -2571.6782     -0.49152369   
    421600   563.02172     -2649.7853      0             -2582.6856     -0.19234802   
    421800   596.28518     -2649.0503      0             -2577.9863     -2.9194027    
    422000   619.65089     -2642.4929      0             -2568.6443     -0.075317138  
    422200   596.50319     -2649.9321      0             -2578.8421     -1.0350112    
    422400   578.68676     -2654.1678      0             -2585.2012      2.1432456    
    422600   630.03857     -2644.3278      0             -2569.2412      5.5681336    
    422800   609.01408     -2644.2227      0             -2571.6417     -2.224229     
    423000   572.56354     -2652.1066      0             -2583.8697     -3.2935576    
    423200   578.2147      -2646.7468      0             -2577.8364      4.70644      
    423400   607.00887     -2641.7947      0             -2569.4527     -2.4357566    
    423600   578.94425     -2647.8185      0             -2578.8211      0.70662826   
    423800   594.38197     -2651.4838      0             -2580.6466     -1.2799419    
    424000   614.95841     -2644.7051      0             -2571.4157     -4.1725442    
    424200   609.97319     -2645.4444      0             -2572.7491     -2.5702839    
    424400   573.96433     -2651.6445      0             -2583.2407     -0.10773416   
    424600   624.25902     -2647.8727      0             -2573.4748      0.98974048   
    424800   622.11589     -2642.9156      0             -2568.7732     -5.4763753    
    425000   585.70274     -2648.7696      0             -2578.9669      3.0462714    
    425200   582.97337     -2652.5761      0             -2583.0986     -5.8797383    
    425400   618.83987     -2645.329       0             -2571.577       0.8915497    
    425600   607.81988     -2647.0069      0             -2574.5683     -1.5993326    
    425800   582.5226      -2651.1077      0             -2581.6839      6.2038283    
    426000   621.84779     -2648.7431      0             -2574.6326     -0.14884855   
    426200   637.08652     -2647.4036      0             -2571.477      -4.5880577    
    426400   584.12717     -2648.3409      0             -2578.7258      0.41757227   
    426600   586.49972     -2646.8891      0             -2576.9913      1.9800994    
    426800   595.72481     -2645.5748      0             -2574.5776     -7.3640284    
    427000   603.04314     -2646.8732      0             -2575.0039     -0.93384798   
    427200   585.04591     -2648.7621      0             -2579.0376     -4.4859622    
    427400   602.98455     -2645.0717      0             -2573.2093      3.0992223    
    427600   583.90689     -2644.5452      0             -2574.9564     -3.8951699    
    427800   594.97871     -2651.1633      0             -2580.255       3.3448842    
    428000   605.61773     -2650.4825      0             -2578.3063     -10.968776    
    428200   630.30116     -2646.0709      0             -2570.953       8.7283354    
    428400   582.12712     -2647.4228      0             -2578.0461     -7.6788345    
    428600   620.64587     -2651.613       0             -2577.6458      5.5720192    
    428800   603.27157     -2647.3567      0             -2575.4601     -7.7379285    
    429000   614.90279     -2646.5403      0             -2573.2575      7.2465824    
    429200   593.62147     -2649.4687      0             -2578.7221     -6.4665453    
    429400   614.04274     -2651.2475      0             -2578.0672      2.0631983    
    429600   614.34313     -2646.7434      0             -2573.5273     -0.7898605    
    429800   597.54872     -2645.239       0             -2574.0244      3.7037892    
    430000   605.27408     -2649.0559      0             -2576.9206      1.6680609    
    430200   599.25259     -2650.7399      0             -2579.3223      2.0746928    
    430400   608.66682     -2648.6786      0             -2576.139      -2.9227911    
    430600   624.69181     -2645.9609      0             -2571.5114      2.3266965    
    430800   603.72234     -2649.5957      0             -2577.6454      0.35804046   
    431000   584.53736     -2649.5195      0             -2579.8556     -1.8855713    
    431200   611.2825      -2646.3644      0             -2573.5131      2.2178761    
    431400   614.81123     -2647.1529      0             -2573.881      -3.4911612    
    431600   579.22653     -2647.6383      0             -2578.6073      4.3234017    
    431800   583.26735     -2645.8086      0             -2576.2961     -3.9394525    
    432000   599.32135     -2645.3605      0             -2573.9347      0.5060349    
    432200   567.19193     -2646.4047      0             -2578.808      -3.5110624    
    432400   583.51078     -2647.2015      0             -2577.66        0.79661785   
    432600   592.88518     -2644.8645      0             -2574.2057     -2.533001     
    432800   608.69981     -2648.255       0             -2575.7115      4.610521     
    433000   595.19205     -2649.8675      0             -2578.9338     -0.41067801   
    433200   598.0429      -2647.7141      0             -2576.4407     -0.89637311   
    433400   614.11853     -2647.2475      0             -2574.0581      2.5279281    
    433600   579.89427     -2646.5054      0             -2577.3948     -5.2811131    
    433800   595.68716     -2646.3331      0             -2575.3403      3.2717121    
    434000   609.01865     -2647.8847      0             -2575.3032     -4.7122827    
    434200   588.10583     -2649.0895      0             -2579.0003      3.3678096    
    434400   603.79833     -2649.0768      0             -2577.1174     -2.0043149    
    434600   645.1988      -2649.0434      0             -2572.15       -2.326477     
    434800   594.84225     -2647.0402      0             -2576.1482     -0.80541224   
    435000   604.59439     -2653.0852      0             -2581.0309      1.6504944    
    435200   583.00606     -2646.3696      0             -2576.8882      7.2877078    
    435400   604.21543     -2645.0634      0             -2573.0543     -6.8756333    
    435600   590.93604     -2649.9138      0             -2579.4874     -1.056113     
    435800   600.09903     -2648.0851      0             -2576.5666      1.1337127    
    436000   623.70855     -2644.3847      0             -2570.0525     -1.3733865    
    436200   582.79511     -2648.2874      0             -2578.8311     -2.3457002    
    436400   615.49284     -2652.4469      0             -2579.0938      4.0065312    
    436600   598.75516     -2643.9745      0             -2572.6162     -1.2524961    
    436800   599.10892     -2646.5087      0             -2575.1082     -0.69087334   
    437000   589.76376     -2650.367       0             -2580.0802     -1.2590729    
    437200   616.51677     -2647.6585      0             -2574.1833      1.1789418    
    437400   578.48231     -2645.3152      0             -2576.3729     -1.1879084    
    437600   599.44506     -2648.7477      0             -2577.3071      6.0940691    
    437800   592.83275     -2645.1872      0             -2574.5347     -4.2761839    
    438000   633.53927     -2647.2734      0             -2571.7695     -0.93220451   
    438200   572.42503     -2650.9293      0             -2582.7089      0.16101838   
    438400   598.15067     -2649.2294      0             -2577.943       1.817929     
    438600   630.41255     -2643.5988      0             -2568.4676     -3.034206     
    438800   627.79102     -2651.4016      0             -2576.5828     -0.53995758   
    439000   577.82691     -2652.7801      0             -2583.9159      2.2307356    
    439200   575.58733     -2642.9351      0             -2574.3379      3.8734505    
    439400   634.21253     -2645.0234      0             -2569.4394     -6.9433254    
    439600   564.98752     -2647.2094      0             -2579.8754      2.0075823    
    439800   584.02811     -2649.6334      0             -2580.0302     -7.4219522    
    440000   622.97513     -2644.6057      0             -2570.3609     -3.7588205    
    440200   589.49506     -2646.6832      0             -2576.4284      1.926826     
    440400   587.70141     -2654.0263      0             -2583.9853      8.3874953    
    440600   610.67868     -2646.7119      0             -2573.9325      2.353549     
    440800   627.91774     -2644.702       0             -2569.8681      0.45765394   
    441000   607.02317     -2654.3338      0             -2581.9901      2.3908733    
    441200   590.64276     -2650.1414      0             -2579.7499     -4.0150481    
    441400   645.19447     -2645.7427      0             -2568.8498      1.5264448    
    441600   597.55335     -2647.8264      0             -2576.6112     -3.0643088    
    441800   574.01457     -2649.7712      0             -2581.3614      4.0883489    
    442000   620.81519     -2649.1919      0             -2575.2045     -3.9139908    
    442200   606.12474     -2645.68        0             -2573.4433     -2.0196372    
    442400   586.02055     -2649.5545      0             -2579.7138     -4.2045183    
    442600   616.12667     -2650.696       0             -2577.2674      4.4622185    
    442800   587.4483      -2644.7409      0             -2574.7301     -3.4513262    
    443000   611.85096     -2649.3051      0             -2576.3861     -2.9471525    
    443200   600.81032     -2649.4653      0             -2577.8621     -0.069486513  
    443400   613.65101     -2648.7704      0             -2575.6368     -1.3364855    
    443600   586.2768      -2645.3991      0             -2575.5279     -2.2024884    
    443800   592.43093     -2646.4111      0             -2575.8064      4.3433242    
    444000   609.43072     -2647.264       0             -2574.6334     -4.3514414    
    444200   604.8146      -2648.151       0             -2576.0705      3.4090365    
    444400   588.02608     -2650.1966      0             -2580.117      -2.8564538    
    444600   616.23416     -2646.7183      0             -2573.2768      4.2193887    
    444800   603.59326     -2645.0823      0             -2573.1474      2.4019999    
    445000   600.15854     -2652.1065      0             -2580.5809     -1.3837454    
    445200   591.9327      -2650.0251      0             -2579.4799      1.3714978    
    445400   596.78703     -2643.5484      0             -2572.4246      1.0953668    
    445600   637.93949     -2648.3115      0             -2572.2832      0.051153011  
    445800   598.67351     -2650.2618      0             -2578.9131      0.35115875   
    446000   584.69844     -2648.1979      0             -2578.5148      3.8477791    
    446200   615.8944      -2646.1684      0             -2572.7674     -7.6223225    
    446400   578.60783     -2643.2219      0             -2574.2646      4.8974063    
    446600   572.48203     -2648.4604      0             -2580.2332     -5.9156784    
    446800   598.03709     -2646.645       0             -2575.3722     -0.0079353906 
    447000   607.61173     -2645.9582      0             -2573.5444      0.25697087   
    447200   571.24171     -2644.9801      0             -2576.9007      5.9578007    
    447400   605.28268     -2648.6302      0             -2576.4939     -3.4957577    
    447600   628.00992     -2647.8079      0             -2572.963       3.3776326    
    447800   591.70533     -2648.5971      0             -2578.079      -2.0276309    
    448000   629.08742     -2650.2315      0             -2575.2582      1.6016378    
    448200   580.95749     -2646.8584      0             -2577.6211      0.37610656   
    448400   622.58277     -2648.9732      0             -2574.7751      2.4881363    
    448600   596.46525     -2647.5536      0             -2576.4681     -2.1666808    
    448800   579.8153      -2645.2919      0             -2576.1907      5.7128329    
    449000   627.31909     -2650.0053      0             -2575.2427     -5.1310406    
    449200   630.33221     -2649.192       0             -2574.0704     -2.2934172    
    449400   604.51386     -2647.9785      0             -2575.9338      1.6231753    
    449600   594.02896     -2648.814       0             -2578.0189     -0.33218735   
    449800   595.16627     -2645.412       0             -2574.4814      0.65275275   
    450000   607.43433     -2645.9609      0             -2573.5682     -3.1441876    
    450200   595.66133     -2649.6004      0             -2578.6108      2.8951415    
    450400   595.78417     -2648.6066      0             -2577.6023     -7.2053906    
    450600   619.28151     -2645.9331      0             -2572.1285     -0.31526695   
    450800   601.41119     -2648.1915      0             -2576.5166      4.3031625    
    451000   572.39879     -2650.1526      0             -2581.9353      3.5985408    
    451200   606.73463     -2644.5015      0             -2572.1922      2.0668687    
    451400   604.22521     -2644.6028      0             -2572.5925     -0.84614626   
    451600   572.35027     -2649.3761      0             -2581.1646      2.3944093    
    451800   580.96426     -2646.9735      0             -2577.7355      3.4890038    
    452000   610.60409     -2644.3455      0             -2571.575      -4.4502343    
    452200   601.27476     -2648.2102      0             -2576.5516      2.9378959    
    452400   584.20676     -2650.7648      0             -2581.1403     -1.362419     
    452600   591.7254      -2644.37        0             -2573.8494     -0.56271936   
    452800   599.27256     -2642.8471      0             -2571.4271     -3.9583928    
    453000   607.07209     -2651.5112      0             -2579.1617      6.5534356    
    453200   560.91839     -2647.596       0             -2580.747      -4.5857164    
    453400   631.10206     -2645.4847      0             -2570.2713     -2.4246183    
    453600   581.58121     -2647.302       0             -2577.9904     -1.4402018    
    453800   577.44213     -2650.2851      0             -2581.4668      4.3441371    
    454000   610.32402     -2643.3509      0             -2570.6138      3.3652229    
    454200   607.07302     -2648.2964      0             -2575.9467      0.34666341   
    454400   565.70351     -2652.1362      0             -2584.7169      0.74049375   
    454600   607.54059     -2647.8336      0             -2575.4282      1.0258739    
    454800   619.62794     -2643.5986      0             -2569.7527     -0.75802924   
    455000   586.80797     -2650.0795      0             -2580.145       0.86501599   
    455200   569.24371     -2651.923       0             -2584.0818      2.628701     
    455400   608.12325     -2643.5047      0             -2571.0299     -2.3412009    
    455600   621.64684     -2648.681       0             -2574.5945      1.7083931    
    455800   571.11009     -2652.0639      0             -2584.0003      2.8861217    
    456000   592.52372     -2647.0516      0             -2576.4359     -0.23267457   
    456200   608.95086     -2641.5121      0             -2568.9387      1.6190905    
    456400   576.70278     -2649.365       0             -2580.6348     -1.8870472    
    456600   561.45752     -2649.2404      0             -2582.3271     -1.1078536    
    456800   605.01249     -2640.0218      0             -2567.9177      1.362965     
    457000   594.94056     -2646.3004      0             -2575.3967     -6.1036095    
    457200   566.11697     -2653.433       0             -2585.9644      4.3463281    
    457400   614.67451     -2647.9936      0             -2574.738      -5.9989181    
    457600   643.4388      -2643.6182      0             -2566.9346     -2.1437447    
    457800   581.79223     -2653.3414      0             -2584.0046      0.28295899   
    458000   572.45923     -2651.5074      0             -2583.283       5.428039     
    458200   642.1592      -2644.3576      0             -2567.8265     -5.4218273    
    458400   607.48781     -2646.5563      0             -2574.1572      4.1217089    
    458600   580.44312     -2654.3176      0             -2585.1416     -1.9663219    
    458800   605.1289      -2649.1254      0             -2577.0074      0.89203241   
    459000   615.52042     -2643.7668      0             -2570.4104      0.38067326   
    459200   604.34136     -2650.1156      0             -2578.0915     -2.4875393    
    459400   589.35529     -2651.5166      0             -2581.2785     -4.9067774    
    459600   611.03639     -2646.4746      0             -2573.6526     -0.43083963   
    459800   600.84441     -2645.4939      0             -2573.8866      1.5336552    
    460000   556.72734     -2648.5682      0             -2582.2186      0.54924076   
    460200   590.11539     -2648.0606      0             -2577.7319      1.4856568    
    460400   602.01399     -2644.2571      0             -2572.5103      3.8798142    
    460600   588.47252     -2649.2193      0             -2579.0865     -2.8432386    
    460800   609.65999     -2652.2706      0             -2579.6127      1.4315311    
    461000   601.89216     -2644.6761      0             -2572.9439      4.6905317    
    461200   610.91574     -2649.2521      0             -2576.4445      6.0998231    
    461400   571.79872     -2649.4192      0             -2581.2734      0.82530471   
    461600   603.13624     -2647.182       0             -2575.3015      2.7122514    
    461800   631.16712     -2648.7832      0             -2573.5621      0.85328856   
    462000   581.41856     -2649.3885      0             -2580.0963     -4.0915976    
    462200   606.92505     -2650.081       0             -2577.749       0.67069289   
    462400   623.128       -2648.7942      0             -2574.5311     -7.0453654    
    462600   610.47429     -2648.8076      0             -2576.0526      0.6404032    
    462800   593.55576     -2648.9061      0             -2578.1674     -3.7111059    
    463000   618.43461     -2647.9638      0             -2574.2601      6.2396377    
    463200   615.47081     -2650.3933      0             -2577.0428      1.5950157    
    463400   608.73953     -2651.0664      0             -2578.5181     -3.2952673    
    463600   600.29452     -2647.4677      0             -2575.9258      3.5408328    
    463800   601.36358     -2648.2684      0             -2576.5992     -2.5866468    
    464000   608.11144     -2648.0677      0             -2575.5943     -0.15438516   
    464200   604.2271      -2646.8171      0             -2574.8066      1.6228748    
    464400   596.82302     -2648.5103      0             -2577.3822     -3.317191     
    464600   594.28844     -2645.5216      0             -2574.6956      1.2077706    
    464800   623.66277     -2648.3338      0             -2574.007      -1.8524039    
    465000   592.79762     -2649.947       0             -2579.2987      2.186894     
    465200   592.7995      -2646.2538      0             -2575.6052      2.5418437    
    465400   609.14959     -2645.4606      0             -2572.8634     -2.8826068    
    465600   612.11229     -2649.1554      0             -2576.2052      3.0415033    
    465800   585.74421     -2649.6212      0             -2579.8135     -1.2228574    
    466000   613.31035     -2646.0608      0             -2572.9678     -0.88986181   
    466200   615.14954     -2647.2798      0             -2573.9676     -3.0132809    
    466400   586.42726     -2650.1135      0             -2580.2243      3.6735546    
    466600   591.19059     -2646.1351      0             -2575.6782     -5.3274056    
    466800   606.44762     -2644.241       0             -2571.9659      0.50335391   
    467000   600.1855      -2650.0879      0             -2578.559      -4.0638795    
    467200   602.05947     -2650.5898      0             -2578.8377      5.7029717    
    467400   606.87395     -2646.4272      0             -2574.1013     -4.2140623    
    467600   612.21256     -2647.8734      0             -2574.9112      1.4655306    
    467800   563.36199     -2647.2446      0             -2580.1043      0.32583668   
    468000   625.3374      -2647.9725      0             -2573.4461      5.0069753    
    468200   583.68034     -2646.8059      0             -2577.2442     -3.2537097    
    468400   594.64372     -2650.344       0             -2579.4757      12.053423    
    468600   583.09538     -2646.9279      0             -2577.4359     -8.3200621    
    468800   637.31911     -2647.7516      0             -2571.7972      5.4984405    
    469000   595.32069     -2649.704       0             -2578.755      -8.9202188    
    469200   589.80949     -2650.0122      0             -2579.7199      3.4588625    
    469400   621.80163     -2648.1284      0             -2574.0234     -8.4636851    
    469600   606.70338     -2645.7224      0             -2573.4167      6.0206191    
    469800   574.67726     -2649.0182      0             -2580.5294     -6.1131193    
    470000   604.88479     -2647.9956      0             -2575.9067      9.4122486    
    470200   623.94931     -2647.0642      0             -2572.7032     -5.8701145    
    470400   608.97471     -2652.4189      0             -2579.8426      3.8994482    
    470600   574.11042     -2649.3755      0             -2580.9543     -5.9425383    
    470800   652.55889     -2646.8612      0             -2569.0907      6.9762651    
    471000   610.08906     -2648.456       0             -2575.7469     -5.3638337    
    471200   604.783       -2652.5945      0             -2580.5178      0.94505128   
    471400   589.11836     -2646.4104      0             -2576.2005     -3.0997806    
    471600   614.78797     -2642.8005      0             -2569.5314     -1.248581     
    471800   604.59776     -2651.564       0             -2579.5094      0.34682258   
    472000   602.73731     -2653.6929      0             -2581.86        4.6260483    
    472200   628.99259     -2645.3175      0             -2570.3555     -3.0221155    
    472400   616.21002     -2644.4941      0             -2571.0555      2.4553042    
    472600   567.73867     -2652.4823      0             -2584.8204      0.44116979   
    472800   598.51972     -2650.7974      0             -2579.4671      3.4206122    
    473000   626.77746     -2643.23        0             -2568.532      -0.19800438   
    473200   606.30982     -2651.1667      0             -2578.908      -4.7963785    
    473400   558.65008     -2649.2438      0             -2582.6651      4.3061176    
    473600   601.19278     -2643.8916      0             -2572.2428     -5.9222597    
    473800   626.42931     -2645.5917      0             -2570.9352      2.4004256    
    474000   571.25981     -2653.0357      0             -2584.9542     -0.31946508   
    474200   605.18553     -2649.5041      0             -2577.3794      4.5917767    
    474400   623.14796     -2643.1609      0             -2568.8955     -11.582706    
    474600   612.97437     -2651.72        0             -2578.667       4.9551406    
    474800   579.75661     -2653.0697      0             -2583.9755     -12.147238    
    475000   637.8675      -2647.3117      0             -2571.2921      3.728063     
    475200   594.91637     -2644.3748      0             -2573.4739     -8.2350872    
    475400   576.2766      -2651.3298      0             -2582.6504      10.230155    
    475600   587.76168     -2649.2392      0             -2579.191      -5.058678     
    475800   611.80151     -2642.0811      0             -2569.1679      4.619651     
    476000   580.36485     -2646.7512      0             -2577.5846     -4.0946119    
    476200   569.89218     -2649.2011      0             -2581.2826      3.74008      
    476400   584.92389     -2646.0126      0             -2576.3026     -1.8415298    
    476600   649.09812     -2648.5272      0             -2571.1691     -0.78966133   
    476800   592.66611     -2650.2408      0             -2579.6081     -0.68794727   
    477000   605.56588     -2652.9317      0             -2580.7616      4.5935873    
    477200   621.49349     -2646.5469      0             -2572.4787      0.69816394   
    477400   624.99151     -2650.318       0             -2575.8328      4.4235984    
    477600   585.35381     -2651.1397      0             -2581.3785      2.4249385    
    477800   609.06367     -2648.4633      0             -2575.8764      5.9481577    
    478000   602.15492     -2644.3558      0             -2572.5922     -0.013182603  
    478200   600.44692     -2649.5935      0             -2578.0336      1.5416678    
    478400   614.95654     -2651.9058      0             -2578.6166     -4.1612182    
    478600   605.71637     -2648.7269      0             -2576.539       0.50548337   
    478800   587.84774     -2645.1964      0             -2575.138      -6.0044746    
    479000   600.64472     -2649.037       0             -2577.4534      0.85199174   
    479200   609.53837     -2651.3923      0             -2578.7489      0.58195308   
    479400   609.23086     -2646.2767      0             -2573.6699      2.9257206    
    479600   619.77293     -2648.2991      0             -2574.4359     -3.8871166    
    479800   591.65308     -2651.0685      0             -2580.5566      3.1550244    
    480000   593.05443     -2645.3684      0             -2574.6894     -0.19001812   
    480200   608.78179     -2645.1185      0             -2572.5652      0.90066546   
    480400   575.26292     -2647.4598      0             -2578.9012     -2.825322     
    480600   588.10034     -2647.8127      0             -2577.7242      4.6258678    
    480800   608.48388     -2648.3926      0             -2575.8748     -9.1279976    
    481000   611.43657     -2647.0389      0             -2574.1692      5.252033     
    481200   601.54605     -2651.5646      0             -2579.8736     -6.4010248    
    481400   601.9292      -2650.7809      0             -2579.0442      2.2573338    
    481600   590.67426     -2643.4888      0             -2573.0935     -8.5979721    
    481800   614.01113     -2646.8016      0             -2573.625       4.7159664    
    482000   592.76573     -2652.3581      0             -2581.7135     -1.3317062    
    482200   586.89491     -2647.0901      0             -2577.1452      5.713841     
    482400   604.12054     -2642.4625      0             -2570.4647     -5.4328358    
    482600   612.59918     -2649.8334      0             -2576.8251      5.4701892    
    482800   583.35477     -2651.6665      0             -2582.1436     -5.8445048    
    483000   628.74352     -2646.3922      0             -2571.4599      4.443343     
    483200   633.43649     -2648.977       0             -2573.4854     -9.6919524    
    483400   577.4393      -2649.757       0             -2580.9391      13.081172    
    483600   566.44692     -2646.8995      0             -2579.3915     -8.9307988    
    483800   657.12215     -2647.1024      0             -2568.788       8.6091416    
    484000   583.9794      -2648.2997      0             -2578.7023     -10.858465    
    484200   585.23681     -2650.1336      0             -2580.3864      8.9831945    
    484400   613.5247      -2649.431       0             -2576.3124     -9.6691606    
    484600   616.03224     -2646.4427      0             -2573.0253      3.741884     
    484800   589.52313     -2649.9496      0             -2579.6915     -6.4695998    
    485000   611.95477     -2650.5861      0             -2577.6546      9.5245335    
    485200   602.85996     -2646.8362      0             -2574.9886     -5.4557217    
    485400   616.40783     -2648.0125      0             -2574.5503      8.9265121    
    485600   586.55584     -2651.1896      0             -2581.2851     -2.1422755    
    485800   589.92214     -2647.1515      0             -2576.8459      5.2879179    
    486000   622.13616     -2644.6156      0             -2570.4707     -7.1707142    
    486200   609.68612     -2649.6827      0             -2577.0216      2.6768204    
    486400   576.85659     -2652.3628      0             -2583.6143     -2.5931823    
    486600   604.52783     -2645.932       0             -2573.8857      2.8664812    
    486800   627.55819     -2646.3384      0             -2571.5474      2.3742088    
    487000   596.16651     -2652.3177      0             -2581.2679      4.6986223    
    487200   604.58787     -2651.8122      0             -2579.7588     -2.9775678    
    487400   614.75759     -2644.23        0             -2570.9645      6.7003548    
    487600   584.30231     -2647.766       0             -2578.1301     -4.7566745    
    487800   606.57127     -2651.5236      0             -2579.2337     -3.4046491    
    488000   593.1395      -2645.4377      0             -2574.7486     -3.1744369    
    488200   602.8291      -2646.9857      0             -2575.1418     -2.9241667    
    488400   578.61327     -2648.8558      0             -2579.8979      1.6131692    
    488600   589.55395     -2646.1424      0             -2575.8806      4.2399484    
    488800   599.67937     -2643.2882      0             -2571.8197     -8.5505142    
    489000   592.22701     -2647.7267      0             -2577.1464      3.5654667    
    489200   583.14404     -2650.4116      0             -2580.9138     -0.80770891   
    489400   597.96402     -2645.0094      0             -2573.7453      1.351599     
    489600   598.95597     -2643.3678      0             -2571.9855     -5.7022238    
    489800   614.76945     -2650.4237      0             -2577.1568      5.5830844    
    490000   572.82044     -2649.3609      0             -2581.0933     -4.0217101    
    490200   612.88059     -2645.8415      0             -2572.7997      6.0520435    
    490400   625.4581      -2649.0854      0             -2574.5447     -7.0615001    
    490600   614.37473     -2652.9192      0             -2579.6993      8.2813432    
    490800   595.20775     -2648.238       0             -2577.3024     -4.3999351    
    491000   624.01475     -2644.3849      0             -2570.0161     -0.70065571   
    491200   578.30364     -2645.9609      0             -2577.0399     -5.3659428    
    491400   599.19207     -2651.42        0             -2580.0096      5.5146032    
    491600   589.45326     -2645.3931      0             -2575.1434     -6.493513     
    491800   611.53685     -2643.4086      0             -2570.5269      3.9059295    
    492000   581.29746     -2649.3535      0             -2580.0758     -1.3294378    
    492200   607.17031     -2652.46        0             -2580.0987      7.4749579    
    492400   598.3705      -2643.7664      0             -2572.4539     -5.1994184    
    492600   628.54511     -2647.8455      0             -2572.9368      2.2520567    
    492800   563.86187     -2651.2678      0             -2584.068      -5.0085699    
    493000   595.13847     -2646.443       0             -2575.5157      1.3664738    
    493200   647.5846      -2644.5697      0             -2567.3919     -8.4914673    
    493400   610.07194     -2649.9334      0             -2577.2263      2.028722     
    493600   581.69088     -2652.4374      0             -2583.1127      2.2282432    
    493800   612.50038     -2645.0839      0             -2572.0874      3.6715745    
    494000   625.80771     -2646.0449      0             -2571.4625      0.25222613   
    494200   607.52871     -2653.0427      0             -2580.6387      6.1949929    
    494400   597.04861     -2650.0229      0             -2578.8679     -7.7965072    
    494600   633.55981     -2645.5961      0             -2570.0898      1.4444387    
    494800   589.96943     -2648.7918      0             -2578.4805     -6.3934984    
    495000   581.3155      -2650.7558      0             -2581.4759      2.8417018    
    495200   596.83181     -2645.4875      0             -2574.3583     -6.5132977    
    495400   619.75062     -2644.646       0             -2570.7855      4.6147627    
    495600   596.10588     -2652.0263      0             -2580.9836     -0.43518654   
    495800   593.82238     -2651.5644      0             -2580.7939      0.081363237  
    496000   635.21866     -2645.8146      0             -2570.1106      1.8379338    
    496200   580.17494     -2644.8527      0             -2575.7087      2.6269985    
    496400   579.85755     -2650.1391      0             -2581.033       5.7889074    
    496600   587.45088     -2647.1028      0             -2577.0917      2.3900604    
    496800   595.91765     -2642.8494      0             -2571.8292     -6.0797053    
    497000   599.07708     -2648.8081      0             -2577.4114      4.6156842    
    497200   602.67666     -2651.5373      0             -2579.7115     -4.4626029    
    497400   607.26176     -2648.3186      0             -2575.9465      4.8755378    
    497600   578.52105     -2644.8648      0             -2575.9179     -3.9063758    
    497800   593.65355     -2648.14        0             -2577.3897     -0.82547546   
    498000   608.75835     -2649.8574      0             -2577.3069     -3.7648158    
    498200   640.07797     -2650.2133      0             -2573.9302      0.83048005   
    498400   571.79472     -2646.0455      0             -2577.9002      1.9062429    
    498600   609.63043     -2649.5169      0             -2576.8625     -5.467302     
    498800   607.08473     -2647.6438      0             -2575.2927     -3.6321589    
    499000   602.37752     -2648.3558      0             -2576.5658     -2.3627039    
    499200   594.20142     -2648.816       0             -2578.0003      4.9879503    
    499400   612.31835     -2648.9714      0             -2575.9966     -3.1132284    
    499600   607.87671     -2646.0714      0             -2573.6259      3.0680774    
    499800   611.90198     -2649.8027      0             -2576.8775      2.8819317    
    500000   594.00334     -2648.231       0             -2577.439      -1.8486518    
Loop time of 241.376 on 8 procs for 500000 steps with 923 atoms

Performance: 357.948 ns/day, 0.067 hours/ns, 2071.459 timesteps/s
99.6% CPU use with 8 MPI tasks x 1 OpenMP threads

MPI task timing breakdown:
Section |  min time  |  avg time  |  max time  |%varavg| %total
---------------------------------------------------------------
Pair    | 156.68     | 182.02     | 212.29     | 161.1 | 75.41
Neigh   | 1.1395     | 1.5036     | 1.9788     |  27.4 |  0.62
Comm    | 16.524     | 46.491     | 72.32      | 324.5 | 19.26
Output  | 1.3683     | 1.3724     | 1.387      |   0.5 |  0.57
Modify  | 6.0682     | 7.4591     | 8.3618     |  27.8 |  3.09
Other   |            | 2.525      |            |       |  1.05

Nlocal:        115.375 ave         125 max          97 min
Histogram: 1 0 0 1 1 0 0 2 1 2
Nghost:        502.625 ave         518 max         480 min
Histogram: 1 2 0 0 0 1 0 0 0 4
Neighs:        6902.25 ave        9567 max        4905 min
Histogram: 3 1 0 0 1 0 0 1 0 2

Total # of neighbors = 55218
Ave neighs/atom = 59.824485
Neighbor list builds = 6468
Dangerous builds = 0
All done!
Total wall time: 0:04:01
[1777823123.437582] [cn13:720427:0]          parser.c:1906 UCX  WARN  unused env variable: UCX_ROOT (set UCX_WARN_UNUSED_ENV_VARS=n to suppress this warning)
[1777823123.437582] [cn13:720426:0]          parser.c:1906 UCX  WARN  unused env variable: UCX_ROOT (set UCX_WARN_UNUSED_ENV_VARS=n to suppress this warning)
[1777823123.511756] [cn17:111750:0]          parser.c:1906 UCX  WARN  unused env variable: UCX_ROOT (set UCX_WARN_UNUSED_ENV_VARS=n to suppress this warning)
[1777823123.511756] [cn17:111751:0]          parser.c:1906 UCX  WARN  unused env variable: UCX_ROOT (set UCX_WARN_UNUSED_ENV_VARS=n to suppress this warning)
[1777823123.511797] [cn17:111752:0]          parser.c:1906 UCX  WARN  unused env variable: UCX_ROOT (set UCX_WARN_UNUSED_ENV_VARS=n to suppress this warning)
[1777823123.512134] [cn17:111753:0]          parser.c:1906 UCX  WARN  unused env variable: UCX_ROOT (set UCX_WARN_UNUSED_ENV_VARS=n to suppress this warning)
[1777823123.511934] [cn17:111749:0]          parser.c:1906 UCX  WARN  unused env variable: UCX_ROOT (set UCX_WARN_UNUSED_ENV_VARS=n to suppress this warning)
