 Start File for LAMMPS

 1415 atoms

 1 atom types
 
  -0.0 200.0 xlo xhi
  -0.0 200.0 ylo yhi
  -0.0 200.0 zlo zhi
  
 Masses

 1  26.981539
 
 Atoms

1	1	100	100	100
2	1	98.05	98.05	100
3	1	98.05	100	98.05
4	1	98.05	100	101.95
5	1	98.05	101.95	100
6	1	100	98.05	98.05
7	1	100	98.05	101.95
8	1	100	101.95	98.05
9	1	100	101.95	101.95
10	1	101.95	98.05	100
11	1	101.95	100	98.05
12	1	101.95	100	101.95
13	1	101.95	101.95	100
14	1	96.1	100	100
15	1	100	96.1	100
16	1	100	100	96.1
17	1	100	100	103.9
18	1	100	103.9	100
19	1	103.9	100	100
20	1	96.1	98.05	98.05
21	1	96.1	98.05	101.95
22	1	96.1	101.95	98.05
23	1	96.1	101.95	101.95
24	1	98.05	96.1	98.05
25	1	98.05	96.1	101.95
26	1	98.05	98.05	96.1
27	1	98.05	98.05	103.9
28	1	98.05	101.95	96.1
29	1	98.05	101.95	103.9
30	1	98.05	103.9	98.05
31	1	98.05	103.9	101.95
32	1	101.95	96.1	98.05
33	1	101.95	96.1	101.95
34	1	101.95	98.05	96.1
35	1	101.95	98.05	103.9
36	1	101.95	101.95	96.1
37	1	101.95	101.95	103.9
38	1	101.95	103.9	98.05
39	1	101.95	103.9	101.95
40	1	103.9	98.05	98.05
41	1	103.9	98.05	101.95
42	1	103.9	101.95	98.05
43	1	103.9	101.95	101.95
44	1	96.1	96.1	100
45	1	96.1	100	96.1
46	1	96.1	100	103.9
47	1	96.1	103.9	100
48	1	100	96.1	96.1
49	1	100	96.1	103.9
50	1	100	103.9	96.1
51	1	100	103.9	103.9
52	1	103.9	96.1	100
53	1	103.9	100	96.1
54	1	103.9	100	103.9
55	1	103.9	103.9	100
56	1	94.15	98.05	100
57	1	94.15	100	98.05
58	1	94.15	100	101.95
59	1	94.15	101.95	100
60	1	98.05	94.15	100
61	1	98.05	100	94.15
62	1	98.05	100	105.85
63	1	98.05	105.85	100
64	1	100	94.15	98.05
65	1	100	94.15	101.95
66	1	100	98.05	94.15
67	1	100	98.05	105.85
68	1	100	101.95	94.15
69	1	100	101.95	105.85
70	1	100	105.85	98.05
71	1	100	105.85	101.95
72	1	101.95	94.15	100
73	1	101.95	100	94.15
74	1	101.95	100	105.85
75	1	101.95	105.85	100
76	1	105.85	98.05	100
77	1	105.85	100	98.05
78	1	105.85	100	101.95
79	1	105.85	101.95	100
80	1	96.1	96.1	96.1
81	1	96.1	96.1	103.9
82	1	96.1	103.9	96.1
83	1	96.1	103.9	103.9
84	1	103.9	96.1	96.1
85	1	103.9	96.1	103.9
86	1	103.9	103.9	96.1
87	1	103.9	103.9	103.9
88	1	94.15	96.1	98.05
89	1	94.15	96.1	101.95
90	1	94.15	98.05	96.1
91	1	94.15	98.05	103.9
92	1	94.15	101.95	96.1
93	1	94.15	101.95	103.9
94	1	94.15	103.9	98.05
95	1	94.15	103.9	101.95
96	1	96.1	94.15	98.05
97	1	96.1	94.15	101.95
98	1	96.1	98.05	94.15
99	1	96.1	98.05	105.85
100	1	96.1	101.95	94.15
101	1	96.1	101.95	105.85
102	1	96.1	105.85	98.05
103	1	96.1	105.85	101.95
104	1	98.05	94.15	96.1
105	1	98.05	94.15	103.9
106	1	98.05	96.1	94.15
107	1	98.05	96.1	105.85
108	1	98.05	103.9	94.15
109	1	98.05	103.9	105.85
110	1	98.05	105.85	96.1
111	1	98.05	105.85	103.9
112	1	101.95	94.15	96.1
113	1	101.95	94.15	103.9
114	1	101.95	96.1	94.15
115	1	101.95	96.1	105.85
116	1	101.95	103.9	94.15
117	1	101.95	103.9	105.85
118	1	101.95	105.85	96.1
119	1	101.95	105.85	103.9
120	1	103.9	94.15	98.05
121	1	103.9	94.15	101.95
122	1	103.9	98.05	94.15
123	1	103.9	98.05	105.85
124	1	103.9	101.95	94.15
125	1	103.9	101.95	105.85
126	1	103.9	105.85	98.05
127	1	103.9	105.85	101.95
128	1	105.85	96.1	98.05
129	1	105.85	96.1	101.95
130	1	105.85	98.05	96.1
131	1	105.85	98.05	103.9
132	1	105.85	101.95	96.1
133	1	105.85	101.95	103.9
134	1	105.85	103.9	98.05
135	1	105.85	103.9	101.95
136	1	92.2	100	100
137	1	100	92.2	100
138	1	100	100	92.2
139	1	100	100	107.8
140	1	100	107.8	100
141	1	107.8	100	100
142	1	92.2	98.05	98.05
143	1	92.2	98.05	101.95
144	1	92.2	101.95	98.05
145	1	92.2	101.95	101.95
146	1	94.15	94.15	100
147	1	94.15	100	94.15
148	1	94.15	100	105.85
149	1	94.15	105.85	100
150	1	98.05	92.2	98.05
151	1	98.05	92.2	101.95
152	1	98.05	98.05	92.2
153	1	98.05	98.05	107.8
154	1	98.05	101.95	92.2
155	1	98.05	101.95	107.8
156	1	98.05	107.8	98.05
157	1	98.05	107.8	101.95
158	1	100	94.15	94.15
159	1	100	94.15	105.85
160	1	100	105.85	94.15
161	1	100	105.85	105.85
162	1	101.95	92.2	98.05
163	1	101.95	92.2	101.95
164	1	101.95	98.05	92.2
165	1	101.95	98.05	107.8
166	1	101.95	101.95	92.2
167	1	101.95	101.95	107.8
168	1	101.95	107.8	98.05
169	1	101.95	107.8	101.95
170	1	105.85	94.15	100
171	1	105.85	100	94.15
172	1	105.85	100	105.85
173	1	105.85	105.85	100
174	1	107.8	98.05	98.05
175	1	107.8	98.05	101.95
176	1	107.8	101.95	98.05
177	1	107.8	101.95	101.95
178	1	92.2	96.1	100
179	1	92.2	100	96.1
180	1	92.2	100	103.9
181	1	92.2	103.9	100
182	1	96.1	92.2	100
183	1	96.1	100	92.2
184	1	96.1	100	107.8
185	1	96.1	107.8	100
186	1	100	92.2	96.1
187	1	100	92.2	103.9
188	1	100	96.1	92.2
189	1	100	96.1	107.8
190	1	100	103.9	92.2
191	1	100	103.9	107.8
192	1	100	107.8	96.1
193	1	100	107.8	103.9
194	1	103.9	92.2	100
195	1	103.9	100	92.2
196	1	103.9	100	107.8
197	1	103.9	107.8	100
198	1	107.8	96.1	100
199	1	107.8	100	96.1
200	1	107.8	100	103.9
201	1	107.8	103.9	100
202	1	94.15	94.15	96.1
203	1	94.15	94.15	103.9
204	1	94.15	96.1	94.15
205	1	94.15	96.1	105.85
206	1	94.15	103.9	94.15
207	1	94.15	103.9	105.85
208	1	94.15	105.85	96.1
209	1	94.15	105.85	103.9
210	1	96.1	94.15	94.15
211	1	96.1	94.15	105.85
212	1	96.1	105.85	94.15
213	1	96.1	105.85	105.85
214	1	103.9	94.15	94.15
215	1	103.9	94.15	105.85
216	1	103.9	105.85	94.15
217	1	103.9	105.85	105.85
218	1	105.85	94.15	96.1
219	1	105.85	94.15	103.9
220	1	105.85	96.1	94.15
221	1	105.85	96.1	105.85
222	1	105.85	103.9	94.15
223	1	105.85	103.9	105.85
224	1	105.85	105.85	96.1
225	1	105.85	105.85	103.9
226	1	92.2	96.1	96.1
227	1	92.2	96.1	103.9
228	1	92.2	103.9	96.1
229	1	92.2	103.9	103.9
230	1	96.1	92.2	96.1
231	1	96.1	92.2	103.9
232	1	96.1	96.1	92.2
233	1	96.1	96.1	107.8
234	1	96.1	103.9	92.2
235	1	96.1	103.9	107.8
236	1	96.1	107.8	96.1
237	1	96.1	107.8	103.9
238	1	103.9	92.2	96.1
239	1	103.9	92.2	103.9
240	1	103.9	96.1	92.2
241	1	103.9	96.1	107.8
242	1	103.9	103.9	92.2
243	1	103.9	103.9	107.8
244	1	103.9	107.8	96.1
245	1	103.9	107.8	103.9
246	1	107.8	96.1	96.1
247	1	107.8	96.1	103.9
248	1	107.8	103.9	96.1
249	1	107.8	103.9	103.9
250	1	90.25	98.05	100
251	1	90.25	100	98.05
252	1	90.25	100	101.95
253	1	90.25	101.95	100
254	1	92.2	94.15	98.05
255	1	92.2	94.15	101.95
256	1	92.2	98.05	94.15
257	1	92.2	98.05	105.85
258	1	92.2	101.95	94.15
259	1	92.2	101.95	105.85
260	1	92.2	105.85	98.05
261	1	92.2	105.85	101.95
262	1	94.15	92.2	98.05
263	1	94.15	92.2	101.95
264	1	94.15	98.05	92.2
265	1	94.15	98.05	107.8
266	1	94.15	101.95	92.2
267	1	94.15	101.95	107.8
268	1	94.15	107.8	98.05
269	1	94.15	107.8	101.95
270	1	98.05	90.25	100
271	1	98.05	92.2	94.15
272	1	98.05	92.2	105.85
273	1	98.05	94.15	92.2
274	1	98.05	94.15	107.8
275	1	98.05	100	90.25
276	1	98.05	100	109.75
277	1	98.05	105.85	92.2
278	1	98.05	105.85	107.8
279	1	98.05	107.8	94.15
280	1	98.05	107.8	105.85
281	1	98.05	109.75	100
282	1	100	90.25	98.05
283	1	100	90.25	101.95
284	1	100	98.05	90.25
285	1	100	98.05	109.75
286	1	100	101.95	90.25
287	1	100	101.95	109.75
288	1	100	109.75	98.05
289	1	100	109.75	101.95
290	1	101.95	90.25	100
291	1	101.95	92.2	94.15
292	1	101.95	92.2	105.85
293	1	101.95	94.15	92.2
294	1	101.95	94.15	107.8
295	1	101.95	100	90.25
296	1	101.95	100	109.75
297	1	101.95	105.85	92.2
298	1	101.95	105.85	107.8
299	1	101.95	107.8	94.15
300	1	101.95	107.8	105.85
301	1	101.95	109.75	100
302	1	105.85	92.2	98.05
303	1	105.85	92.2	101.95
304	1	105.85	98.05	92.2
305	1	105.85	98.05	107.8
306	1	105.85	101.95	92.2
307	1	105.85	101.95	107.8
308	1	105.85	107.8	98.05
309	1	105.85	107.8	101.95
310	1	107.8	94.15	98.05
311	1	107.8	94.15	101.95
312	1	107.8	98.05	94.15
313	1	107.8	98.05	105.85
314	1	107.8	101.95	94.15
315	1	107.8	101.95	105.85
316	1	107.8	105.85	98.05
317	1	107.8	105.85	101.95
318	1	109.75	98.05	100
319	1	109.75	100	98.05
320	1	109.75	100	101.95
321	1	109.75	101.95	100
322	1	90.25	96.1	98.05
323	1	90.25	96.1	101.95
324	1	90.25	98.05	96.1
325	1	90.25	98.05	103.9
326	1	90.25	101.95	96.1
327	1	90.25	101.95	103.9
328	1	90.25	103.9	98.05
329	1	90.25	103.9	101.95
330	1	96.1	90.25	98.05
331	1	96.1	90.25	101.95
332	1	96.1	98.05	90.25
333	1	96.1	98.05	109.75
334	1	96.1	101.95	90.25
335	1	96.1	101.95	109.75
336	1	96.1	109.75	98.05
337	1	96.1	109.75	101.95
338	1	98.05	90.25	96.1
339	1	98.05	90.25	103.9
340	1	98.05	96.1	90.25
341	1	98.05	96.1	109.75
342	1	98.05	103.9	90.25
343	1	98.05	103.9	109.75
344	1	98.05	109.75	96.1
345	1	98.05	109.75	103.9
346	1	101.95	90.25	96.1
347	1	101.95	90.25	103.9
348	1	101.95	96.1	90.25
349	1	101.95	96.1	109.75
350	1	101.95	103.9	90.25
351	1	101.95	103.9	109.75
352	1	101.95	109.75	96.1
353	1	101.95	109.75	103.9
354	1	103.9	90.25	98.05
355	1	103.9	90.25	101.95
356	1	103.9	98.05	90.25
357	1	103.9	98.05	109.75
358	1	103.9	101.95	90.25
359	1	103.9	101.95	109.75
360	1	103.9	109.75	98.05
361	1	103.9	109.75	101.95
362	1	109.75	96.1	98.05
363	1	109.75	96.1	101.95
364	1	109.75	98.05	96.1
365	1	109.75	98.05	103.9
366	1	109.75	101.95	96.1
367	1	109.75	101.95	103.9
368	1	109.75	103.9	98.05
369	1	109.75	103.9	101.95
370	1	92.2	92.2	100
371	1	92.2	100	92.2
372	1	92.2	100	107.8
373	1	92.2	107.8	100
374	1	100	92.2	92.2
375	1	100	92.2	107.8
376	1	100	107.8	92.2
377	1	100	107.8	107.8
378	1	107.8	92.2	100
379	1	107.8	100	92.2
380	1	107.8	100	107.8
381	1	107.8	107.8	100
382	1	90.25	94.15	100
383	1	90.25	100	94.15
384	1	90.25	100	105.85
385	1	90.25	105.85	100
386	1	92.2	94.15	94.15
387	1	92.2	94.15	105.85
388	1	92.2	105.85	94.15
389	1	92.2	105.85	105.85
390	1	94.15	90.25	100
391	1	94.15	92.2	94.15
392	1	94.15	92.2	105.85
393	1	94.15	94.15	92.2
394	1	94.15	94.15	107.8
395	1	94.15	100	90.25
396	1	94.15	100	109.75
397	1	94.15	105.85	92.2
398	1	94.15	105.85	107.8
399	1	94.15	107.8	94.15
400	1	94.15	107.8	105.85
401	1	94.15	109.75	100
402	1	100	90.25	94.15
403	1	100	90.25	105.85
404	1	100	94.15	90.25
405	1	100	94.15	109.75
406	1	100	105.85	90.25
407	1	100	105.85	109.75
408	1	100	109.75	94.15
409	1	100	109.75	105.85
410	1	105.85	90.25	100
411	1	105.85	92.2	94.15
412	1	105.85	92.2	105.85
413	1	105.85	94.15	92.2
414	1	105.85	94.15	107.8
415	1	105.85	100	90.25
416	1	105.85	100	109.75
417	1	105.85	105.85	92.2
418	1	105.85	105.85	107.8
419	1	105.85	107.8	94.15
420	1	105.85	107.8	105.85
421	1	105.85	109.75	100
422	1	107.8	94.15	94.15
423	1	107.8	94.15	105.85
424	1	107.8	105.85	94.15
425	1	107.8	105.85	105.85
426	1	109.75	94.15	100
427	1	109.75	100	94.15
428	1	109.75	100	105.85
429	1	109.75	105.85	100
430	1	92.2	92.2	96.1
431	1	92.2	92.2	103.9
432	1	92.2	96.1	92.2
433	1	92.2	96.1	107.8
434	1	92.2	103.9	92.2
435	1	92.2	103.9	107.8
436	1	92.2	107.8	96.1
437	1	92.2	107.8	103.9
438	1	96.1	92.2	92.2
439	1	96.1	92.2	107.8
440	1	96.1	107.8	92.2
441	1	96.1	107.8	107.8
442	1	103.9	92.2	92.2
443	1	103.9	92.2	107.8
444	1	103.9	107.8	92.2
445	1	103.9	107.8	107.8
446	1	107.8	92.2	96.1
447	1	107.8	92.2	103.9
448	1	107.8	96.1	92.2
449	1	107.8	96.1	107.8
450	1	107.8	103.9	92.2
451	1	107.8	103.9	107.8
452	1	107.8	107.8	96.1
453	1	107.8	107.8	103.9
454	1	90.25	94.15	96.1
455	1	90.25	94.15	103.9
456	1	90.25	96.1	94.15
457	1	90.25	96.1	105.85
458	1	90.25	103.9	94.15
459	1	90.25	103.9	105.85
460	1	90.25	105.85	96.1
461	1	90.25	105.85	103.9
462	1	94.15	90.25	96.1
463	1	94.15	90.25	103.9
464	1	94.15	96.1	90.25
465	1	94.15	96.1	109.75
466	1	94.15	103.9	90.25
467	1	94.15	103.9	109.75
468	1	94.15	109.75	96.1
469	1	94.15	109.75	103.9
470	1	96.1	90.25	94.15
471	1	96.1	90.25	105.85
472	1	96.1	94.15	90.25
473	1	96.1	94.15	109.75
474	1	96.1	105.85	90.25
475	1	96.1	105.85	109.75
476	1	96.1	109.75	94.15
477	1	96.1	109.75	105.85
478	1	103.9	90.25	94.15
479	1	103.9	90.25	105.85
480	1	103.9	94.15	90.25
481	1	103.9	94.15	109.75
482	1	103.9	105.85	90.25
483	1	103.9	105.85	109.75
484	1	103.9	109.75	94.15
485	1	103.9	109.75	105.85
486	1	105.85	90.25	96.1
487	1	105.85	90.25	103.9
488	1	105.85	96.1	90.25
489	1	105.85	96.1	109.75
490	1	105.85	103.9	90.25
491	1	105.85	103.9	109.75
492	1	105.85	109.75	96.1
493	1	105.85	109.75	103.9
494	1	109.75	94.15	96.1
495	1	109.75	94.15	103.9
496	1	109.75	96.1	94.15
497	1	109.75	96.1	105.85
498	1	109.75	103.9	94.15
499	1	109.75	103.9	105.85
500	1	109.75	105.85	96.1
501	1	109.75	105.85	103.9
502	1	90.25	92.2	98.05
503	1	90.25	92.2	101.95
504	1	90.25	107.8	98.05
505	1	90.25	107.8	101.95
506	1	92.2	90.25	98.05
507	1	92.2	90.25	101.95
508	1	92.2	109.75	98.05
509	1	92.2	109.75	101.95
510	1	107.8	90.25	98.05
511	1	107.8	90.25	101.95
512	1	107.8	109.75	98.05
513	1	107.8	109.75	101.95
514	1	109.75	92.2	98.05
515	1	109.75	92.2	101.95
516	1	109.75	107.8	98.05
517	1	109.75	107.8	101.95
518	1	90.25	98.05	92.2
519	1	90.25	98.05	107.8
520	1	90.25	101.95	92.2
521	1	90.25	101.95	107.8
522	1	92.2	98.05	90.25
523	1	92.2	98.05	109.75
524	1	92.2	101.95	90.25
525	1	92.2	101.95	109.75
526	1	98.05	90.25	92.2
527	1	98.05	90.25	107.8
528	1	98.05	92.2	90.25
529	1	98.05	92.2	109.75
530	1	98.05	107.8	90.25
531	1	98.05	107.8	109.75
532	1	98.05	109.75	92.2
533	1	98.05	109.75	107.8
534	1	101.95	90.25	92.2
535	1	101.95	90.25	107.8
536	1	101.95	92.2	90.25
537	1	101.95	92.2	109.75
538	1	101.95	107.8	90.25
539	1	101.95	107.8	109.75
540	1	101.95	109.75	92.2
541	1	101.95	109.75	107.8
542	1	107.8	98.05	90.25
543	1	107.8	98.05	109.75
544	1	107.8	101.95	90.25
545	1	107.8	101.95	109.75
546	1	109.75	98.05	92.2
547	1	109.75	98.05	107.8
548	1	109.75	101.95	92.2
549	1	109.75	101.95	107.8
550	1	90.25	90.25	100
551	1	90.25	100	90.25
552	1	90.25	100	109.75
553	1	90.25	109.75	100
554	1	100	90.25	90.25
555	1	100	90.25	109.75
556	1	100	109.75	90.25
557	1	100	109.75	109.75
558	1	109.75	90.25	100
559	1	109.75	100	90.25
560	1	109.75	100	109.75
561	1	109.75	109.75	100
562	1	88.3	100	100
563	1	100	88.3	100
564	1	100	100	88.3
565	1	100	100	111.7
566	1	100	111.7	100
567	1	111.7	100	100
568	1	88.3	98.05	98.05
569	1	88.3	98.05	101.95
570	1	88.3	101.95	98.05
571	1	88.3	101.95	101.95
572	1	98.05	88.3	98.05
573	1	98.05	88.3	101.95
574	1	98.05	111.7	98.05
575	1	98.05	111.7	101.95
576	1	101.95	88.3	98.05
577	1	101.95	88.3	101.95
578	1	101.95	111.7	98.05
579	1	101.95	111.7	101.95
580	1	111.7	98.05	98.05
581	1	111.7	98.05	101.95
582	1	111.7	101.95	98.05
583	1	111.7	101.95	101.95
584	1	98.05	98.05	88.3
585	1	98.05	98.05	111.7
586	1	98.05	101.95	88.3
587	1	98.05	101.95	111.7
588	1	101.95	98.05	88.3
589	1	101.95	98.05	111.7
590	1	101.95	101.95	88.3
591	1	101.95	101.95	111.7
592	1	88.3	96.1	100
593	1	88.3	100	96.1
594	1	88.3	100	103.9
595	1	88.3	103.9	100
596	1	96.1	88.3	100
597	1	96.1	100	88.3
598	1	96.1	100	111.7
599	1	96.1	111.7	100
600	1	100	88.3	96.1
601	1	100	88.3	103.9
602	1	100	96.1	88.3
603	1	100	96.1	111.7
604	1	100	103.9	88.3
605	1	100	103.9	111.7
606	1	100	111.7	96.1
607	1	100	111.7	103.9
608	1	103.9	88.3	100
609	1	103.9	100	88.3
610	1	103.9	100	111.7
611	1	103.9	111.7	100
612	1	111.7	96.1	100
613	1	111.7	100	96.1
614	1	111.7	100	103.9
615	1	111.7	103.9	100
616	1	88.3	96.1	96.1
617	1	88.3	96.1	103.9
618	1	88.3	103.9	96.1
619	1	88.3	103.9	103.9
620	1	96.1	88.3	96.1
621	1	96.1	88.3	103.9
622	1	96.1	96.1	88.3
623	1	96.1	96.1	111.7
624	1	96.1	103.9	88.3
625	1	96.1	103.9	111.7
626	1	96.1	111.7	96.1
627	1	96.1	111.7	103.9
628	1	103.9	88.3	96.1
629	1	103.9	88.3	103.9
630	1	103.9	96.1	88.3
631	1	103.9	96.1	111.7
632	1	103.9	103.9	88.3
633	1	103.9	103.9	111.7
634	1	103.9	111.7	96.1
635	1	103.9	111.7	103.9
636	1	111.7	96.1	96.1
637	1	111.7	96.1	103.9
638	1	111.7	103.9	96.1
639	1	111.7	103.9	103.9
640	1	88.3	94.15	98.05
641	1	88.3	94.15	101.95
642	1	88.3	98.05	94.15
643	1	88.3	98.05	105.85
644	1	88.3	101.95	94.15
645	1	88.3	101.95	105.85
646	1	88.3	105.85	98.05
647	1	88.3	105.85	101.95
648	1	94.15	88.3	98.05
649	1	94.15	88.3	101.95
650	1	94.15	98.05	88.3
651	1	94.15	98.05	111.7
652	1	94.15	101.95	88.3
653	1	94.15	101.95	111.7
654	1	94.15	111.7	98.05
655	1	94.15	111.7	101.95
656	1	98.05	88.3	94.15
657	1	98.05	88.3	105.85
658	1	98.05	94.15	88.3
659	1	98.05	94.15	111.7
660	1	98.05	105.85	88.3
661	1	98.05	105.85	111.7
662	1	98.05	111.7	94.15
663	1	98.05	111.7	105.85
664	1	101.95	88.3	94.15
665	1	101.95	88.3	105.85
666	1	101.95	94.15	88.3
667	1	101.95	94.15	111.7
668	1	101.95	105.85	88.3
669	1	101.95	105.85	111.7
670	1	101.95	111.7	94.15
671	1	101.95	111.7	105.85
672	1	105.85	88.3	98.05
673	1	105.85	88.3	101.95
674	1	105.85	98.05	88.3
675	1	105.85	98.05	111.7
676	1	105.85	101.95	88.3
677	1	105.85	101.95	111.7
678	1	105.85	111.7	98.05
679	1	105.85	111.7	101.95
680	1	111.7	94.15	98.05
681	1	111.7	94.15	101.95
682	1	111.7	98.05	94.15
683	1	111.7	98.05	105.85
684	1	111.7	101.95	94.15
685	1	111.7	101.95	105.85
686	1	111.7	105.85	98.05
687	1	111.7	105.85	101.95
688	1	92.2	92.2	92.2
689	1	92.2	92.2	107.8
690	1	92.2	107.8	92.2
691	1	92.2	107.8	107.8
692	1	107.8	92.2	92.2
693	1	107.8	92.2	107.8
694	1	107.8	107.8	92.2
695	1	107.8	107.8	107.8
696	1	90.25	92.2	94.15
697	1	90.25	92.2	105.85
698	1	90.25	107.8	94.15
699	1	90.25	107.8	105.85
700	1	92.2	90.25	94.15
701	1	92.2	90.25	105.85
702	1	92.2	109.75	94.15
703	1	92.2	109.75	105.85
704	1	107.8	90.25	94.15
705	1	107.8	90.25	105.85
706	1	107.8	109.75	94.15
707	1	107.8	109.75	105.85
708	1	109.75	92.2	94.15
709	1	109.75	92.2	105.85
710	1	109.75	107.8	94.15
711	1	109.75	107.8	105.85
712	1	90.25	94.15	92.2
713	1	90.25	94.15	107.8
714	1	90.25	105.85	92.2
715	1	90.25	105.85	107.8
716	1	92.2	94.15	90.25
717	1	92.2	94.15	109.75
718	1	92.2	105.85	90.25
719	1	92.2	105.85	109.75
720	1	94.15	90.25	92.2
721	1	94.15	90.25	107.8
722	1	94.15	92.2	90.25
723	1	94.15	92.2	109.75
724	1	94.15	107.8	90.25
725	1	94.15	107.8	109.75
726	1	94.15	109.75	92.2
727	1	94.15	109.75	107.8
728	1	105.85	90.25	92.2
729	1	105.85	90.25	107.8
730	1	105.85	92.2	90.25
731	1	105.85	92.2	109.75
732	1	105.85	107.8	90.25
733	1	105.85	107.8	109.75
734	1	105.85	109.75	92.2
735	1	105.85	109.75	107.8
736	1	107.8	94.15	90.25
737	1	107.8	94.15	109.75
738	1	107.8	105.85	90.25
739	1	107.8	105.85	109.75
740	1	109.75	94.15	92.2
741	1	109.75	94.15	107.8
742	1	109.75	105.85	92.2
743	1	109.75	105.85	107.8
744	1	88.3	92.2	100
745	1	88.3	100	92.2
746	1	88.3	100	107.8
747	1	88.3	107.8	100
748	1	92.2	88.3	100
749	1	92.2	100	88.3
750	1	92.2	100	111.7
751	1	92.2	111.7	100
752	1	100	88.3	92.2
753	1	100	88.3	107.8
754	1	100	92.2	88.3
755	1	100	92.2	111.7
756	1	100	107.8	88.3
757	1	100	107.8	111.7
758	1	100	111.7	92.2
759	1	100	111.7	107.8
760	1	107.8	88.3	100
761	1	107.8	100	88.3
762	1	107.8	100	111.7
763	1	107.8	111.7	100
764	1	111.7	92.2	100
765	1	111.7	100	92.2
766	1	111.7	100	107.8
767	1	111.7	107.8	100
768	1	88.3	94.15	94.15
769	1	88.3	94.15	105.85
770	1	88.3	105.85	94.15
771	1	88.3	105.85	105.85
772	1	90.25	90.25	96.1
773	1	90.25	90.25	103.9
774	1	90.25	96.1	90.25
775	1	90.25	96.1	109.75
776	1	90.25	103.9	90.25
777	1	90.25	103.9	109.75
778	1	90.25	109.75	96.1
779	1	90.25	109.75	103.9
780	1	94.15	88.3	94.15
781	1	94.15	88.3	105.85
782	1	94.15	94.15	88.3
783	1	94.15	94.15	111.7
784	1	94.15	105.85	88.3
785	1	94.15	105.85	111.7
786	1	94.15	111.7	94.15
787	1	94.15	111.7	105.85
788	1	96.1	90.25	90.25
789	1	96.1	90.25	109.75
790	1	96.1	109.75	90.25
791	1	96.1	109.75	109.75
792	1	103.9	90.25	90.25
793	1	103.9	90.25	109.75
794	1	103.9	109.75	90.25
795	1	103.9	109.75	109.75
796	1	105.85	88.3	94.15
797	1	105.85	88.3	105.85
798	1	105.85	94.15	88.3
799	1	105.85	94.15	111.7
800	1	105.85	105.85	88.3
801	1	105.85	105.85	111.7
802	1	105.85	111.7	94.15
803	1	105.85	111.7	105.85
804	1	109.75	90.25	96.1
805	1	109.75	90.25	103.9
806	1	109.75	96.1	90.25
807	1	109.75	96.1	109.75
808	1	109.75	103.9	90.25
809	1	109.75	103.9	109.75
810	1	109.75	109.75	96.1
811	1	109.75	109.75	103.9
812	1	111.7	94.15	94.15
813	1	111.7	94.15	105.85
814	1	111.7	105.85	94.15
815	1	111.7	105.85	105.85
816	1	88.3	92.2	96.1
817	1	88.3	92.2	103.9
818	1	88.3	96.1	92.2
819	1	88.3	96.1	107.8
820	1	88.3	103.9	92.2
821	1	88.3	103.9	107.8
822	1	88.3	107.8	96.1
823	1	88.3	107.8	103.9
824	1	92.2	88.3	96.1
825	1	92.2	88.3	103.9
826	1	92.2	96.1	88.3
827	1	92.2	96.1	111.7
828	1	92.2	103.9	88.3
829	1	92.2	103.9	111.7
830	1	92.2	111.7	96.1
831	1	92.2	111.7	103.9
832	1	96.1	88.3	92.2
833	1	96.1	88.3	107.8
834	1	96.1	92.2	88.3
835	1	96.1	92.2	111.7
836	1	96.1	107.8	88.3
837	1	96.1	107.8	111.7
838	1	96.1	111.7	92.2
839	1	96.1	111.7	107.8
840	1	103.9	88.3	92.2
841	1	103.9	88.3	107.8
842	1	103.9	92.2	88.3
843	1	103.9	92.2	111.7
844	1	103.9	107.8	88.3
845	1	103.9	107.8	111.7
846	1	103.9	111.7	92.2
847	1	103.9	111.7	107.8
848	1	107.8	88.3	96.1
849	1	107.8	88.3	103.9
850	1	107.8	96.1	88.3
851	1	107.8	96.1	111.7
852	1	107.8	103.9	88.3
853	1	107.8	103.9	111.7
854	1	107.8	111.7	96.1
855	1	107.8	111.7	103.9
856	1	111.7	92.2	96.1
857	1	111.7	92.2	103.9
858	1	111.7	96.1	92.2
859	1	111.7	96.1	107.8
860	1	111.7	103.9	92.2
861	1	111.7	103.9	107.8
862	1	111.7	107.8	96.1
863	1	111.7	107.8	103.9
864	1	88.3	98.05	90.25
865	1	88.3	98.05	109.75
866	1	88.3	101.95	90.25
867	1	88.3	101.95	109.75
868	1	98.05	88.3	90.25
869	1	98.05	88.3	109.75
870	1	98.05	111.7	90.25
871	1	98.05	111.7	109.75
872	1	101.95	88.3	90.25
873	1	101.95	88.3	109.75
874	1	101.95	111.7	90.25
875	1	101.95	111.7	109.75
876	1	111.7	98.05	90.25
877	1	111.7	98.05	109.75
878	1	111.7	101.95	90.25
879	1	111.7	101.95	109.75
880	1	88.3	90.25	98.05
881	1	88.3	90.25	101.95
882	1	88.3	109.75	98.05
883	1	88.3	109.75	101.95
884	1	90.25	88.3	98.05
885	1	90.25	88.3	101.95
886	1	90.25	98.05	88.3
887	1	90.25	98.05	111.7
888	1	90.25	101.95	88.3
889	1	90.25	101.95	111.7
890	1	90.25	111.7	98.05
891	1	90.25	111.7	101.95
892	1	98.05	90.25	88.3
893	1	98.05	90.25	111.7
894	1	98.05	109.75	88.3
895	1	98.05	109.75	111.7
896	1	101.95	90.25	88.3
897	1	101.95	90.25	111.7
898	1	101.95	109.75	88.3
899	1	101.95	109.75	111.7
900	1	109.75	88.3	98.05
901	1	109.75	88.3	101.95
902	1	109.75	98.05	88.3
903	1	109.75	98.05	111.7
904	1	109.75	101.95	88.3
905	1	109.75	101.95	111.7
906	1	109.75	111.7	98.05
907	1	109.75	111.7	101.95
908	1	111.7	90.25	98.05
909	1	111.7	90.25	101.95
910	1	111.7	109.75	98.05
911	1	111.7	109.75	101.95
912	1	88.3	88.3	100
913	1	88.3	100	88.3
914	1	88.3	100	111.7
915	1	88.3	111.7	100
916	1	100	88.3	88.3
917	1	100	88.3	111.7
918	1	100	111.7	88.3
919	1	100	111.7	111.7
920	1	111.7	88.3	100
921	1	111.7	100	88.3
922	1	111.7	100	111.7
923	1	111.7	111.7	100
924	1	86.35	98.05	100
925	1	86.35	100	98.05
926	1	86.35	100	101.95
927	1	86.35	101.95	100
928	1	98.05	86.35	100
929	1	98.05	100	86.35
930	1	98.05	100	113.65
931	1	98.05	113.65	100
932	1	100	86.35	98.05
933	1	100	86.35	101.95
934	1	100	98.05	86.35
935	1	100	98.05	113.65
936	1	100	101.95	86.35
937	1	100	101.95	113.65
938	1	100	113.65	98.05
939	1	100	113.65	101.95
940	1	101.95	86.35	100
941	1	101.95	100	86.35
942	1	101.95	100	113.65
943	1	101.95	113.65	100
944	1	113.65	98.05	100
945	1	113.65	100	98.05
946	1	113.65	100	101.95
947	1	113.65	101.95	100
948	1	86.35	96.1	98.05
949	1	86.35	96.1	101.95
950	1	86.35	98.05	96.1
951	1	86.35	98.05	103.9
952	1	86.35	101.95	96.1
953	1	86.35	101.95	103.9
954	1	86.35	103.9	98.05
955	1	86.35	103.9	101.95
956	1	96.1	86.35	98.05
957	1	96.1	86.35	101.95
958	1	96.1	98.05	86.35
959	1	96.1	98.05	113.65
960	1	96.1	101.95	86.35
961	1	96.1	101.95	113.65
962	1	96.1	113.65	98.05
963	1	96.1	113.65	101.95
964	1	98.05	86.35	96.1
965	1	98.05	86.35	103.9
966	1	98.05	96.1	86.35
967	1	98.05	96.1	113.65
968	1	98.05	103.9	86.35
969	1	98.05	103.9	113.65
970	1	98.05	113.65	96.1
971	1	98.05	113.65	103.9
972	1	101.95	86.35	96.1
973	1	101.95	86.35	103.9
974	1	101.95	96.1	86.35
975	1	101.95	96.1	113.65
976	1	101.95	103.9	86.35
977	1	101.95	103.9	113.65
978	1	101.95	113.65	96.1
979	1	101.95	113.65	103.9
980	1	103.9	86.35	98.05
981	1	103.9	86.35	101.95
982	1	103.9	98.05	86.35
983	1	103.9	98.05	113.65
984	1	103.9	101.95	86.35
985	1	103.9	101.95	113.65
986	1	103.9	113.65	98.05
987	1	103.9	113.65	101.95
988	1	113.65	96.1	98.05
989	1	113.65	96.1	101.95
990	1	113.65	98.05	96.1
991	1	113.65	98.05	103.9
992	1	113.65	101.95	96.1
993	1	113.65	101.95	103.9
994	1	113.65	103.9	98.05
995	1	113.65	103.9	101.95
996	1	86.35	94.15	100
997	1	86.35	100	94.15
998	1	86.35	100	105.85
999	1	86.35	105.85	100
1000	1	94.15	86.35	100
1001	1	94.15	100	86.35
1002	1	94.15	100	113.65
1003	1	94.15	113.65	100
1004	1	100	86.35	94.15
1005	1	100	86.35	105.85
1006	1	100	94.15	86.35
1007	1	100	94.15	113.65
1008	1	100	105.85	86.35
1009	1	100	105.85	113.65
1010	1	100	113.65	94.15
1011	1	100	113.65	105.85
1012	1	105.85	86.35	100
1013	1	105.85	100	86.35
1014	1	105.85	100	113.65
1015	1	105.85	113.65	100
1016	1	113.65	94.15	100
1017	1	113.65	100	94.15
1018	1	113.65	100	105.85
1019	1	113.65	105.85	100
1020	1	86.35	94.15	96.1
1021	1	86.35	94.15	103.9
1022	1	86.35	96.1	94.15
1023	1	86.35	96.1	105.85
1024	1	86.35	103.9	94.15
1025	1	86.35	103.9	105.85
1026	1	86.35	105.85	96.1
1027	1	86.35	105.85	103.9
1028	1	94.15	86.35	96.1
1029	1	94.15	86.35	103.9
1030	1	94.15	96.1	86.35
1031	1	94.15	96.1	113.65
1032	1	94.15	103.9	86.35
1033	1	94.15	103.9	113.65
1034	1	94.15	113.65	96.1
1035	1	94.15	113.65	103.9
1036	1	96.1	86.35	94.15
1037	1	96.1	86.35	105.85
1038	1	96.1	94.15	86.35
1039	1	96.1	94.15	113.65
1040	1	96.1	105.85	86.35
1041	1	96.1	105.85	113.65
1042	1	96.1	113.65	94.15
1043	1	96.1	113.65	105.85
1044	1	103.9	86.35	94.15
1045	1	103.9	86.35	105.85
1046	1	103.9	94.15	86.35
1047	1	103.9	94.15	113.65
1048	1	103.9	105.85	86.35
1049	1	103.9	105.85	113.65
1050	1	103.9	113.65	94.15
1051	1	103.9	113.65	105.85
1052	1	105.85	86.35	96.1
1053	1	105.85	86.35	103.9
1054	1	105.85	96.1	86.35
1055	1	105.85	96.1	113.65
1056	1	105.85	103.9	86.35
1057	1	105.85	103.9	113.65
1058	1	105.85	113.65	96.1
1059	1	105.85	113.65	103.9
1060	1	113.65	94.15	96.1
1061	1	113.65	94.15	103.9
1062	1	113.65	96.1	94.15
1063	1	113.65	96.1	105.85
1064	1	113.65	103.9	94.15
1065	1	113.65	103.9	105.85
1066	1	113.65	105.85	96.1
1067	1	113.65	105.85	103.9
1068	1	86.35	92.2	98.05
1069	1	86.35	92.2	101.95
1070	1	86.35	98.05	92.2
1071	1	86.35	98.05	107.8
1072	1	86.35	101.95	92.2
1073	1	86.35	101.95	107.8
1074	1	86.35	107.8	98.05
1075	1	86.35	107.8	101.95
1076	1	90.25	90.25	92.2
1077	1	90.25	90.25	107.8
1078	1	90.25	92.2	90.25
1079	1	90.25	92.2	109.75
1080	1	90.25	107.8	90.25
1081	1	90.25	107.8	109.75
1082	1	90.25	109.75	92.2
1083	1	90.25	109.75	107.8
1084	1	92.2	86.35	98.05
1085	1	92.2	86.35	101.95
1086	1	92.2	90.25	90.25
1087	1	92.2	90.25	109.75
1088	1	92.2	98.05	86.35
1089	1	92.2	98.05	113.65
1090	1	92.2	101.95	86.35
1091	1	92.2	101.95	113.65
1092	1	92.2	109.75	90.25
1093	1	92.2	109.75	109.75
1094	1	92.2	113.65	98.05
1095	1	92.2	113.65	101.95
1096	1	98.05	86.35	92.2
1097	1	98.05	86.35	107.8
1098	1	98.05	92.2	86.35
1099	1	98.05	92.2	113.65
1100	1	98.05	107.8	86.35
1101	1	98.05	107.8	113.65
1102	1	98.05	113.65	92.2
1103	1	98.05	113.65	107.8
1104	1	101.95	86.35	92.2
1105	1	101.95	86.35	107.8
1106	1	101.95	92.2	86.35
1107	1	101.95	92.2	113.65
1108	1	101.95	107.8	86.35
1109	1	101.95	107.8	113.65
1110	1	101.95	113.65	92.2
1111	1	101.95	113.65	107.8
1112	1	107.8	86.35	98.05
1113	1	107.8	86.35	101.95
1114	1	107.8	90.25	90.25
1115	1	107.8	90.25	109.75
1116	1	107.8	98.05	86.35
1117	1	107.8	98.05	113.65
1118	1	107.8	101.95	86.35
1119	1	107.8	101.95	113.65
1120	1	107.8	109.75	90.25
1121	1	107.8	109.75	109.75
1122	1	107.8	113.65	98.05
1123	1	107.8	113.65	101.95
1124	1	109.75	90.25	92.2
1125	1	109.75	90.25	107.8
1126	1	109.75	92.2	90.25
1127	1	109.75	92.2	109.75
1128	1	109.75	107.8	90.25
1129	1	109.75	107.8	109.75
1130	1	109.75	109.75	92.2
1131	1	109.75	109.75	107.8
1132	1	113.65	92.2	98.05
1133	1	113.65	92.2	101.95
1134	1	113.65	98.05	92.2
1135	1	113.65	98.05	107.8
1136	1	113.65	101.95	92.2
1137	1	113.65	101.95	107.8
1138	1	113.65	107.8	98.05
1139	1	113.65	107.8	101.95
1140	1	88.3	92.2	92.2
1141	1	88.3	92.2	107.8
1142	1	88.3	107.8	92.2
1143	1	88.3	107.8	107.8
1144	1	92.2	88.3	92.2
1145	1	92.2	88.3	107.8
1146	1	92.2	92.2	88.3
1147	1	92.2	92.2	111.7
1148	1	92.2	107.8	88.3
1149	1	92.2	107.8	111.7
1150	1	92.2	111.7	92.2
1151	1	92.2	111.7	107.8
1152	1	107.8	88.3	92.2
1153	1	107.8	88.3	107.8
1154	1	107.8	92.2	88.3
1155	1	107.8	92.2	111.7
1156	1	107.8	107.8	88.3
1157	1	107.8	107.8	111.7
1158	1	107.8	111.7	92.2
1159	1	107.8	111.7	107.8
1160	1	111.7	92.2	92.2
1161	1	111.7	92.2	107.8
1162	1	111.7	107.8	92.2
1163	1	111.7	107.8	107.8
1164	1	88.3	90.25	94.15
1165	1	88.3	90.25	105.85
1166	1	88.3	94.15	90.25
1167	1	88.3	94.15	109.75
1168	1	88.3	105.85	90.25
1169	1	88.3	105.85	109.75
1170	1	88.3	109.75	94.15
1171	1	88.3	109.75	105.85
1172	1	90.25	88.3	94.15
1173	1	90.25	88.3	105.85
1174	1	90.25	94.15	88.3
1175	1	90.25	94.15	111.7
1176	1	90.25	105.85	88.3
1177	1	90.25	105.85	111.7
1178	1	90.25	111.7	94.15
1179	1	90.25	111.7	105.85
1180	1	94.15	88.3	90.25
1181	1	94.15	88.3	109.75
1182	1	94.15	90.25	88.3
1183	1	94.15	90.25	111.7
1184	1	94.15	109.75	88.3
1185	1	94.15	109.75	111.7
1186	1	94.15	111.7	90.25
1187	1	94.15	111.7	109.75
1188	1	105.85	88.3	90.25
1189	1	105.85	88.3	109.75
1190	1	105.85	90.25	88.3
1191	1	105.85	90.25	111.7
1192	1	105.85	109.75	88.3
1193	1	105.85	109.75	111.7
1194	1	105.85	111.7	90.25
1195	1	105.85	111.7	109.75
1196	1	109.75	88.3	94.15
1197	1	109.75	88.3	105.85
1198	1	109.75	94.15	88.3
1199	1	109.75	94.15	111.7
1200	1	109.75	105.85	88.3
1201	1	109.75	105.85	111.7
1202	1	109.75	111.7	94.15
1203	1	109.75	111.7	105.85
1204	1	111.7	90.25	94.15
1205	1	111.7	90.25	105.85
1206	1	111.7	94.15	90.25
1207	1	111.7	94.15	109.75
1208	1	111.7	105.85	90.25
1209	1	111.7	105.85	109.75
1210	1	111.7	109.75	94.15
1211	1	111.7	109.75	105.85
1212	1	86.35	90.25	100
1213	1	86.35	92.2	94.15
1214	1	86.35	92.2	105.85
1215	1	86.35	94.15	92.2
1216	1	86.35	94.15	107.8
1217	1	86.35	100	90.25
1218	1	86.35	100	109.75
1219	1	86.35	105.85	92.2
1220	1	86.35	105.85	107.8
1221	1	86.35	107.8	94.15
1222	1	86.35	107.8	105.85
1223	1	86.35	109.75	100
1224	1	90.25	86.35	100
1225	1	90.25	100	86.35
1226	1	90.25	100	113.65
1227	1	90.25	113.65	100
1228	1	92.2	86.35	94.15
1229	1	92.2	86.35	105.85
1230	1	92.2	94.15	86.35
1231	1	92.2	94.15	113.65
1232	1	92.2	105.85	86.35
1233	1	92.2	105.85	113.65
1234	1	92.2	113.65	94.15
1235	1	92.2	113.65	105.85
1236	1	94.15	86.35	92.2
1237	1	94.15	86.35	107.8
1238	1	94.15	92.2	86.35
1239	1	94.15	92.2	113.65
1240	1	94.15	107.8	86.35
1241	1	94.15	107.8	113.65
1242	1	94.15	113.65	92.2
1243	1	94.15	113.65	107.8
1244	1	100	86.35	90.25
1245	1	100	86.35	109.75
1246	1	100	90.25	86.35
1247	1	100	90.25	113.65
1248	1	100	109.75	86.35
1249	1	100	109.75	113.65
1250	1	100	113.65	90.25
1251	1	100	113.65	109.75
1252	1	105.85	86.35	92.2
1253	1	105.85	86.35	107.8
1254	1	105.85	92.2	86.35
1255	1	105.85	92.2	113.65
1256	1	105.85	107.8	86.35
1257	1	105.85	107.8	113.65
1258	1	105.85	113.65	92.2
1259	1	105.85	113.65	107.8
1260	1	107.8	86.35	94.15
1261	1	107.8	86.35	105.85
1262	1	107.8	94.15	86.35
1263	1	107.8	94.15	113.65
1264	1	107.8	105.85	86.35
1265	1	107.8	105.85	113.65
1266	1	107.8	113.65	94.15
1267	1	107.8	113.65	105.85
1268	1	109.75	86.35	100
1269	1	109.75	100	86.35
1270	1	109.75	100	113.65
1271	1	109.75	113.65	100
1272	1	113.65	90.25	100
1273	1	113.65	92.2	94.15
1274	1	113.65	92.2	105.85
1275	1	113.65	94.15	92.2
1276	1	113.65	94.15	107.8
1277	1	113.65	100	90.25
1278	1	113.65	100	109.75
1279	1	113.65	105.85	92.2
1280	1	113.65	105.85	107.8
1281	1	113.65	107.8	94.15
1282	1	113.65	107.8	105.85
1283	1	113.65	109.75	100
1284	1	88.3	88.3	96.1
1285	1	88.3	88.3	103.9
1286	1	88.3	96.1	88.3
1287	1	88.3	96.1	111.7
1288	1	88.3	103.9	88.3
1289	1	88.3	103.9	111.7
1290	1	88.3	111.7	96.1
1291	1	88.3	111.7	103.9
1292	1	96.1	88.3	88.3
1293	1	96.1	88.3	111.7
1294	1	96.1	111.7	88.3
1295	1	96.1	111.7	111.7
1296	1	103.9	88.3	88.3
1297	1	103.9	88.3	111.7
1298	1	103.9	111.7	88.3
1299	1	103.9	111.7	111.7
1300	1	111.7	88.3	96.1
1301	1	111.7	88.3	103.9
1302	1	111.7	96.1	88.3
1303	1	111.7	96.1	111.7
1304	1	111.7	103.9	88.3
1305	1	111.7	103.9	111.7
1306	1	111.7	111.7	96.1
1307	1	111.7	111.7	103.9
1308	1	86.35	90.25	96.1
1309	1	86.35	90.25	103.9
1310	1	86.35	96.1	90.25
1311	1	86.35	96.1	109.75
1312	1	86.35	103.9	90.25
1313	1	86.35	103.9	109.75
1314	1	86.35	109.75	96.1
1315	1	86.35	109.75	103.9
1316	1	90.25	86.35	96.1
1317	1	90.25	86.35	103.9
1318	1	90.25	96.1	86.35
1319	1	90.25	96.1	113.65
1320	1	90.25	103.9	86.35
1321	1	90.25	103.9	113.65
1322	1	90.25	113.65	96.1
1323	1	90.25	113.65	103.9
1324	1	96.1	86.35	90.25
1325	1	96.1	86.35	109.75
1326	1	96.1	90.25	86.35
1327	1	96.1	90.25	113.65
1328	1	96.1	109.75	86.35
1329	1	96.1	109.75	113.65
1330	1	96.1	113.65	90.25
1331	1	96.1	113.65	109.75
1332	1	103.9	86.35	90.25
1333	1	103.9	86.35	109.75
1334	1	103.9	90.25	86.35
1335	1	103.9	90.25	113.65
1336	1	103.9	109.75	86.35
1337	1	103.9	109.75	113.65
1338	1	103.9	113.65	90.25
1339	1	103.9	113.65	109.75
1340	1	109.75	86.35	96.1
1341	1	109.75	86.35	103.9
1342	1	109.75	96.1	86.35
1343	1	109.75	96.1	113.65
1344	1	109.75	103.9	86.35
1345	1	109.75	103.9	113.65
1346	1	109.75	113.65	96.1
1347	1	109.75	113.65	103.9
1348	1	113.65	90.25	96.1
1349	1	113.65	90.25	103.9
1350	1	113.65	96.1	90.25
1351	1	113.65	96.1	109.75
1352	1	113.65	103.9	90.25
1353	1	113.65	103.9	109.75
1354	1	113.65	109.75	96.1
1355	1	113.65	109.75	103.9
1356	1	86.35	88.3	98.05
1357	1	86.35	88.3	101.95
1358	1	86.35	98.05	88.3
1359	1	86.35	98.05	111.7
1360	1	86.35	101.95	88.3
1361	1	86.35	101.95	111.7
1362	1	86.35	111.7	98.05
1363	1	86.35	111.7	101.95
1364	1	88.3	86.35	98.05
1365	1	88.3	86.35	101.95
1366	1	88.3	98.05	86.35
1367	1	88.3	98.05	113.65
1368	1	88.3	101.95	86.35
1369	1	88.3	101.95	113.65
1370	1	88.3	113.65	98.05
1371	1	88.3	113.65	101.95
1372	1	98.05	86.35	88.3
1373	1	98.05	86.35	111.7
1374	1	98.05	88.3	86.35
1375	1	98.05	88.3	113.65
1376	1	98.05	111.7	86.35
1377	1	98.05	111.7	113.65
1378	1	98.05	113.65	88.3
1379	1	98.05	113.65	111.7
1380	1	101.95	86.35	88.3
1381	1	101.95	86.35	111.7
1382	1	101.95	88.3	86.35
1383	1	101.95	88.3	113.65
1384	1	101.95	111.7	86.35
1385	1	101.95	111.7	113.65
1386	1	101.95	113.65	88.3
1387	1	101.95	113.65	111.7
1388	1	111.7	86.35	98.05
1389	1	111.7	86.35	101.95
1390	1	111.7	98.05	86.35
1391	1	111.7	98.05	113.65
1392	1	111.7	101.95	86.35
1393	1	111.7	101.95	113.65
1394	1	111.7	113.65	98.05
1395	1	111.7	113.65	101.95
1396	1	113.65	88.3	98.05
1397	1	113.65	88.3	101.95
1398	1	113.65	98.05	88.3
1399	1	113.65	98.05	111.7
1400	1	113.65	101.95	88.3
1401	1	113.65	101.95	111.7
1402	1	113.65	111.7	98.05
1403	1	113.65	111.7	101.95
1404	1	86.35	86.35	100
1405	1	86.35	100	86.35
1406	1	86.35	100	113.65
1407	1	86.35	113.65	100
1408	1	100	86.35	86.35
1409	1	100	86.35	113.65
1410	1	100	113.65	86.35
1411	1	100	113.65	113.65
1412	1	113.65	86.35	100
1413	1	113.65	100	86.35
1414	1	113.65	100	113.65
1415	1	113.65	113.65	100
				
